TITLE="results for TO code"
VARIABLES = "x", "y", "z", "density", "sigmaxx", "sigmayy", "sigmazz", "sigmaxy", "sigmaxz", "sigmayz"
ZONE T="load step 1", NODES= 12221, ELEMENTS= 10000, DATAPACKING=POINT, ZONETYPE=FEBRICK
               0.00000000                0.00000000                0.00000000                1.00000000               -0.00000000               -0.00000000                0.09680518               -0.00000000                0.04200784                0.04456533
               1.00000000                0.00000000                0.00000000                1.00000000                0.00000000                0.00000000                0.07879777               -0.00000000                0.01363749                0.04098962
               2.00000000                0.00000000                0.00000000                1.00000000               -0.00000000               -0.00000000                0.04587456                0.00000000               -0.00644778                0.02789890
               3.00000000                0.00000000                0.00000000                1.00000000                0.00000000                0.00000000               -0.00228908               -0.00000000               -0.00299718                0.00179875
               4.00000000                0.00000000                0.00000000                1.00000000                0.00000000                0.00000000                0.00015606                0.00000000                0.00120110               -0.00059509
               5.00000000                0.00000000                0.00000000                1.00000000                0.00000000               -0.00000000               -0.00142750                0.00000000                0.00736617                0.00169863
               6.00000000                0.00000000                0.00000000                1.00000000               -0.00000000               -0.00000000                0.03142828               -0.00000000                0.02158149                0.02571489
               7.00000000                0.00000000                0.00000000                1.00000000               -0.00000000                0.00000000                0.08537737                0.00000000                0.01732644                0.05388674
               8.00000000                0.00000000                0.00000000                1.00000000                0.00000000               -0.00000000                0.10495630               -0.00000000               -0.00106857                0.06275294
               9.00000000                0.00000000                0.00000000                1.00000000                0.00000000                0.00000000                0.11029672               -0.00000000               -0.02480279                0.06456913
              10.00000000                0.00000000                0.00000000                1.00000000                0.00000000                0.00000000                0.13164091               -0.00000000               -0.06192168                0.06790345
               0.00000000                1.00000000                0.00000000                1.00000000                0.00000000               -0.00000000                0.07989402                0.00000000                0.04144407                0.01579736
               1.00000000                1.00000000                0.00000000                1.00000000               -0.00000000               -0.00000000                0.04873645               -0.00000000                0.01521548                0.01447320
               2.00000000                1.00000000                0.00000000                1.00000000                0.00000000                0.00000000                0.01539053                0.00000000                0.00298285                0.00598169
               3.00000000                1.00000000                0.00000000                1.00000000                0.00000000               -0.00000000               -0.00108237                0.00000000                0.00226411                0.00157600
               4.00000000                1.00000000                0.00000000                1.00000000                0.00000000                0.00000000                0.00016150               -0.00000000                0.00106554               -0.00093783
               5.00000000                1.00000000                0.00000000                1.00000000               -0.00000000                0.00000000               -0.00082564                0.00000000                0.00121099                0.00029312
               6.00000000                1.00000000                0.00000000                1.00000000               -0.00000000                0.00000000                0.00920842                0.00000000                0.00583552                0.00425643
               7.00000000                1.00000000                0.00000000                1.00000000                0.00000000               -0.00000000                0.04433559               -0.00000000                0.00715183                0.01546371
               8.00000000                1.00000000                0.00000000                1.00000000                0.00000000                0.00000000                0.07936357               -0.00000000               -0.00654122                0.02563066
               9.00000000                1.00000000                0.00000000                1.00000000               -0.00000000               -0.00000000                0.09097887               -0.00000000               -0.02955748                0.02775513
              10.00000000                1.00000000                0.00000000                1.00000000               -0.00000000               -0.00000000                0.10757655               -0.00000000               -0.06323846                0.02978035
               0.00000000                2.00000000                0.00000000                1.00000000               -0.00000000                0.00000000                0.04832224                0.00000000                0.02991657               -0.00509622
               1.00000000                2.00000000                0.00000000                1.00000000                0.00000000               -0.00000000                0.01561988               -0.00000000                0.00767995                0.00290637
               2.00000000                2.00000000                0.00000000                1.00000000               -0.00000000                0.00000000               -0.00284144               -0.00000000                0.00347049                0.00314695
               3.00000000                2.00000000                0.00000000                1.00000000                0.00000000               -0.00000000                0.00074623                0.00000000                0.00149878                0.00077786
               4.00000000                2.00000000                0.00000000                1.00000000               -0.00000000               -0.00000000               -0.00012766               -0.00000000                0.00064337                0.00002537
               5.00000000                2.00000000                0.00000000                1.00000000               -0.00000000                0.00000000                0.00033485                0.00000000                0.00014921               -0.00019332
               6.00000000                2.00000000                0.00000000                1.00000000                0.00000000               -0.00000000               -0.00116899               -0.00000000               -0.00049149                0.00105629
               7.00000000                2.00000000                0.00000000                1.00000000               -0.00000000                0.00000000                0.00451522                0.00000000                0.00092802                0.00173036
               8.00000000                2.00000000                0.00000000                1.00000000                0.00000000               -0.00000000                0.03635598               -0.00000000               -0.00650220               -0.00071534
               9.00000000                2.00000000                0.00000000                1.00000000               -0.00000000               -0.00000000                0.06941200                0.00000000               -0.02756853                0.00385724
              10.00000000                2.00000000                0.00000000                1.00000000                0.00000000                0.00000000                0.10463050               -0.00000000               -0.06168144                0.00325982
               0.00000000                3.00000000                0.00000000                1.00000000                0.00000000                0.00000000               -0.00230697               -0.00000000                0.00223472               -0.00285541
               1.00000000                3.00000000                0.00000000                1.00000000               -0.00000000                0.00000000               -0.00108843                0.00000000                0.00179496                0.00257802
               2.00000000                3.00000000                0.00000000                1.00000000               -0.00000000                0.00000000                0.00076250               -0.00000000                0.00091955                0.00157347
               3.00000000                3.00000000                0.00000000                1.00000000               -0.00000000               -0.00000000               -0.00013079               -0.00000000                0.00068914                0.00066885
               4.00000000                3.00000000                0.00000000                1.00000000               -0.00000000                0.00000000                0.00008170               -0.00000000                0.00026519                0.00013046
               5.00000000                3.00000000                0.00000000                1.00000000                0.00000000               -0.00000000               -0.00004870               -0.00000000               -0.00010530                0.00011556
               6.00000000                3.00000000                0.00000000                1.00000000               -0.00000000                0.00000000                0.00017432                0.00000000               -0.00027342                0.00029471
               7.00000000                3.00000000                0.00000000                1.00000000                0.00000000                0.00000000                0.00057370                0.00000000               -0.00135501                0.00044920
               8.00000000                3.00000000                0.00000000                1.00000000                0.00000000               -0.00000000               -0.00589970                0.00000000               -0.00373637                0.00149480
               9.00000000                3.00000000                0.00000000                1.00000000                0.00000000                0.00000000                0.02265418               -0.00000000               -0.01178348               -0.00422794
              10.00000000                3.00000000                0.00000000                1.00000000               -0.00000000               -0.00000000                0.07128896                0.00000000               -0.04486944               -0.01855203
               0.00000000                4.00000000                0.00000000                1.00000000                0.00000000               -0.00000000                0.00044415                0.00000000               -0.00063430                0.00202370
               1.00000000                4.00000000                0.00000000                1.00000000               -0.00000000                0.00000000                0.00024792               -0.00000000               -0.00100310                0.00128314
               2.00000000                4.00000000                0.00000000                1.00000000               -0.00000000                0.00000000               -0.00022628               -0.00000000                0.00008246                0.00075104
               3.00000000                4.00000000                0.00000000                1.00000000                0.00000000                0.00000000                0.00011596                0.00000000                0.00011572                0.00033038
               4.00000000                4.00000000                0.00000000                1.00000000                0.00000000               -0.00000000               -0.00001213                0.00000000                0.00008866                0.00011743
               5.00000000                4.00000000                0.00000000                1.00000000               -0.00000000                0.00000000                0.00002859                0.00000000               -0.00004506                0.00007366
               6.00000000                4.00000000                0.00000000                1.00000000                0.00000000               -0.00000000                0.00004098               -0.00000000               -0.00026167                0.00015784
               7.00000000                4.00000000                0.00000000                1.00000000                0.00000000                0.00000000               -0.00017510                0.00000000               -0.00056583                0.00053494
               8.00000000                4.00000000                0.00000000                1.00000000               -0.00000000                0.00000000                0.00119689               -0.00000000               -0.00088208                0.00090463
               9.00000000                4.00000000                0.00000000                1.00000000                0.00000000               -0.00000000               -0.00179660                0.00000000               -0.00236619                0.00039640
              10.00000000                4.00000000                0.00000000                1.00000000               -0.00000000                0.00000000               -0.00308516               -0.00000000               -0.00459641               -0.00905610
               0.00000000                5.00000000                0.00000000                1.00000000                0.00000000                0.00000000               -0.00321208                0.00000000                0.00417330                0.01027813
               1.00000000                5.00000000                0.00000000                1.00000000               -0.00000000               -0.00000000               -0.00201308               -0.00000000                0.00126513                0.00199465
               2.00000000                5.00000000                0.00000000                1.00000000               -0.00000000                0.00000000                0.00095067               -0.00000000               -0.00024038                0.00047409
               3.00000000                5.00000000                0.00000000                1.00000000               -0.00000000                0.00000000               -0.00024022               -0.00000000                0.00009133                0.00000792
               4.00000000                5.00000000                0.00000000                1.00000000                0.00000000               -0.00000000                0.00006730               -0.00000000                0.00000652                0.00002956
               5.00000000                5.00000000                0.00000000                1.00000000               -0.00000000                0.00000000                0.00000447                0.00000000               -0.00003926               -0.00000732
               6.00000000                5.00000000                0.00000000                1.00000000               -0.00000000               -0.00000000                0.00000994               -0.00000000               -0.00012648                0.00004558
               7.00000000                5.00000000                0.00000000                1.00000000               -0.00000000               -0.00000000                0.00008410               -0.00000000               -0.00015759                0.00013078
               8.00000000                5.00000000                0.00000000                1.00000000                0.00000000                0.00000000               -0.00013852                0.00000000               -0.00007310                0.00028978
               9.00000000                5.00000000                0.00000000                1.00000000                0.00000000                0.00000000                0.00016434                0.00000000                0.00067539               -0.00026193
              10.00000000                5.00000000                0.00000000                1.00000000               -0.00000000                0.00000000                0.00024652               -0.00000000                0.00055381               -0.00243265
               0.00000000                6.00000000                0.00000000                1.00000000               -0.00000000               -0.00000000                0.06422095               -0.00000000                0.03723910                0.02588867
               1.00000000                6.00000000                0.00000000                1.00000000                0.00000000                0.00000000                0.02247890                0.00000000                0.00579845                0.00953176
               2.00000000                6.00000000                0.00000000                1.00000000                0.00000000               -0.00000000               -0.00443159               -0.00000000                0.00121965                0.00019924
               3.00000000                6.00000000                0.00000000                1.00000000               -0.00000000                0.00000000                0.00088975               -0.00000000               -0.00000439                0.00010653
               4.00000000                6.00000000                0.00000000                1.00000000               -0.00000000                0.00000000               -0.00010586               -0.00000000                0.00004885               -0.00022696
               5.00000000                6.00000000                0.00000000                1.00000000               -0.00000000               -0.00000000                0.00003192                0.00000000               -0.00000019               -0.00010310
               6.00000000                6.00000000                0.00000000                1.00000000               -0.00000000               -0.00000000                0.00002421                0.00000000               -0.00012356               -0.00011883
               7.00000000                6.00000000                0.00000000                1.00000000                0.00000000                0.00000000                0.00001265               -0.00000000               -0.00019473               -0.00026465
               8.00000000                6.00000000                0.00000000                1.00000000               -0.00000000                0.00000000                0.00007838                0.00000000                0.00007795               -0.00049593
               9.00000000                6.00000000                0.00000000                1.00000000               -0.00000000               -0.00000000                0.00001215                0.00000000                0.00042184               -0.00069832
              10.00000000                6.00000000                0.00000000                1.00000000               -0.00000000                0.00000000               -0.00037135               -0.00000000                0.00052644               -0.00088806
               0.00000000                7.00000000                0.00000000                1.00000000               -0.00000000               -0.00000000                0.09370379               -0.00000000                0.05128317                0.01307285
               1.00000000                7.00000000                0.00000000                1.00000000               -0.00000000               -0.00000000                0.05785044                0.00000000                0.01646186                0.00669083
               2.00000000                7.00000000                0.00000000                1.00000000               -0.00000000                0.00000000                0.01941703               -0.00000000               -0.00019024                0.00315060
               3.00000000                7.00000000                0.00000000                1.00000000               -0.00000000               -0.00000000               -0.00145688                0.00000000               -0.00016403               -0.00145241
               4.00000000                7.00000000                0.00000000                1.00000000                0.00000000               -0.00000000                0.00012536               -0.00000000                0.00036796               -0.00047800
               5.00000000                7.00000000                0.00000000                1.00000000               -0.00000000                0.00000000                0.00003045               -0.00000000                0.00009250               -0.00019236
               6.00000000                7.00000000                0.00000000                1.00000000                0.00000000                0.00000000                0.00002108               -0.00000000               -0.00026565               -0.00021104
               7.00000000                7.00000000                0.00000000                1.00000000               -0.00000000               -0.00000000                0.00009986                0.00000000               -0.00067059               -0.00068775
               8.00000000                7.00000000                0.00000000                1.00000000                0.00000000               -0.00000000               -0.00002251                0.00000000               -0.00086871               -0.00181376
               9.00000000                7.00000000                0.00000000                1.00000000                0.00000000                0.00000000                0.00032534               -0.00000000                0.00033521               -0.00225201
              10.00000000                7.00000000                0.00000000                1.00000000               -0.00000000                0.00000000                0.00034338               -0.00000000                0.00112208               -0.00052892
               0.00000000                8.00000000                0.00000000                1.00000000               -0.00000000               -0.00000000                0.10063741               -0.00000000                0.05864817               -0.00161416
               1.00000000                8.00000000                0.00000000                1.00000000                0.00000000               -0.00000000                0.07497871                0.00000000                0.02330156               -0.00673880
               2.00000000                8.00000000                0.00000000                1.00000000               -0.00000000               -0.00000000                0.03847874               -0.00000000                0.00123934               -0.00735309
               3.00000000                8.00000000                0.00000000                1.00000000               -0.00000000                0.00000000               -0.00438076                0.00000000                0.00139488               -0.00300710
               4.00000000                8.00000000                0.00000000                1.00000000               -0.00000000                0.00000000                0.00071435                0.00000000                0.00096135               -0.00096383
               5.00000000                8.00000000                0.00000000                1.00000000               -0.00000000                0.00000000               -0.00005011               -0.00000000                0.00031242               -0.00012013
               6.00000000                8.00000000                0.00000000                1.00000000                0.00000000               -0.00000000                0.00006950                0.00000000               -0.00045978                0.00001093
               7.00000000                8.00000000                0.00000000                1.00000000                0.00000000                0.00000000               -0.00001956                0.00000000               -0.00177860               -0.00089198
               8.00000000                8.00000000                0.00000000                1.00000000                0.00000000                0.00000000                0.00103988                0.00000000               -0.00357189               -0.00357636
               9.00000000                8.00000000                0.00000000                1.00000000               -0.00000000                0.00000000               -0.00167450               -0.00000000               -0.00521267               -0.00799221
              10.00000000                8.00000000                0.00000000                1.00000000               -0.00000000               -0.00000000               -0.00430389                0.00000000               -0.00363380                0.00037575
               0.00000000                9.00000000                0.00000000                1.00000000                0.00000000                0.00000000                0.11053620                0.00000000                0.06495491               -0.02291898
               1.00000000                9.00000000                0.00000000                1.00000000               -0.00000000               -0.00000000                0.08180173               -0.00000000                0.02933523               -0.02570633
               2.00000000                9.00000000                0.00000000                1.00000000                0.00000000                0.00000000                0.05040231                0.00000000                0.00800621               -0.02147190
               3.00000000                9.00000000                0.00000000                1.00000000               -0.00000000                0.00000000                0.00865350               -0.00000000                0.00113066               -0.00781725
               4.00000000                9.00000000                0.00000000                1.00000000                0.00000000               -0.00000000               -0.00048988               -0.00000000                0.00148801               -0.00150565
               5.00000000                9.00000000                0.00000000                1.00000000               -0.00000000               -0.00000000                0.00007495                0.00000000                0.00001918                0.00047136
               6.00000000                9.00000000                0.00000000                1.00000000                0.00000000                0.00000000                0.00003049               -0.00000000               -0.00052437                0.00031761
               7.00000000                9.00000000                0.00000000                1.00000000               -0.00000000               -0.00000000                0.00032817               -0.00000000               -0.00218212                0.00031688
               8.00000000                9.00000000                0.00000000                1.00000000                0.00000000                0.00000000               -0.00167229               -0.00000000               -0.00795765               -0.00516250
               9.00000000                9.00000000                0.00000000                1.00000000               -0.00000000               -0.00000000                0.03112985                0.00000000               -0.01752086               -0.01734916
              10.00000000                9.00000000                0.00000000                1.00000000                0.00000000                0.00000000                0.09352683                0.00000000               -0.05268974               -0.01173727
               0.00000000               10.00000000                0.00000000                1.00000000                0.00000000                0.00000000                0.13100443               -0.00000000                0.06784241               -0.05965463
               1.00000000               10.00000000                0.00000000                1.00000000                0.00000000                0.00000000                0.10183977                0.00000000                0.03124179               -0.05701430
               2.00000000               10.00000000                0.00000000                1.00000000               -0.00000000               -0.00000000                0.08150967               -0.00000000                0.00726104               -0.05167122
               3.00000000               10.00000000                0.00000000                1.00000000                0.00000000               -0.00000000                0.03788824                0.00000000               -0.01046690               -0.02932468
               4.00000000               10.00000000                0.00000000                1.00000000                0.00000000                0.00000000               -0.00159574                0.00000000               -0.00461250               -0.00167339
               5.00000000               10.00000000                0.00000000                1.00000000                0.00000000                0.00000000                0.00003554               -0.00000000               -0.00119413                0.00048828
               6.00000000               10.00000000                0.00000000                1.00000000                0.00000000                0.00000000               -0.00031230               -0.00000000               -0.00058647                0.00051957
               7.00000000               10.00000000                0.00000000                1.00000000                0.00000000               -0.00000000                0.00034142                0.00000000               -0.00045686                0.00112663
               8.00000000               10.00000000                0.00000000                1.00000000                0.00000000               -0.00000000               -0.00433116               -0.00000000                0.00041228               -0.00356093
               9.00000000               10.00000000                0.00000000                1.00000000                0.00000000                0.00000000                0.09330294                0.00000000               -0.01140604               -0.05235523
              10.00000000               10.00000000                0.00000000                1.00000000               -0.00000000               -0.00000000                0.19206292                0.00000000               -0.06717316               -0.06773061
               0.00042008                0.00044565                1.00096805                1.00000000               -0.02837035               -0.02876797                0.09023990               -0.00413947                0.01182429                0.01762078
               1.00013637                0.00040990                1.00078798                0.92218890               -0.02422781               -0.02651642                0.08182588               -0.00675523               -0.00773584                0.00226988
               1.99993552                0.00027899                1.00045875                0.01000000               -0.00831733               -0.02191720                0.07313684               -0.01016480               -0.03690880               -0.00079535
               2.99997003                0.00001799                0.99997711                0.01000000                0.00382444               -0.00022275                0.08876485               -0.00898571               -0.02338302                0.01735600
               4.00001201               -0.00000595                1.00000156                0.01010057                0.00518167               -0.00034274                0.04591474               -0.00018562                0.01010823                0.03964441
               5.00007366                0.00001699                0.99998572                0.01000001                0.01019020               -0.00140551                0.06035653                0.00699981                0.03438989                0.03689614
               6.00021581                0.00025715                1.00031428                0.66847755                0.00498014               -0.02145847                0.08560940                0.01034808                0.07328293                0.00260230
               7.00017326                0.00053887                1.00085377                1.00000000               -0.01132503               -0.03842303                0.09044526                0.00834441                0.05009370               -0.00635022
               7.99998931                0.00062753                1.00104956                0.99999999               -0.02106462               -0.03712228                0.10096369               -0.00013145                0.00887935                0.01432259
               8.99975197                0.00064569                1.00110297                1.00000000               -0.03042655               -0.03681400                0.11271573               -0.00217943               -0.00713532                0.02415812
               9.99938078                0.00067903                1.00131641                0.99951052               -0.03711888               -0.03812310                0.12049505                0.00201754               -0.01530020                0.02309617
               0.00041444                1.00015797                1.00079894                0.95772554               -0.02622859               -0.02483078                0.08046323               -0.00736979                0.00172606               -0.00173860
               1.00015215                1.00014473                1.00048736                0.01000001               -0.01923061               -0.01904162                0.07047644               -0.00788660               -0.01131124               -0.01141305
               2.00002983                1.00005982                1.00015391                0.01000001               -0.00647569               -0.01237597                0.06354678               -0.00148946               -0.01734416               -0.01071428
               3.00002264                1.00001576                0.99998918                0.01000001               -0.00095866               -0.00051045                0.07725082               -0.00121179               -0.00456897                0.02091200
               4.00001066                0.99999062                1.00000162                0.01000000               -0.00052656                0.00031023                0.03746537               -0.00092031                0.00963736                0.01286522
               5.00001211                1.00000293                0.99999174                0.01000000                0.00238499               -0.00094597                0.04828683               -0.00101135                0.02260062                0.01336326
               6.00005836                1.00004256                1.00009208                0.01047476                0.00297042               -0.01232930                0.07951529               -0.00345120                0.04677188               -0.00691078
               7.00007152                1.00015464                1.00044336                0.58366254               -0.00618837               -0.02607819                0.09869378                0.00248791                0.04155206               -0.02198571
               7.99993459                1.00025631                1.00079364                0.99999998               -0.01835465               -0.03173414                0.09975778                0.00342889                0.01339465               -0.01006571
               8.99970443                1.00027755                1.00090979                0.99999999               -0.02834862               -0.03035594                0.10138703                0.00069198               -0.01164734                0.00659530
               9.99936762                1.00029780                1.00107577                0.99999999               -0.03368098               -0.03232182                0.11039101                0.00214535               -0.02525238                0.01725420
               0.00029917                1.99994904                1.00048322                0.01000001               -0.02223662               -0.00932638                0.07138435               -0.01160208                0.00281251               -0.03240271
               1.00007680                2.00002906                1.00015620                0.01000001               -0.01322304               -0.00594759                0.05819488               -0.00258867               -0.00533974               -0.01822218
               2.00003470                2.00003147                0.99997159                0.01000001               -0.00309059               -0.00220411                0.08540291               -0.00209591                0.01277362                0.00150555
               3.00001499                2.00000778                1.00000746                0.01000001               -0.00141356               -0.00045357                0.02848076               -0.00234828                0.01589657                0.00987307
               4.00000643                2.00000025                0.99999872                0.01000001               -0.00067478                0.00053415                0.04192903               -0.00088576                0.01100120                0.00352612
               5.00000149                1.99999807                1.00000335                0.01000000               -0.00056743               -0.00008878                0.04376045               -0.00014268                0.01010410                0.00089517
               5.99999509                2.00001056                0.99998831                0.01000000                0.00038941               -0.00198086                0.04325724               -0.00209263                0.01017028               -0.00418912
               7.00000928                2.00001730                1.00004515                0.01000000               -0.00300536               -0.00750725                0.12935585               -0.00513923                0.01548609               -0.01615392
               7.99993498                1.99999285                1.00036356                0.01000000               -0.01424827               -0.01206793                0.09972435                0.00246586                0.01755488               -0.03854893
               8.99972431                2.00003857                1.00069412                1.00000000               -0.02758962               -0.01599153                0.08821980                0.01087458                0.00290258               -0.02380898
               9.99938319                2.00003260                1.00104631                1.00000000               -0.03411291               -0.02416619                0.10156745                0.00858708               -0.01098362               -0.00369423
               0.00002235                2.99997145                0.99997693                0.01187075               -0.00043977                0.00355996                0.08717627               -0.00984200                0.02981240               -0.01902109
               1.00001795                3.00002578                0.99998912                0.01000001               -0.00065759               -0.00081162                0.07409394               -0.00212708                0.03533803               -0.00629009
               2.00000920                3.00001573                1.00000763                0.01000001               -0.00055291               -0.00119796                0.02716362               -0.00264860                0.01976244                0.01004331
               3.00000689                3.00000669                0.99999869                0.01000001               -0.00032718               -0.00022374                0.04064371               -0.00141304                0.01182264                0.00341960
               4.00000265                3.00000130                1.00000082                0.01000001               -0.00039722                0.00004603                0.03710791               -0.00055400                0.00977349               -0.00059537
               4.99999895                3.00000116                0.99999951                0.01000001               -0.00026931                0.00013349                0.03940377               -0.00001501                0.00708111               -0.00466367
               5.99999727                3.00000295                1.00000174                0.01000001               -0.00062485               -0.00044923                0.04728503                0.00028173                0.00344164               -0.00610306
               6.99998645                3.00000449                1.00000574                0.01000001               -0.00173147               -0.00059771                0.04702931               -0.00014688               -0.00722609               -0.01065089
               7.99996264                3.00001495                0.99994100                0.01145999               -0.00521424                0.00080998                0.05204335                0.00047149               -0.00606701               -0.01928277
               8.99988217                2.99995772                1.00022654                0.01000000               -0.02056654               -0.00173042                0.07402521                0.00257775                0.00749728               -0.04202555
               9.99955131                2.99981448                1.00071289                0.09903478               -0.03308596               -0.00615796                0.09337603                0.01421843               -0.00209936               -0.05651068
              -0.00000634                4.00002024                1.00000444                0.01000001               -0.00036880                0.00656677                0.04415610                0.00022872                0.04801371                0.00503257
               0.99998997                4.00001283                1.00000248                0.01000000                0.00035838               -0.00029169                0.03277270               -0.00090124                0.01982002                0.00568131
               2.00000082                4.00000751                0.99999774                0.01000001                0.00055941               -0.00054969                0.04224223               -0.00105635                0.01332146                0.00620143
               3.00000116                4.00000330                1.00000116                0.01000001                0.00000310               -0.00033047                0.03658908               -0.00061571                0.00972001                0.00077189
               4.00000089                4.00000117                0.99999988                0.01082346               -0.00008039               -0.00005045                0.03434346               -0.00025770                0.00708940               -0.00411023
               4.99999955                4.00000074                1.00000029                0.01000001               -0.00017517               -0.00006144                0.03696222                0.00005323                0.00455357               -0.00739440
               5.99999738                4.00000158                1.00000041                0.01000001               -0.00026038               -0.00012457                0.04401116                0.00030411                0.00134896               -0.00985197
               6.99999434                4.00000535                0.99999825                0.01000000               -0.00031020               -0.00015921                0.04765488                0.00097210               -0.00485938               -0.01001491
               7.99999118                4.00000905                1.00001197                0.01000000               -0.00090018               -0.00060251                0.04399493                0.00176237               -0.01446317               -0.00647111
               8.99997634                4.00000396                0.99998203                0.01000000               -0.00185717                0.00198300                0.04773077                0.00124907               -0.03128720               -0.02019673
               9.99995404                3.99990944                0.99996915                0.01000000               -0.00223022                0.00805969                0.06691534                0.01325912               -0.05441081               -0.04272835
               0.00004173                5.00010278                0.99996788                0.01000003               -0.00290817                0.01193248                0.06580383                0.01065322                0.04885996                0.04422070
               1.00001265                5.00001995                0.99997987                0.01000000               -0.00220684                0.00412431                0.04948727               -0.00150124                0.02400460                0.02275713
               1.99999760                5.00000474                1.00000951                0.01000000               -0.00058690               -0.00027590                0.04215728               -0.00042477                0.01065111                0.00148515
               3.00000091                5.00000008                0.99999760                0.01000001                0.00012345               -0.00011192                0.03759563               -0.00028232                0.00664697               -0.00281165
               4.00000007                5.00000030                1.00000067                0.01000001               -0.00006530               -0.00017219                0.03580142               -0.00002753                0.00627890               -0.00855312
               4.99999961                4.99999993                1.00000004                0.01038656               -0.00006650               -0.00008838                0.03681008                0.00003044                0.00402309               -0.01177446
               5.99999874                5.00000046                1.00000010                0.01000000               -0.00005917               -0.00013833                0.04216554                0.00013810                0.00081559               -0.01327096
               6.99999842                5.00000131                1.00000084                0.01000000                0.00002669               -0.00039979                0.04402878                0.00030765               -0.00504133               -0.01343811
               7.99999927                5.00000290                0.99999861                0.01000001                0.00041649               -0.00070028                0.04298488                0.00028366               -0.01348865               -0.01150156
               9.00000675                4.99999738                1.00000164                0.01000001                0.00031345               -0.00054736                0.04565921                0.00003280               -0.02568342               -0.00859170
              10.00000554                4.99997567                1.00000247                0.01000000               -0.00012158                0.00408402                0.05901802                0.00039071               -0.04757621               -0.00909380
               0.00037239                6.00025889                1.00064221                0.96504017               -0.03144065                0.00139736                0.08962535                0.00719803               -0.00590934                0.07063635
               1.00005798                6.00009532                1.00022479                0.01000000               -0.01800972                0.00234809                0.07456656               -0.00524635               -0.01743142                0.04613353
               2.00001220                6.00000199                0.99995568                0.01000000               -0.00290142                0.00133825                0.04638334               -0.00468754               -0.00012067                0.00750725
               2.99999996                6.00000107                1.00000890                0.01000001               -0.00058540               -0.00073017                0.03949258               -0.00034078                0.00793316               -0.00815849
               4.00000049                5.99999773                0.99999894                0.01000001                0.00000210               -0.00025378                0.04039493                0.00007590                0.00653873               -0.01370896
               5.00000000                5.99999897                1.00000032                0.01000000               -0.00008620               -0.00009252                0.03896390                0.00011994                0.00409294               -0.01565861
               5.99999876                5.99999881                1.00000024                0.01255287               -0.00009727               -0.00012831                0.02931441               -0.00015036                0.00176705               -0.01366407
               6.99999805                5.99999735                1.00000013                0.01049493                0.00010076               -0.00040926                0.03217942               -0.00044504               -0.00487027               -0.01310337
               8.00000078                5.99999504                1.00000078                0.01000000                0.00030828               -0.00105177                0.04218868               -0.00061464               -0.01271768               -0.01358068
               9.00000422                5.99999302                1.00000012                0.01000001                0.00022424               -0.00099504                0.04626767               -0.00036616               -0.02459482               -0.01136759
              10.00000526                5.99999112                0.99999629                0.01009513                0.00010460                0.00095187                0.06061023                0.00009440               -0.04659376               -0.00948609
               0.00051283                7.00013073                1.00093704                1.00000000               -0.03482131               -0.01375141                0.09399750                0.00432251                0.00448515                0.02521455
               1.00016462                7.00006691                1.00057850                0.99762610               -0.02573671               -0.00813528                0.07648520                0.00379043               -0.01207023                0.02773787
               1.99999810                7.00003151                1.00019417                0.01000000               -0.00831295               -0.00377616                0.05720655               -0.00406177               -0.02026632                0.02076886
               2.99999836                6.99998548                0.99998543                0.01000001                0.00027910               -0.00155682                0.03506701               -0.00111466               -0.00047868               -0.02173551
               4.00000368                6.99999522                1.00000125                0.01000000                0.00012827               -0.00036844                0.04176532                0.00108628                0.00880578               -0.01812259
               5.00000092                6.99999808                1.00000030                0.01000000               -0.00031680               -0.00000851                0.03850263                0.00028978                0.00424927               -0.01968984
               5.99999734                6.99999789                1.00000021                0.01049635               -0.00038154                0.00006488                0.03178863               -0.00041581                0.00220405               -0.01885447
               6.99999329                6.99999312                1.00000100                0.01000001               -0.00030153               -0.00031367                0.03468054               -0.00159330               -0.00517269               -0.01932720
               7.99999131                6.99998186                0.99999977                0.01000000                0.00050290               -0.00154022                0.04450166               -0.00260706               -0.01281041               -0.01843329
               9.00000335                6.99997748                1.00000325                0.01000001                0.00099539               -0.00364694                0.04927559               -0.00217483               -0.02571322               -0.01689218
              10.00001122                6.99999471                1.00000343                0.01036015                0.00078687                0.00063191                0.06521996               -0.00035703               -0.05010744               -0.01227047
               0.00058648                7.99998386                1.00100637                1.00000000               -0.03534661               -0.01799592                0.10257870                0.00171122                0.02021268                0.00304203
               1.00023302                7.99993261                1.00074979                1.00000000               -0.02870442               -0.01619858                0.08316488                0.00356721               -0.00092264                0.00134231
               2.00001239                7.99992647                1.00038479                0.01630548               -0.01095334               -0.01231125                0.06385319                0.00596408               -0.02543752               -0.00017741
               3.00001395                7.99996993                0.99995619                0.01147078               -0.00013900               -0.00318242                0.07537417                0.00384198               -0.01050750               -0.02340178
               4.00000961                7.99999036                1.00000714                0.01000000               -0.00054123               -0.00051383                0.02768147                0.00200351                0.01077063               -0.02201446
               5.00000312                7.99999880                0.99999950                0.01000001               -0.00071057                0.00033186                0.03765258                0.00045072                0.00552673               -0.02499604
               5.99999540                8.00000011                1.00000069                0.01000000               -0.00104551                0.00026432                0.03835562               -0.00051529                0.00206375               -0.02537159
               6.99998221                7.99999108                0.99999980                0.01000000               -0.00155606                0.00050231                0.04262810               -0.00254941               -0.00454120               -0.02562730
               7.99996428                7.99996424                1.00001040                0.01000000               -0.00171704               -0.00167437                0.05568632               -0.00709459               -0.01757334               -0.02781061
               8.99994787                7.99992008                0.99998326                0.01163356               -0.00003095               -0.00754857                0.06925490               -0.00695198               -0.03629788               -0.00783997
               9.99996366                8.00000376                0.99995696                0.01000002                0.00157887               -0.00560417                0.08941274               -0.01853794               -0.06194814                0.03028964
               0.00064955                8.99977081                1.00110536                1.00000000               -0.03561968               -0.02902024                0.11238597                0.00180977                0.02235817               -0.00526466
               1.00029335                8.99974294                1.00081802                1.00000000               -0.02847435               -0.02513775                0.09174707                0.00469366                0.00548116               -0.01093067
               2.00008006                8.99978528                1.00050402                0.77281783               -0.01410228               -0.02215906                0.07559229                0.01195539               -0.01547033               -0.00659334
               3.00001131                8.99992183                1.00008654                0.01061419               -0.00325910               -0.01315879                0.06396384                0.00405223               -0.01535720               -0.00672654
               4.00001488                8.99998494                0.99999510                0.01000000               -0.00055574               -0.00035478                0.03485718                0.00135738                0.00261382               -0.03398116
               5.00000019                9.00000471                1.00000075                0.01000001               -0.00100619                0.00030420                0.03852851                0.00015836                0.00787243               -0.03352853
               5.99999476                9.00000318                1.00000030                0.01000001               -0.00110065                0.00025432                0.04156742               -0.00014058                0.00374118               -0.03454791
               6.99997818                9.00000317                1.00000328                0.01000001               -0.00371664                0.00100930                0.04753112               -0.00207919               -0.00513160               -0.03570053
               7.99992042                8.99994838                0.99998328                0.01097504               -0.00766937                0.00000771                0.06447963               -0.00684093               -0.00231991               -0.04161222
               8.99982479                8.99982651                1.00031130                0.99431786               -0.02236604               -0.02218151                0.10106822               -0.00638407                0.00500505                0.00628228
               9.99947310                8.99988263                1.00093527                0.99953790               -0.03516888               -0.03405318                0.13765872               -0.02615779               -0.00907429                0.05342637
               0.00067842                9.99940345                1.00131004                0.99946889               -0.03660061               -0.03673564                0.12197134                0.00552782                0.02496354               -0.01605695
               1.00031242                9.99942986                1.00101840                0.99999999               -0.03029068               -0.03130797                0.10172858                0.00589827                0.01413947               -0.01934246
               2.00007261                9.99948329                1.00081510                1.00000000               -0.02085435               -0.03019932                0.09140278                0.01309965               -0.00725381               -0.01062066
               2.99989533                9.99970675                1.00037888                0.01000001               -0.00593677               -0.02150743                0.08108970                0.01340135               -0.03032592               -0.01342549
               3.99995387                9.99998327                0.99998404                0.01000001                0.00463639               -0.00016774                0.05295501                0.00880597               -0.00790319               -0.05225193
               4.99998806               10.00000488                1.00000036                0.01000000                0.00201302                0.00001692                0.05517742               -0.00011683                0.00951199               -0.05176232
               5.99999414               10.00000520                0.99999688                0.01000000                0.00036863                0.00020196                0.05919787                0.00025708                0.00578530               -0.05324266
               6.99999543               10.00001127                1.00000341                0.01003757                0.00049937                0.00080975                0.06856202               -0.00031500               -0.00278981               -0.05636618
               8.00000412                9.99996439                0.99995669                0.01000382               -0.00547459                0.00160157                0.07907120               -0.01837099                0.02993003               -0.06488125
               8.99988594                9.99947645                1.00093303                0.99953728               -0.03379272               -0.03500607                0.13726811               -0.02597002                0.05440507               -0.00787534
               9.99932827                9.99932269                1.00192063                0.99940351               -0.05576712               -0.05599334                0.17224449               -0.02985880                0.03059124                0.02937296
               0.00059663                0.00069064                2.00180480                1.00000000               -0.02420447               -0.02405815                0.08169247                0.00170237               -0.00109804                0.00459409
               1.00035459                0.00064662                2.00163652                1.00000000               -0.02619708               -0.02431062                0.08276549                0.00157880                0.00049178               -0.00189913
               2.00007269                0.00059377                2.00146274                0.02683587               -0.01825324               -0.03208991                0.09126427               -0.00832064                0.02254419                0.00277565
               2.99998952                0.00032299                2.00177530                0.01000003                0.00604282                0.00649010                0.07901670                0.01708893               -0.01625081                0.00242753
               4.00019355                0.00079278                2.00091829                0.01000001                0.01927756               -0.05326377                0.09971766                0.01980808               -0.01537105                0.02694487
               5.00037508                0.00072589                2.00120713                0.01197900                0.02020306               -0.04762438                0.10026450               -0.01617006                0.05265659                0.01173376
               6.00059761                0.00049644                2.00171219                0.81901134               -0.00542410               -0.03086860                0.09795859               -0.01298117                0.03961473               -0.00361281
               7.00026659                0.00069383                2.00180891                0.99999999               -0.03346082               -0.03249238                0.09855843                0.00138277                0.01666640                0.02028626
               7.99992839                0.00079831                2.00201927                1.00000000               -0.03380731               -0.03136173                0.10541169               -0.00390892                0.01716691                0.00775972
               8.99959045                0.00086952                2.00225431                1.00000000               -0.03306407               -0.03287663                0.11291728               -0.00330721                0.00922917               -0.00322796
               9.99926711                0.00094321                2.00240990                1.00000000               -0.03233355               -0.03280225                0.11012659               -0.00304220                0.00660976                0.00612036
               0.00065767                1.00045006                2.00160926                1.00000000               -0.02388625               -0.02583415                0.08154323                0.00102921                0.00148630                0.00723212
               1.00041881                1.00040352                2.00140953                0.41335697               -0.02531838               -0.02564094                0.08819119               -0.00634651                0.00520108               -0.00180728
               2.00015131                1.00027287                2.00127094                0.01000000               -0.01789496               -0.02086911                0.09744343                0.01579428                0.02268658                0.03340904
               3.00006091                1.00038789                2.00154502                0.01000000                0.00194374               -0.00675201                0.07110658                0.01442682               -0.01471875               -0.03310155
               4.00019018                1.00026014                2.00074931                0.01000000                0.01503162               -0.03607295                0.09380422               -0.00538281               -0.01408883                0.01832561
               5.00036154                1.00024964                2.00096574                0.01000000                0.01468227               -0.03578757                0.09775743               -0.01174826                0.05937156                0.00126783
               6.00048383                1.00018776                2.00159031                0.01000000               -0.01160267               -0.02449423                0.10955047               -0.01583710                0.05854673               -0.03450059
               7.00012949                1.00036891                2.00197388                0.99999998               -0.03411825               -0.02896454                0.12411016               -0.00175948                0.01750868                0.04475749
               7.99980146                1.00048469                2.00199516                0.99999999               -0.03222832               -0.03583262                0.11495489               -0.00272090               -0.00799133                0.01028983
               8.99948492                1.00054075                2.00202774                0.99999999               -0.03192307               -0.03312261                0.11336719               -0.00423211               -0.00561839               -0.00360382
               9.99916300                1.00061519                2.00220782                0.99999999               -0.03219246               -0.03271096                0.11164077               -0.00211422                0.00110498                0.00961153
               0.00071030                2.00017396                2.00142769                0.08935556               -0.03054553               -0.01758491                0.08940092               -0.00830483                0.00587858                0.03078574
               1.00040484                2.00013381                2.00116390                0.01000000               -0.01530442               -0.01878000                0.09322931                0.01298457                0.04489026                0.01880620
               2.00040421                2.00017639                2.00170806                0.01000001               -0.00570242               -0.00490799                0.05690540                0.01442539               -0.00347150               -0.01537668
               3.00029079                2.00018795                2.00056962                0.01000000               -0.00900356               -0.01565960                0.09396683                0.00386395               -0.01959369               -0.02178066
               4.00022414                2.00007132                2.00083858                0.01000001               -0.00391492               -0.01366022                0.08198573               -0.00866713                0.03167457                0.00758536
               5.00021250                2.00001013                2.00087521                0.01000000               -0.00312679               -0.01699261                0.09081764               -0.01428045                0.01379676               -0.00556563
               6.00016160                2.00000656                2.00086514                0.01000001               -0.01390116               -0.01609590                0.11318579               -0.01584051                0.08582490               -0.03018754
               6.99993447                2.00011454                2.00258712                0.01000000               -0.02297361               -0.02675111                0.15123594               -0.00690879                0.04914793               -0.05197202
               7.99970213                2.00008165                2.00199449                0.02153878               -0.02795829               -0.02593768                0.13335955               -0.00255392               -0.05830523               -0.03774198
               8.99937531                2.00020707                2.00176440                1.00000000               -0.03130861               -0.03345891                0.11292755                0.00502364               -0.02373269               -0.01145590
               9.99907596                2.00028899                2.00203135                1.00000000               -0.02993488               -0.03341225                0.10356012               -0.00069167                0.00015652                0.00797577
               0.00057188                3.00009836                2.00174353                0.01000000                0.01041887               -0.00321266                0.07535141                0.00565095                0.01512363               -0.00925898
               1.00067607                3.00002792                2.00148188                0.01000000               -0.00931024               -0.00054662                0.06172344                0.00373091               -0.01431409               -0.01361996
               2.00038567                3.00017471                2.00054327                0.01000000               -0.02164025               -0.00271222                0.09389694               -0.00448416               -0.00162172               -0.02836430
               3.00024326                3.00007469                2.00081287                0.01000001               -0.00955118               -0.00857068                0.07619502               -0.01431562                0.03187907                0.01393064
               4.00019465                2.99998694                2.00074216                0.01000001               -0.00512823               -0.00766905                0.07945343               -0.01231908                0.01409469               -0.00837627
               5.00014070                2.99990979                2.00078808                0.01000000               -0.00660200               -0.00792769                0.08395634               -0.01215266                0.01919928               -0.01245081
               6.00006261                2.99986584                2.00094570                0.01000001               -0.01122388               -0.01009771                0.09694060               -0.01042450                0.00760264               -0.00749413
               6.99991622                2.99983389                2.00094059                0.01000000               -0.02023769               -0.01549713                0.11375296                0.00284388               -0.00898573               -0.08439839
               7.99965786                2.99996594                2.00104087                0.01000000               -0.02690798               -0.01343441                0.12211318                0.00312557               -0.00139792               -0.05575847
               8.99937806                2.99987157                2.00148050                0.01000000               -0.03362690               -0.01930517                0.12155360                0.00113889               -0.00300630               -0.03781877
               9.99898532                2.99994694                2.00186752                0.24573305               -0.03927418               -0.02165670                0.11138080                0.00061669               -0.00498406               -0.01494761
               0.00096420                4.00010970                2.00088312                0.01000001               -0.05610941                0.00741435                0.10915552                0.02038413                0.04172508               -0.00709725
               1.00040310                4.00012287                2.00065545                0.01000000               -0.03482250                0.01024574                0.09719464               -0.01125786                0.03954957               -0.01337293
               2.00026775                4.00012215                2.00084484                0.01000000               -0.01054230               -0.00514793                0.08126477               -0.01483598                0.03068520                0.02189832
               3.00019226                4.00001653                2.00073178                0.01000001               -0.00625435               -0.00693329                0.07854868               -0.01528475                0.01135887               -0.00386438
               4.00014266                3.99991794                2.00068687                0.01000000               -0.00508592               -0.00785312                0.07712085               -0.01182347                0.01349844               -0.00976357
               5.00009054                3.99985158                2.00073924                0.01189798               -0.00568229               -0.00726559                0.07621534               -0.00864979                0.01629940               -0.01489994
               6.00002902                3.99980460                2.00088022                0.01243674               -0.00996435               -0.00655453                0.07684540               -0.00470380                0.00857248               -0.01813964
               6.99989125                3.99980460                2.00095310                0.01012345               -0.01510322               -0.00522625                0.09168306               -0.00035994               -0.01272380               -0.01615744
               7.99972695                3.99981297                2.00087990                0.01000001               -0.02370884               -0.00923907                0.10225409                0.00439677               -0.02720261               -0.01949036
               8.99941708                3.99982096                2.00095462                0.01000002               -0.03946983               -0.00307483                0.10923776                0.00736569               -0.02332330               -0.03457810
               9.99893755                3.99985586                2.00133831                0.01000000               -0.04795215               -0.00779786                0.12332645                0.00656512               -0.02588512               -0.03580789
               0.00095322                5.00024665                2.00131608                0.01000002               -0.05147548                0.01669329                0.11931496               -0.01375856                0.02555749                0.05442465
               1.00043846                5.00023283                2.00098975                0.01000000               -0.03789628                0.01005813                0.10314345               -0.01200488                0.01415869                0.05266561
               2.00019529                5.00007176                2.00084315                0.01000000               -0.01483456               -0.00783327                0.08950559               -0.01755373                0.01142305                0.00548481
               3.00014177                4.99993603                2.00075191                0.01000000               -0.00360812               -0.00837676                0.07956957               -0.01593670                0.01060014               -0.00549897
               4.00012313                4.99982987                2.00071603                0.01189931               -0.00303688               -0.00963496                0.07328980               -0.00874301                0.01177310               -0.00971738
               5.00008104                4.99976448                2.00073620                0.01044443               -0.00538079               -0.00825062                0.07029446               -0.00525543                0.01268696               -0.01704008
               6.00001552                4.99973475                2.00084331                0.01000000               -0.00901887               -0.00389985                0.07276561               -0.00142997                0.00640656               -0.03407885
               6.99990066                4.99972936                2.00088058                0.01000000               -0.01430454               -0.00334114                0.08294227                0.00286026               -0.00980566               -0.03465422
               7.99972942                4.99978115                2.00085970                0.01000001               -0.02090884               -0.00428698                0.09358099                0.00497089               -0.02274926               -0.01922912
               8.99948248                4.99981008                2.00091318                0.01000000               -0.03412962               -0.00249628                0.09963529                0.00526781               -0.02705760               -0.01514529
               9.99904683                4.99979099                2.00118036                0.01040596               -0.04356491               -0.00232740                0.10853997                0.00500273               -0.03497331               -0.01840890
               0.00071665                6.00044357                2.00179251                0.99892466               -0.03787572               -0.00532598                0.10787886               -0.01927575               -0.00316521                0.03731922
               1.00033790                6.00032404                2.00149133                0.01000002               -0.02515880               -0.01015367                0.11412623               -0.02075441               -0.01495092                0.03371921
               2.00021348                5.99996548                2.00092767                0.01000001               -0.01112455               -0.00427411                0.09877398               -0.02412926               -0.01069039                0.00738187
               3.00011541                5.99984900                2.00078985                0.01000001               -0.00370626               -0.01590170                0.08204167               -0.00993355                0.01105129               -0.02030545
               4.00013935                5.99972524                2.00080790                0.01243981               -0.00174239               -0.01002644                0.07031956               -0.00621590                0.01327822               -0.01815156
               5.00008056                5.99968657                2.00077928                0.01000000               -0.00519096               -0.00787270                0.06756039                0.00031799               -0.00239335               -0.02451581
               6.00003553                5.99972661                2.00058629                0.01000001               -0.00892526               -0.00561454                0.07686934                0.00395394               -0.00506312               -0.03841839
               6.99990205                5.99973778                2.00064359                0.01000001               -0.01449412               -0.00577912                0.08479474               -0.00015283                0.00344575               -0.03723699
               7.99974565                5.99972723                2.00084377                0.01000001               -0.01947260               -0.00797174                0.09327019                0.00226877               -0.00933199               -0.02450372
               8.99951260                5.99977104                2.00092535                0.01000001               -0.03349283               -0.00655278                0.10153752                0.00408392               -0.02242532               -0.01786668
               9.99907579                5.99980931                2.00121220                0.01000005               -0.04368061                0.00014651                0.11190088                0.00136005               -0.03146747               -0.01197124
               0.00080677                7.00014013                2.00187995                0.99999999               -0.03053069               -0.02755259                0.09911653               -0.00099803               -0.00444864                0.01323859
               1.00050146                7.00002976                2.00152970                1.00000000               -0.03095116               -0.02683510                0.09778688                0.00556924               -0.00466101                0.00211063
               2.00018775                6.99998627                2.00114413                0.01000000               -0.01590600               -0.01394413                0.09384096               -0.01701989               -0.01543972                0.00236379
               3.00018334                6.99961799                2.00070134                0.01000000               -0.00132522               -0.02090682                0.09759878               -0.01524200                0.00641435                0.00283697
               4.00016124                6.99962935                2.00083531                0.01012896               -0.00486574               -0.00796885                0.07456545                0.00108909                0.02078714               -0.04638757
               5.00008603                6.99960702                2.00077005                0.01000000               -0.00589276               -0.00934669                0.07422718                0.00147684                0.00176754               -0.03710407
               6.00004339                6.99962246                2.00063577                0.01000001               -0.00945231               -0.01170666                0.07995200                0.00060951               -0.00055457               -0.02956645
               6.99989698                6.99961378                2.00069361                0.01000000               -0.01509251               -0.01263021                0.08639456               -0.00016597                0.00350801               -0.02809917
               7.99974154                6.99962172                2.00089003                0.01000002               -0.02074527               -0.01334705                0.09948992               -0.00076619               -0.01046517               -0.02262647
               8.99948208                6.99967902                2.00098551                0.01000000               -0.03720233               -0.01179413                0.11432265               -0.00064619               -0.02352582               -0.00914017
               9.99899749                6.99979392                2.00130440                0.01000003               -0.04845864               -0.00676755                0.12600885               -0.00161916               -0.03293572                0.00267922
               0.00091743                7.99989252                2.00205157                1.00000000               -0.03142937               -0.02745448                0.10557113                0.00023583               -0.00252158                0.01010899
               1.00060313                7.99978733                2.00166330                0.99810725               -0.03162916               -0.02584917                0.09611503                0.00017907               -0.00077789                0.00037647
               2.00028484                7.99968660                2.00127706                0.35858363               -0.02178201               -0.02742251                0.09176466               -0.00610720                0.02667060               -0.00535585
               3.00016749                7.99943086                2.00150748                0.01000000               -0.00563692               -0.00876079                0.04949860               -0.00511503               -0.00507191               -0.01495251
               4.00017211                7.99956586                2.00055363                0.01000001               -0.00252553               -0.01429341                0.08668381                0.00227966               -0.01299682               -0.05143263
               5.00011698                7.99949963                2.00075305                0.01000001               -0.00655684               -0.01392254                0.07944535               -0.00035863                0.02479773               -0.04701430
               6.00004097                7.99949247                2.00076711                0.01000001               -0.01087556               -0.01547990                0.08505931                0.00072205                0.00908655               -0.03981057
               6.99989947                7.99948517                2.00085256                0.01000002               -0.01879434               -0.01656991                0.09594328               -0.00073874                0.00748905               -0.03788723
               7.99966508                7.99946029                2.00111373                0.01184777               -0.02859960               -0.02001266                0.11480610               -0.00229836               -0.00372852               -0.02980033
               8.99932748                7.99953516                2.00138510                0.01281292               -0.04257288               -0.02515758                0.12939616               -0.00601470               -0.02196777                0.00307977
               9.99881362                7.99967396                2.00178825                0.01000002               -0.05138551               -0.03445283                0.15012275               -0.00746548               -0.03617535                0.02783453
               0.00102185                8.99959104                2.00224772                1.00000000               -0.03108908               -0.03115100                0.11236317                0.00043074                0.00014433                0.00560072
               1.00071096                8.99951278                2.00183494                0.99999999               -0.02998886               -0.02874717                0.10236840                0.00106951                0.00599735               -0.00184819
               2.00042208                8.99943782                2.00151185                1.00000000               -0.02545920               -0.02605796                0.09465133                0.00697989                0.01097599               -0.00312748
               3.00020178                8.99944278                2.00127928                0.01000000               -0.01420068               -0.01420326                0.09087001               -0.00186521               -0.01049811               -0.04043830
               4.00013806                8.99934348                2.00069714                0.01000002               -0.00247666               -0.02943924                0.08298700               -0.00329247                0.00084972               -0.03149671
               5.00015224                8.99932857                2.00077057                0.01000000               -0.00328853               -0.02670463                0.08442393                0.00149021                0.02417752               -0.04369954
               6.00007229                8.99931286                2.00083135                0.01000001               -0.01189246               -0.02752357                0.09196470                0.00127424                0.01495479               -0.04194554
               6.99991440                8.99928238                2.00095062                0.01021997               -0.02133532               -0.03063797                0.10784958               -0.00032367                0.01291814               -0.03917115
               7.99964558                8.99922147                2.00128959                0.01000001               -0.03831429               -0.03523666                0.13271619               -0.00513028                0.01885464               -0.04402775
               8.99914811                8.99917587                2.00202136                1.00000000               -0.05375051               -0.04680620                0.17937842               -0.01599630                0.00509608                0.00276598
               9.99857057                8.99910486                2.00275317                1.00000000               -0.05775351               -0.05286105                0.17783297               -0.01595117               -0.00408918                0.01193505
               0.00108256                9.99926950                2.00243943                1.00000000               -0.03048270               -0.03215402                0.11128688                0.00036047                0.00632613                0.00713953
               1.00077774                9.99921239                2.00203457                0.99999999               -0.02940625               -0.03003860                0.10148263                0.00147466                0.01798567                0.00028090
               2.00049444                9.99916544                2.00182806                1.00000000               -0.02766006               -0.02723842                0.09284459                0.00395661                0.02470328                0.00346542
               3.00022454                9.99914680                2.00162179                0.01000000               -0.01369879               -0.02959839                0.09338570               -0.00714229                0.00440266               -0.00961074
               4.00022046                9.99897708                2.00105910                0.01000000               -0.00235652               -0.03663992                0.09882333               -0.00082255                0.00820368               -0.03485146
               5.00017741                9.99896554                2.00110355                0.01000000               -0.00539080               -0.03630312                0.09784381                0.00076224                0.02752736               -0.04139255
               6.00011265                9.99894200                2.00118396                0.01000005               -0.00965065               -0.03708571                0.10761822               -0.00062091                0.02221977               -0.04175063
               6.99998439                9.99887241                2.00137124                0.01016681               -0.02218309               -0.04099682                0.12282997               -0.00232284                0.01191424               -0.03828517
               7.99966899                9.99875555                2.00158142                0.01000000               -0.04301159               -0.04659136                0.16096262               -0.01132895                0.03371664               -0.05447543
               8.99912416                9.99859903                2.00274536                1.00000000               -0.05161801               -0.05768397                0.17732021               -0.00933567                0.02357228               -0.00207747
               9.99863663                9.99861674                2.00344489                0.99999999               -0.04875353               -0.04881219                0.15756027                0.00837565                0.00294902                0.00094576
               0.00073468                0.00092860                3.00260190                1.00000000               -0.02464066               -0.02488749                0.07985852                0.00062493               -0.00274411                0.00480473
               1.00048827                0.00082589                3.00244329                0.99999999               -0.02435259               -0.02446850                0.08050952                0.00009846               -0.00260669               -0.00237312
               2.00024763                0.00071810                3.00228403                0.01004707               -0.01494088               -0.02354277                0.08113598               -0.00489500               -0.02901170               -0.00531031
               3.00018945                0.00052710                3.00155744                0.01000000                0.00125649                0.00323113                0.06668621                0.01368489               -0.00064298                0.00861313
               4.00027276                0.00087092                3.00199591                0.01000001                0.00717230               -0.04340732                0.08889364                0.01390774                0.02665198               -0.00944939
               5.00033290                0.00073445                3.00199101                0.01000001                0.00667892               -0.03742401                0.08963219               -0.01954894                0.01185686               -0.00400027
               6.00040633                0.00042866                3.00227345                0.55379545               -0.00666968               -0.02290617                0.10401958               -0.02450829                0.03752125               -0.00340161
               7.00019951                0.00061465                3.00282494                1.00000000               -0.02595458               -0.03430769                0.11303996                0.00184872                0.03891599                0.00875062
               7.99988724                0.00083096                3.00315780                1.00000000               -0.03267890               -0.03440706                0.11341162                0.00434668                0.02134089                0.00040153
               8.99954593                0.00103428                3.00336131                1.00000000               -0.03427187               -0.03388865                0.11292986                0.00207854                0.01264277               -0.00131554
               9.99920181                0.00120560                3.00351894                1.00000000               -0.03441227               -0.03370172                0.11308189               -0.00009270                0.00900989                0.00488442
               0.00084364                1.00067973                3.00242980                1.00000000               -0.02491329               -0.02490551                0.08208943                0.00062981                0.00014555                0.00544138
               1.00059451                1.00058121                3.00225119                0.01000000               -0.02477828               -0.02465268                0.08419222                0.00044556                0.00113361               -0.00448216
               2.00034807                1.00048268                3.00210277                0.01000000               -0.01723054               -0.01332525                0.08504334                0.01450676               -0.02408897               -0.04259482
               3.00024989                1.00055941                3.00141131                0.01000000               -0.00199569               -0.01113959                0.06673712                0.01286545                0.00320976                0.02436722
               4.00030816                1.00043685                3.00187770                0.01000000                0.00543241               -0.03559056                0.09612363               -0.00688130                0.03350043               -0.00781831
               5.00035854                1.00036021                3.00194689                0.01000000               -0.00435040               -0.03350171                0.09850598               -0.01596448                0.01888519               -0.00572091
               6.00022115                1.00019960                3.00228309                0.01000001               -0.01708503               -0.01886200                0.10856448               -0.02476471                0.03614681               -0.00758698
               7.00001684                1.00027158                3.00292556                0.99999999               -0.02501273               -0.03017498                0.10063440               -0.00246578                0.02873380                0.01031930
               7.99972090                1.00048689                3.00309273                0.99999999               -0.03187247               -0.03193325                0.10800458                0.00640847                0.00110086               -0.00046781
               8.99937939                1.00069539                3.00317713                0.99999998               -0.03456703               -0.03387945                0.11406800                0.00242832               -0.00134744               -0.00398178
               9.99902956                1.00086859                3.00330858                0.99847481               -0.03498370               -0.03365949                0.11213515               -0.00015056               -0.00008440                0.00501084
               0.00094432                2.00043049                3.00227124                0.01000001               -0.02500824               -0.01744478                0.08400527               -0.00954164               -0.00130854               -0.02399206
               1.00069423                2.00033284                3.00202078                0.01000000               -0.01923793               -0.01596908                0.08716654                0.01792615               -0.03213023               -0.03431329
               2.00055956                2.00045160                3.00110969                0.01000001               -0.01008210               -0.00855071                0.04036894                0.01345815                0.00891723                0.00004381
               3.00049259                2.00030431                3.00188680                0.01000000               -0.01126129               -0.02181379                0.09661483               -0.00483982                0.03560630                0.01064148
               4.00033433                2.00015911                3.00163844                0.01000000               -0.01208643               -0.02256787                0.08903271               -0.01193532                0.00452260               -0.00947549
               5.00025086                2.00006442                3.00181970                0.01000000               -0.01673283               -0.02360528                0.09615137               -0.01434226                0.02928317               -0.01194439
               5.99999968                2.00005142                3.00225203                0.01000000               -0.01939832               -0.01808047                0.12066039               -0.01388030                0.05181524               -0.01836869
               6.99986290                2.00001115                3.00306987                0.01037705               -0.02040403               -0.01605158                0.06581907               -0.00821974                0.02379703               -0.03633621
               7.99959159                2.00019230                3.00303075                0.01000001               -0.03250489               -0.02362614                0.10204724                0.00097011               -0.02427095               -0.02508756
               8.99921280                2.00035669                3.00295267                0.99999999               -0.03695924               -0.03421339                0.11546660               -0.00219447               -0.01422583               -0.00933220
               9.99885241                2.00053241                3.00311751                0.99999997               -0.03603892               -0.03300081                0.11050076               -0.00002596               -0.00403152                0.00635781
               0.00084811                3.00033083                3.00148396                0.01000001                0.00838075               -0.00623754                0.07423394                0.01005828                0.00857659                0.01323649
               1.00093192                3.00026182                3.00122358                0.01000000               -0.01011739               -0.00476657                0.07493119                0.00529177                0.04517014                0.00932899
               2.00064577                3.00031166                3.00188556                0.01000000               -0.02431668               -0.01529977                0.09579879               -0.00800231                0.03588180                0.02783831
               3.00044559                3.00012313                3.00152259                0.01000000               -0.01682105               -0.01586649                0.08493488               -0.02162266                0.00188069               -0.01410326
               4.00030934                2.99998549                3.00158989                0.01000000               -0.01330985               -0.01635387                0.08723089               -0.01529850                0.01636610               -0.00671274
               5.00017939                2.99988810                3.00167864                0.01000001               -0.01562684               -0.01549019                0.09019511               -0.01330920                0.01762695               -0.01664849
               5.99999681                2.99983799                3.00194056                0.01000003               -0.02339105               -0.01551209                0.10569122                0.00088722                0.02192710               -0.03691432
               6.99971157                2.99995054                3.00228080                0.01207943               -0.03010238               -0.01344706                0.11747278                0.00268375                0.00680340               -0.05820225
               7.99939476                3.00001437                3.00238327                0.01000001               -0.03580918               -0.01959435                0.11569939               -0.00427013               -0.00367790               -0.04172147
               8.99899539                3.00001113                3.00265761                0.01076567               -0.03585843               -0.02384843                0.11435746                0.00164338               -0.00384922               -0.02229496
               9.99867759                3.00020857                3.00294051                0.13348576               -0.03177941               -0.03259859                0.10751435                0.01057144               -0.00005059               -0.00851278
               0.00128349                4.00030574                3.00218755                0.01000000               -0.04642567               -0.00244709                0.10472859                0.01104815                0.00035168                0.05831777
               1.00081924                4.00023751                3.00194637                0.01000000               -0.03726468               -0.00122216                0.10525157               -0.01616509                0.00352918                0.04948749
               2.00053820                4.00014560                3.00162303                0.01000000               -0.02164640               -0.01400236                0.08936978               -0.02162021                0.00594489               -0.00405208
               3.00038631                3.99998698                3.00157213                0.01000000               -0.01374042               -0.01455525                0.08584550               -0.02095624                0.01400225               -0.00227396
               4.00026339                3.99983203                3.00154230                0.01069420               -0.01270634               -0.01502860                0.08464202               -0.01452362                0.00957618               -0.01399891
               5.00013218                3.99975461                3.00152459                0.01000000               -0.01542065               -0.01345061                0.08447581               -0.00720914                0.00380787               -0.02205875
               5.99995498                3.99974118                3.00153732                0.01000000               -0.01959963               -0.01125861                0.08459654               -0.00133579                0.00923376               -0.03099680
               6.99974019                3.99974221                3.00183191                0.01000001               -0.02546851               -0.01664054                0.09335031                0.00667941                0.01147132               -0.03359679
               7.99944561                3.99980041                3.00205705                0.01000001               -0.03443633               -0.01799634                0.11089131                0.01272132               -0.00629057               -0.02375980
               8.99905146                3.99987972                3.00216679                0.01000001               -0.03883295               -0.01436946                0.11537357                0.01147932               -0.00725908               -0.02482043
               9.99866895                3.99988044                3.00243568                0.01000000               -0.03825134               -0.02374860                0.10013953                0.00477832                0.00850261               -0.03206703
               0.00120555                5.00028189                3.00235418                0.01000000               -0.04367893                0.00678285                0.11366475               -0.02305362               -0.00577516                0.03468828
               1.00076876                5.00023738                3.00204274                0.01000000               -0.03708278               -0.00038816                0.11229334               -0.02228530               -0.00276203                0.02729158
               2.00046389                5.00003162                3.00179962                0.01000000               -0.02143614               -0.01484796                0.09439939               -0.02218421                0.00140188                0.00744492
               3.00034003                4.99983203                3.00158899                0.01000001               -0.01063257               -0.01707245                0.08478694               -0.01961283                0.00491947               -0.00907207
               4.00025124                4.99968492                3.00146647                0.01000000               -0.01069845               -0.01583057                0.08084231               -0.00998522                0.00568008               -0.02132161
               5.00012606                4.99961909                3.00140593                0.01000000               -0.01343731               -0.01399049                0.07906582               -0.00152732                0.00609515               -0.02424931
               5.99998249                4.99961281                3.00145541                0.01000001               -0.01700701               -0.01515968                0.08173730                0.00384266                0.01056617               -0.01525171
               6.99978592                4.99961773                3.00165969                0.01073683               -0.02354084               -0.01513163                0.09288308                0.00554591                0.01094125               -0.01850934
               7.99951168                4.99965444                3.00187023                0.01000001               -0.03204926               -0.01628890                0.10492043                0.00963845               -0.00001133               -0.01935741
               8.99914494                4.99972374                3.00199435                0.01000001               -0.03699780               -0.01581834                0.10985654                0.01074871               -0.00594547               -0.01239016
               9.99877172                4.99973360                3.00217326                0.01000000               -0.03732197               -0.01263928                0.09987922                0.00764920                0.00137080               -0.01459352
               0.00091144                6.00044140                3.00279979                0.99058574               -0.02876317               -0.00727281                0.10222125               -0.02522519               -0.00554432                0.02648466
               1.00062381                6.00022974                3.00250731                0.01000000               -0.02057849               -0.01501135                0.09950784               -0.02771461               -0.01596001                0.01267368
               2.00049987                5.99984864                3.00193116                0.01000000               -0.01415282               -0.01511152                0.10160783               -0.02652185               -0.01417012               -0.00104007
               3.00034075                5.99964553                3.00164973                0.01000003               -0.01116210               -0.02537231                0.09154361               -0.01188926               -0.00002139               -0.00273629
               4.00027663                5.99951542                3.00140533                0.01000000               -0.00835041               -0.01815904                0.07562371               -0.00356278                0.00310736               -0.02056555
               5.00017374                5.99947480                3.00135153                0.01000001               -0.01217174               -0.01684351                0.07788714                0.00161529                0.01724459               -0.02067032
               6.00003319                5.99943798                3.00153763                0.01000000               -0.01821296               -0.01935387                0.09736485                0.00224893                0.01808473               -0.02034359
               6.99980948                5.99943958                3.00169602                0.01000001               -0.02504086               -0.01977836                0.10309800                0.00299592                0.01007005               -0.02333742
               7.99953237                5.99947463                3.00186619                0.01000001               -0.03111008               -0.01975301                0.10530293                0.00511050                0.00252493               -0.01621539
               8.99918728                5.99956336                3.00203087                0.01000000               -0.03650810               -0.01944023                0.11406781                0.00632781               -0.00116071               -0.00362713
               9.99880221                5.99962766                3.00223430                0.01000000               -0.03850684               -0.01306762                0.10260920                0.00358067                0.00438422                0.00167286
               0.00112435                7.00013643                3.00291937                1.00000000               -0.03171334               -0.03115645                0.10570967                0.00013038               -0.00384898                0.01327197
               1.00080722                6.99993715                3.00253424                0.99877176               -0.03033418               -0.02974196                0.10014290               -0.00194435               -0.00799171               -0.00388405
               2.00051767                6.99972938                3.00207099                0.01110945               -0.01858730               -0.01985035                0.09189920               -0.02054099                0.00594223               -0.01075428
               3.00043547                6.99932458                3.00193741                0.01208656               -0.00834786               -0.02762934                0.09459182               -0.00562258               -0.00008754               -0.05145043
               4.00035071                6.99932174                3.00149256                0.01000001               -0.00998309               -0.02077747                0.07460376                0.00925601               -0.00019678               -0.01269060
               5.00023581                6.99928222                3.00148485                0.01074287               -0.01440080               -0.02084033                0.08318661                0.00079265                0.02111254               -0.02115361
               6.00006269                6.99922574                3.00159925                0.01000001               -0.02133078               -0.02148299                0.09587837               -0.00078124                0.01502656               -0.02672596
               6.99980919                6.99922217                3.00172889                0.01000000               -0.02862927               -0.02316274                0.10788575                0.00047711                0.01292462               -0.02479381
               7.99949011                6.99925938                3.00198957                0.01000001               -0.03453620               -0.02529801                0.11384229               -0.00312167                0.01213985               -0.01312820
               8.99911847                6.99933493                3.00228971                0.01000001               -0.03876884               -0.03087674                0.12548694               -0.00702131                0.00331976               -0.00431183
               9.99871473                6.99947225                3.00252361                0.01014294               -0.04037381               -0.02579915                0.11928603               -0.00468723                0.00517319                0.01094846
               0.00131260                7.99981827                3.00311780                1.00000000               -0.03206352               -0.03207307                0.10826320               -0.00065443               -0.00131560                0.01503273
               1.00099197                7.99963490                3.00267209                1.00000000               -0.03054918               -0.03012278                0.10081197               -0.00123379               -0.00159022                0.00135428
               2.00070162                7.99945164                3.00222008                0.01000001               -0.01780115               -0.02788224                0.09345015               -0.01021911               -0.04128721               -0.00763231
               3.00063595                7.99909294                3.00094616                0.01000001               -0.00987554               -0.01629163                0.04367905               -0.00855951                0.01529434               -0.02479961
               4.00050411                7.99909987                3.00174082                0.01000001               -0.01751746               -0.02360996                0.09413920                0.00774621                0.05730476               -0.03111500
               5.00028560                7.99905800                3.00158841                0.01000001               -0.02132430               -0.02509977                0.08977937                0.00110891                0.01732568               -0.02990541
               6.00007762                7.99900832                3.00170188                0.01000001               -0.02501074               -0.02391581                0.09603244               -0.00152827                0.02169732               -0.02891862
               6.99978538                7.99897632                3.00191867                0.01000001               -0.03602241               -0.02605490                0.10972184               -0.00352741                0.01947725               -0.02145746
               7.99935717                7.99896867                3.00230652                0.01000001               -0.04756958               -0.03296288                0.13409546               -0.01469188                0.00744674               -0.01509213
               8.99883399                7.99894582                3.00257118                0.01000000               -0.04616666               -0.04066841                0.14710044               -0.02561680                0.00399046                0.03551287
               9.99843384                7.99911167                3.00295942                0.01000001               -0.04001480               -0.05037759                0.13605103               -0.02276640                0.00995335                0.05866131
               0.00147799                8.99949497                3.00335263                1.00000000               -0.03288187               -0.03277196                0.11122060               -0.00092460                0.00193876                0.01260201
               1.00114917                8.99933470                3.00286539                0.99999997               -0.03113725               -0.02993447                0.10208121               -0.00158487                0.00238551                0.00213875
               2.00085525                8.99917174                3.00239705                1.00000000               -0.02665632               -0.02657303                0.08838417               -0.00290568                0.00210427               -0.00273951
               3.00061605                8.99899875                3.00190394                0.01000005               -0.01573328               -0.01317191                0.06684412               -0.01029033                0.01141300                0.02639304
               4.00054058                8.99884954                3.00165484                0.01000001               -0.01332545               -0.02687741                0.09291560               -0.00432198                0.02907699               -0.03109444
               5.00034954                8.99878023                3.00168923                0.01000001               -0.02133906               -0.02734598                0.09308641                0.00130172                0.03181765               -0.02502423
               6.00011380                8.99874742                3.00183960                0.01000000               -0.02856200               -0.02716785                0.10362435                0.00070287                0.03034115               -0.02206815
               6.99977830                8.99870107                3.00216027                0.01000001               -0.04435128               -0.02859985                0.11849984               -0.00482147                0.02652914               -0.01888473
               7.99922677                8.99860012                3.00263760                0.01000001               -0.06575831               -0.03387256                0.14996527               -0.01161722                0.05217269               -0.00536565
               8.99846313                8.99852156                3.00389887                0.99999999               -0.06495375               -0.04794589                0.18636872               -0.02377495                0.03132698                0.03731747
               9.99792770                8.99846469                3.00449193                1.00000000               -0.05354321               -0.05767473                0.17402428               -0.02796944               -0.00027825                0.04691651
               0.00161466                9.99916283                3.00353578                0.99999999               -0.03311543               -0.03321422                0.11071796                0.00100502                0.01004754                0.00931433
               1.00128350                9.99903621                3.00304805                1.00000000               -0.03176016               -0.02984843                0.10094190                0.00130032                0.01477922                0.00163996
               2.00097945                9.99892018                3.00267199                1.00000000               -0.02655815               -0.02515631                0.08486840                0.00208517                0.01780274                0.00254497
               3.00075234                9.99882950                3.00224660                0.01000001               -0.01716297               -0.01692470                0.06546812               -0.00426334                0.02372810               -0.00051607
               4.00063619                9.99856232                3.00196051                0.01000000               -0.01692954               -0.02872148                0.08304897               -0.00636011                0.02787121               -0.00343382
               5.00041375                9.99851108                3.00195723                0.01000000               -0.02326776               -0.02691506                0.08447265                0.00155320                0.03522622               -0.00930474
               6.00017084                9.99846497                3.00214924                0.01000000               -0.02887496               -0.02824551                0.09411123                0.00036648                0.03255945               -0.00620420
               6.99983625                9.99840433                3.00246001                0.01084144               -0.04332525               -0.02967405                0.11161864               -0.00289209                0.03906393               -0.00712304
               7.99930433                9.99829122                3.00317594                0.01000002               -0.06711650               -0.03089032                0.14811334               -0.01311524                0.06696869                0.01677971
               8.99849392                9.99798690                3.00447943                1.00000000               -0.06580701               -0.05346610                0.17358115               -0.01357322                0.03687016                0.00176379
               9.99798819                9.99795818                3.00507183                1.00000000               -0.05057258               -0.05065150                0.16288830                0.00317700                0.00052243               -0.00150948
               0.00085898                0.00113093                4.00340197                1.00000000               -0.02386534               -0.02413808                0.07938304                0.00112715               -0.00380647                0.00353408
               1.00062033                0.00098336                4.00324671                0.99999999               -0.02403383               -0.02469831                0.08041137                0.00077651               -0.00372047               -0.00135127
               2.00037830                0.00085008                4.00308546                0.01000001               -0.01777719               -0.02547664                0.08116561                0.00331828                0.00503778               -0.00119871
               3.00026478                0.00078752                4.00310902                0.01031539               -0.00426430               -0.02416438                0.08561650                0.00804681               -0.00677375               -0.01089849
               4.00029302                0.00084022                4.00269617                0.01000003                0.00349451               -0.03789694                0.08460583                0.00048903               -0.00044113               -0.00734648
               5.00033467                0.00073413                4.00299977                0.01000001                0.01105454               -0.04275882                0.10505618               -0.02163635                0.05196672               -0.01112964
               6.00051411                0.00040913                4.00379258                0.64532725               -0.00870505               -0.03516866                0.11668369               -0.03192703                0.04957655               -0.00349981
               7.00016057                0.00066761                4.00406970                1.00000000               -0.03476334               -0.03372454                0.11713961               -0.00023798                0.01730568                0.00034738
               7.99981884                0.00093646                4.00428751                0.99999999               -0.03392062               -0.03340850                0.11461804                0.00250430                0.01368348                0.00110218
               8.99948216                0.00121157                4.00451291                1.00000000               -0.03433936               -0.03418100                0.11554741                0.00225458                0.01061632               -0.00014818
               9.99913205                0.00146162                4.00467154                0.99991269               -0.03501054               -0.03447805                0.11680096                0.00164100                0.00692460                0.00486508
               0.00101782                1.00088955                4.00325105                1.00000000               -0.02493035               -0.02454828                0.08206234                0.00098613                0.00073383                0.00432076
               1.00076851                1.00073638                4.00309337                0.01000000               -0.02542053               -0.02541086                0.08421119                0.00046144                0.00250858               -0.00315315
               2.00050941                1.00059532                4.00297180                0.01000000               -0.02091663               -0.02278022                0.08654228                0.00738676                0.00528336               -0.01920571
               3.00035018                1.00054588                4.00287976                0.01000000               -0.00924010               -0.02490143                0.09670810                0.00376646               -0.00145273               -0.02784983
               4.00032460                1.00046125                4.00267178                0.01000000               -0.00081639               -0.03352983                0.08930029               -0.00753339                0.00792590               -0.00553365
               5.00033385                1.00030654                4.00293586                0.01000000               -0.00482546               -0.03473132                0.10279822               -0.02769533                0.04905716               -0.01517998
               6.00022809                1.00005745                4.00376160                0.01000000               -0.02196634               -0.02137048                0.11139855               -0.02712714                0.04101323               -0.02820094
               6.99989453                1.00033036                4.00398656                1.00000000               -0.03280953               -0.03175156                0.10531912                0.00080245                0.00509323                0.00079814
               7.99957190                1.00060238                4.00415525                1.00000000               -0.03261994               -0.03235471                0.10781153                0.00272324                0.00024251                0.00188984
               8.99924213                1.00086976                4.00430910                0.99999996               -0.03367451               -0.03358137                0.11248167                0.00181669               -0.00059327               -0.00191623
               9.99889841                1.00111684                4.00445052                0.99999996               -0.03437132               -0.03386982                0.11443795                0.00138796               -0.00072460                0.00487383
               0.00118504                2.00063996                4.00310779                0.01453132               -0.02612536               -0.02213838                0.08441242               -0.00416472                0.00201048                0.01784150
               1.00092378                2.00047514                4.00290723                0.01000000               -0.02342493               -0.02237333                0.08818201                0.00819335               -0.00798066                0.00768935
               2.00071654                2.00039448                4.00251544                0.01000001               -0.02248047               -0.01885867                0.12127866                0.00546210               -0.00515330               -0.02570909
               3.00047418                2.00028949                4.00250191                0.01000000               -0.01674260               -0.02192900                0.08205046                0.00007596                0.01137135               -0.01878028
               4.00038169                2.00016962                4.00261923                0.01000000               -0.01448022               -0.02562133                0.09437150               -0.01043362                0.01779811               -0.01130526
               5.00018457                2.00003950                4.00279824                0.01000000               -0.02169752               -0.02173045                0.09888633               -0.01895942                0.02689939               -0.02015082
               5.99994774                1.99998172                4.00327835                0.01326596               -0.02764416               -0.01075928                0.09160039               -0.01680101                0.04398644               -0.03528890
               6.99963169                2.00003258                4.00390350                0.01014840               -0.03069131               -0.02112818                0.09129369                0.00113480                0.01482818               -0.02840454
               7.99933391                2.00028937                4.00403543                0.01000000               -0.03138273               -0.02485864                0.10124941                0.00714692               -0.01632112               -0.02678789
               8.99900403                2.00053994                4.00407373                0.99999999               -0.03341283               -0.03291010                0.11035731               -0.00017194               -0.01150193               -0.00655429
               9.99866565                2.00078422                4.00424136                0.99999999               -0.03383787               -0.03291606                0.11197136                0.00043346               -0.00355744                0.00481871
               0.00126416                3.00044678                4.00322820                0.01000001               -0.00862939               -0.01170613                0.08401492               -0.00235900                0.00321826                0.01352356
               1.00117786                3.00028891                4.00298050                0.01000000               -0.02299284               -0.00908371                0.09207031               -0.00571063               -0.01567194                0.00669069
               2.00080430                3.00021814                4.00245925                0.01000000               -0.03006552               -0.01337135                0.08381109               -0.00686346               -0.00631453                0.00189856
               3.00057655                3.00010730                4.00251157                0.01000000               -0.02191884               -0.01924174                0.09351732               -0.00952258                0.01251400               -0.00717836
               4.00036592                2.99994882                4.00248678                0.01000001               -0.02169937               -0.02041232                0.09121627               -0.01176645                0.00990174               -0.01682984
               5.00014257                2.99987193                4.00259198                0.01000000               -0.02334646               -0.01781938                0.09619678               -0.00597296                0.02535402               -0.02200979
               5.99989899                2.99984226                4.00305952                0.01000000               -0.02664951               -0.01559556                0.09316935               -0.00027451                0.02211862               -0.03297094
               6.99960958                2.99990780                4.00329004                0.01000003               -0.03457574               -0.01394036                0.09735633                0.01161022                0.00006431               -0.05368923
               7.99920748                3.00010521                4.00335485                0.01000000               -0.04328700               -0.02192840                0.11075027                0.01180532                0.00680462               -0.04314277
               8.99874384                3.00021156                4.00376765                0.01000000               -0.03944791               -0.02760611                0.10895343                0.01212732                0.00734635               -0.01872294
               9.99841852                3.00045852                4.00401781                0.15489276               -0.03253138               -0.04012324                0.10793267                0.01990481               -0.00088521               -0.01865814
               0.00145359                4.00040584                4.00297769                0.01000001               -0.04153847               -0.00593004                0.09438449               -0.00141496               -0.00640410                0.02805182
               1.00103821                4.00029347                4.00276049                0.01000000               -0.03463535               -0.00355939                0.09549621               -0.02594336                0.00183701                0.01955305
               2.00076089                4.00012705                4.00263224                0.01000000               -0.02425836               -0.01528093                0.09451301               -0.02580165                0.00450772                0.00883729
               3.00055304                3.99990466                4.00244869                0.01000001               -0.01895798               -0.02151528                0.08894788               -0.01844567                0.00434417               -0.01227802
               4.00038173                3.99976138                4.00237971                0.01000000               -0.01906824               -0.02042096                0.08940108               -0.00838400                0.01055400               -0.01691305
               5.00017168                3.99968311                4.00242876                0.01000000               -0.02376760               -0.02096856                0.09622823               -0.00100677                0.01344403               -0.02245406
               5.99990637                3.99966981                4.00257215                0.01000000               -0.02853646               -0.02064287                0.10677255                0.00723762                0.01516923               -0.03522790
               6.99960095                3.99975377                4.00282010                0.01110535               -0.03200564               -0.02063694                0.10485778                0.01380373                0.01352053               -0.02803968
               7.99926626                3.99985080                4.00309772                0.01000002               -0.03538392               -0.02601686                0.10636067                0.02105517                0.00950887               -0.01784735
               8.99889327                3.99998782                4.00326209                0.01000001               -0.03482152               -0.02566824                0.10975048                0.02238315                0.00567992               -0.02462364
               9.99856983                3.99998176                4.00334110                0.01000001               -0.03234375               -0.03790143                0.09805171                0.01428862                0.00491762               -0.03277942
               0.00146060                5.00032818                4.00358937                0.01000000               -0.05228125                0.00011167                0.14350833               -0.02418934               -0.02521351                0.04693319
               1.00093778                5.00021772                4.00323561                0.01000000               -0.03917580               -0.01037318                0.12625716               -0.02832708               -0.02707326                0.03166722
               2.00067708                4.99991252                4.00273113                0.01000000               -0.01822359               -0.02268707                0.09217879               -0.02569800               -0.01508717                0.00419953
               3.00057331                4.99967699                4.00244765                0.01000000               -0.01286460               -0.02294012                0.09013466               -0.01421746                0.00379398               -0.00681944
               4.00041979                4.99954041                4.00233287                0.01000000               -0.01796581               -0.02367711                0.09170474               -0.00532272                0.01084513               -0.01910618
               5.00021400                4.99945256                4.00231752                0.01000000               -0.02233510               -0.02444320                0.09886159                0.00052377                0.01680398               -0.02169959
               5.99997309                4.99942940                4.00247806                0.01057042               -0.02546680               -0.02469579                0.10191828                0.00944327                0.02099629               -0.01847770
               6.99970466                4.99949506                4.00273824                0.01000000               -0.02892755               -0.02759742                0.10336161                0.01647071                0.01824480               -0.01745899
               7.99939454                4.99958487                4.00295811                0.01000001               -0.03220590               -0.02836110                0.10739238                0.01990843                0.01328025               -0.01322191
               8.99906054                4.99969819                4.00311032                0.01000001               -0.03390588               -0.02923407                0.11093424                0.01718109                0.01008353               -0.00506358
               9.99871642                4.99970049                4.00317794                0.01000000               -0.03441246               -0.02446687                0.10167773                0.00956881                0.00949095               -0.00654098
               0.00119071                6.00040807                4.00383693                0.99264015               -0.03033942               -0.01203106                0.10460659               -0.03023427               -0.00357716                0.01578084
               1.00088732                6.00008601                4.00348149                0.01000000               -0.02015278               -0.02152094                0.09662870               -0.02412691               -0.01243459               -0.00067712
               2.00078766                5.99967331                4.00295982                0.01327215               -0.01232552               -0.02151259                0.08615041               -0.02069028               -0.01161713               -0.00492776
               3.00064081                5.99944585                4.00262072                0.01000000               -0.01439770               -0.01922186                0.08145847               -0.00993832               -0.00064035               -0.01324452
               4.00049970                5.99928784                4.00232037                0.01000000               -0.01738277               -0.02501794                0.09581533               -0.00307647                0.00910051               -0.02407244
               5.00029315                5.99919425                4.00233702                0.01057303               -0.02234852               -0.02527424                0.09739906                0.00378277                0.02342913               -0.02010855
               6.00005273                5.99917590                4.00253359                0.01000000               -0.02591293               -0.02528585                0.09804325                0.00671834                0.02173637               -0.02116817
               6.99977490                5.99920182                4.00270555                0.01000001               -0.02957173               -0.02999046                0.10610297                0.00840879                0.02220996               -0.01441754
               7.99946130                5.99928358                4.00294983                0.01002980               -0.03268125               -0.03330234                0.11459593                0.01151486                0.02638519               -0.00469701
               8.99912127                5.99940314                4.00320671                0.01000000               -0.03523423               -0.03228564                0.11674394                0.00813666                0.01951284                0.00601677
               9.99875661                5.99949242                4.00326439                0.01000000               -0.03646554               -0.02063577                0.10654795                0.00476461                0.01047466                0.01437628
               0.00150004                7.00008756                4.00399414                1.00000000               -0.03100354               -0.03240786                0.10749330               -0.00043418               -0.00383122                0.01375678
               1.00119001                6.99978730                4.00353256                0.99999999               -0.02983085               -0.03013647                0.09904380               -0.00117790               -0.00776175               -0.00559227
               2.00090343                6.99948227                4.00298212                0.01015724               -0.02149944               -0.02327084                0.09026226               -0.00486930               -0.00365384               -0.01613174
               3.00076002                6.99929255                4.00259318                0.01000003               -0.01467806               -0.02387567                0.07545197               -0.00651962                0.00511518               -0.03134865
               4.00060987                6.99904005                4.00232738                0.01111160               -0.01792141               -0.02532754                0.08909427               -0.00846124                0.02188936               -0.02454316
               5.00040159                6.99894707                4.00243378                0.01000000               -0.02549943               -0.02485505                0.09219915                0.00464605                0.02865035               -0.02037704
               6.00009988                6.99892369                4.00255334                0.01000001               -0.03182194               -0.02510713                0.10077457                0.00200494                0.03113548               -0.01996439
               6.99976515                6.99889525                4.00285133                0.01046126               -0.03381797               -0.02885927                0.10651336               -0.00476909                0.03230619               -0.00996050
               7.99942352                6.99891882                4.00316688                0.01000001               -0.03753587               -0.03865823                0.12075513               -0.00712817                0.03020506                0.01524445
               8.99901443                6.99905248                4.00349525                0.01000000               -0.03951860               -0.03834431                0.12742252                0.00010376                0.02674619                0.03294137
               9.99863315                6.99928777                4.00369012                0.01000001               -0.03812893               -0.03067765                0.11809923               -0.00249055                0.02075543                0.04492275
               0.00178253                7.99975991                4.00421684                1.00000000               -0.03134877               -0.03312319                0.10993445               -0.00091059               -0.00144603                0.01810731
               1.00146905                7.99948328                4.00367954                0.99999999               -0.02987549               -0.03038578                0.10028799               -0.00138909               -0.00082914                0.00178572
               2.00118502                7.99920789                4.00314607                0.01000000               -0.02582021               -0.02755730                0.09130743                0.00036244               -0.01173168               -0.01006254
               3.00095264                7.99896834                4.00238106                0.01000000               -0.02545319               -0.03111723                0.13346834               -0.00071901                0.00525186               -0.02137597
               4.00067596                7.99878128                4.00243641                0.01000002               -0.02251030               -0.02690737                0.08134485                0.00266247                0.04119129               -0.01933881
               5.00050244                7.99869715                4.00254864                0.01000001               -0.02656540               -0.02439049                0.09245149                0.00473590                0.03877309               -0.02065949
               6.00014465                7.99867375                4.00268776                0.01005076               -0.04090289               -0.02497748                0.10471911                0.00178422                0.03896497               -0.00975772
               6.99968438                7.99862464                4.00304700                0.01000001               -0.04915715               -0.02659557                0.11473821               -0.01407569                0.05364897               -0.00519829
               7.99916151                7.99851042                4.00379564                0.01306925               -0.04649918               -0.03370446                0.12857000               -0.02307291                0.04399172                0.01443480
               8.99875439                7.99863625                4.00432711                0.01000000               -0.04626462               -0.05192572                0.14659370               -0.03628298                0.01911645                0.07541038
               9.99823622                7.99887887                4.00450928                0.01000001               -0.05181774               -0.06785012                0.15889032               -0.03845131                0.00439203                0.10613826
               0.00203511                8.99942509                4.00447213                0.99999999               -0.03208604               -0.03352219                0.11179424               -0.00072813                0.00221266                0.01549298
               1.00171425                8.99917959                4.00387657                0.99999995               -0.03047486               -0.03017085                0.10074075               -0.00129487                0.00268020                0.00317468
               2.00142561                8.99893113                4.00327953                1.00000000               -0.02710007               -0.02707156                0.08834055               -0.00212282               -0.00031029               -0.00560252
               3.00117225                8.99867021                4.00261616                0.01000002               -0.02456512               -0.02585944                0.07317208                0.00143548                0.02584735               -0.00605871
               4.00093431                8.99850190                4.00255546                0.01000001               -0.02842032               -0.02421093                0.09041015                0.00901735                0.04444969               -0.01285583
               5.00060384                8.99845926                4.00263230                0.01000001               -0.03631199               -0.02268532                0.09210664                0.00564996                0.04846059               -0.01223413
               6.00020807                8.99842414                4.00290384                0.01000000               -0.04784319               -0.02375600                0.10726078                0.00102407                0.04662942               -0.00376381
               6.99964698                8.99836334                4.00332062                0.01000000               -0.06288120               -0.02470840                0.12099745               -0.00624048                0.06607928                0.00439611
               7.99895045                8.99824473                4.00428890                0.01000001               -0.08633269               -0.02479743                0.13977465               -0.02609730                0.09044516                0.00201580
               8.99792032                8.99801397                4.00574874                0.99999999               -0.07857784               -0.05815391                0.18466801               -0.05513428                0.04790862                0.04887927
               9.99737889                8.99793077                4.00623366                0.99999996               -0.05414344               -0.07260668                0.17422064               -0.04701666               -0.00100126                0.06184923
               0.00225898                9.99908947                4.00465379                1.00000000               -0.03218632               -0.03356215                0.11195295                0.00142581                0.01117648                0.01159813
               1.00193711                9.99887986                4.00405341                1.00000000               -0.03035151               -0.02997295                0.10045019                0.00113621                0.01540452                0.00200399
               2.00165195                9.99866646                4.00352542                1.00000000               -0.02632687               -0.02646642                0.08672120                0.00119826                0.01671576               -0.00084453
               3.00141058                9.99845115                4.00293116                0.01000002               -0.02923476               -0.02190569                0.07217845                0.00536329                0.03146044               -0.00496693
               4.00106725                9.99829707                4.00272008                0.01000001               -0.03586898               -0.02048334                0.07573115                0.00290878                0.04019954               -0.00323159
               5.00069320                9.99824344                4.00279300                0.01000000               -0.04030990               -0.02158229                0.08495878                0.00401410                0.04648809               -0.00159981
               6.00026105                9.99819863                4.00306618                0.01000000               -0.04771129               -0.02255030                0.09434620               -0.00034994                0.05288995               -0.00108381
               6.99973897                9.99813047                4.00360361                0.01197449               -0.06360576               -0.02328715                0.11325439               -0.00000882                0.06690212                0.01069782
               7.99898894                9.99801447                4.00454369                0.01000002               -0.08866507               -0.02302660                0.14341719               -0.02901539                0.10781225                0.00338121
               8.99796567                9.99747317                4.00621699                0.99998675               -0.07633336               -0.05407914                0.17383175               -0.02485189                0.06049985                0.00103524
               9.99746227                9.99742673                4.00670266                1.00000000               -0.05033982               -0.05040371                0.16341044                0.00369437                0.00112697               -0.00090012
               0.00096907                0.00130111                5.00418956                1.00000000               -0.02386953               -0.02407957                0.07881933                0.00090271               -0.00385777                0.00351270
               1.00073037                0.00110554                5.00405151                0.99999999               -0.02415003               -0.02479127                0.08077866                0.00037154               -0.00423304               -0.00104478
               2.00048607                0.00092144                5.00390734                0.01000000               -0.01435530               -0.02528560                0.08268847                0.00123447               -0.02941277               -0.00182491
               3.00044327                0.00076765                5.00326977                0.01000000               -0.00564442               -0.01581311                0.06543464                0.00032586               -0.00150954                0.01109713
               4.00037318                0.00077277                5.00368803                0.01000000               -0.00837228               -0.03696589                0.09645989               -0.00265819                0.04217238               -0.01110401
               5.00027582                0.00063969                5.00409214                0.01000000               -0.00226224               -0.03815451                0.10550628               -0.02020205                0.04242047               -0.01572502
               6.00032794                0.00042063                5.00460713                0.49381372               -0.01125646               -0.02708257                0.11208271               -0.02631335                0.04224899                0.00003315
               7.00005069                0.00078788                5.00516773                1.00000000               -0.03051151               -0.03341375                0.11449484                0.00228079                0.03021608                0.00159048
               7.99971771                0.00111752                5.00545016                1.00000000               -0.03382353               -0.03407612                0.11548392                0.00110322                0.01323278                0.00034460
               8.99937422                0.00143894                5.00567226                0.99999999               -0.03473307               -0.03426859                0.11642631                0.00117348                0.00797671                0.00061395
               9.99902304                0.00174494                5.00585496                1.00000000               -0.03511786               -0.03486985                0.11839079                0.00151708                0.00587087                0.00453203
               0.00117367                1.00106032                5.00407105                0.99999093               -0.02497473               -0.02454717                0.08201940                0.00055967                0.00099798                0.00385047
               1.00092393                1.00085762                5.00393541                0.01000000               -0.02531604               -0.02530201                0.08417578                0.00024327                0.00269400               -0.00284180
               2.00066735                1.00066858                5.00383362                0.01000000               -0.02015326               -0.02357332                0.08626310                0.00638198               -0.01477137               -0.01305354
               3.00052086                1.00060952                5.00334547                0.01000000               -0.01283874               -0.02353828                0.07735696               -0.00462609                0.00371129                0.00756477
               4.00041058                1.00040311                5.00366371                0.01000000               -0.01354959               -0.03273788                0.09696885               -0.01652933                0.03544360               -0.01488429
               5.00024987                1.00025815                5.00400286                0.01000000               -0.02099356               -0.03172078                0.10247935               -0.01996967                0.03504923               -0.01881967
               5.99999071                1.00014980                5.00451106                0.01000000               -0.02624078               -0.01864599                0.10516618               -0.01790989                0.03386898               -0.01869790
               6.99972505                1.00045374                5.00503194                0.99990462               -0.02937494               -0.03241491                0.10762407               -0.00106774                0.01928723                0.00116903
               7.99940321                1.00077676                5.00524896                0.99999999               -0.03264019               -0.03302961                0.10960157                0.00098728                0.00184930                0.00039438
               8.99907225                1.00109625                5.00542677                0.99719809               -0.03354955               -0.03359431                0.11209640                0.00110403               -0.00055810               -0.00059738
               9.99873222                1.00139624                5.00559734                0.99999997               -0.03400328               -0.03417160                0.11469271                0.00114560               -0.00072229                0.00519302
               0.00138565                2.00081017                5.00395949                0.01011514               -0.02586775               -0.01644585                0.08517978               -0.00935714                0.00158369               -0.03002001
               1.00112698                2.00059950                5.00378443                0.01000000               -0.02619228               -0.01576207                0.08743476                0.00516557               -0.00198341               -0.03279182
               2.00086181                2.00044997                5.00353527                0.01066089               -0.02553777               -0.02178759                0.09581149                0.00092226                0.00013447               -0.01098454
               3.00061622                2.00029689                5.00352781                0.01000001               -0.02339192               -0.02883678                0.09481027               -0.00922426                0.01041916               -0.00284359
               4.00039397                2.00011801                5.00352587                0.01000001               -0.02432437               -0.02573444                0.09355184               -0.01376087                0.01505662               -0.01944734
               5.00012973                2.00000528                5.00379743                0.01000000               -0.03099137               -0.02203822                0.09830772               -0.01032241                0.02334580               -0.02404346
               5.99977414                2.00004771                5.00408403                0.01000000               -0.03636759               -0.01325190                0.09117281               -0.00576432                0.04146248               -0.03402496
               6.99940238                2.00013958                5.00489574                0.01185599               -0.03395997               -0.02467953                0.10058191                0.00508456                0.02525680               -0.02657179
               7.99909494                2.00045693                5.00505574                0.01000000               -0.03127766               -0.03437712                0.10335383                0.01387503               -0.01086346               -0.01306704
               8.99877683                2.00076705                5.00515982                1.00000000               -0.03244772               -0.03239723                0.10850486                0.00058409               -0.00842052               -0.00449238
               9.99844599                2.00106150                5.00535693                0.99999997               -0.03308397               -0.03302815                0.11125454                0.00081312               -0.00324056                0.00501066
               0.00140788                3.00073140                5.00316426                0.01000003               -0.00204442               -0.01522803                0.06181996               -0.00869315                0.01474518                0.01373536
               1.00138744                3.00054238                5.00306499                0.01000000               -0.02097382               -0.01130189                0.06996635               -0.02120576                0.02473925                0.01143973
               2.00098841                3.00023283                5.00356179                0.01000001               -0.03595492               -0.01997536                0.09632599               -0.02156261                0.02639722               -0.00223491
               3.00066834                3.00003279                5.00339294                0.01000001               -0.02807162               -0.02457756                0.09019449               -0.01174537                0.00250927               -0.01665184
               4.00042697                2.99988842                5.00341421                0.01000000               -0.02773090               -0.02351681                0.09228714               -0.00574851                0.01546626               -0.01865668
               5.00011372                2.99981738                5.00360258                0.01000000               -0.03429288               -0.02126438                0.10003935                0.00376166                0.01913204               -0.02523306
               5.99974112                2.99988477                5.00380394                0.01000001               -0.03480980               -0.02148120                0.09151698                0.01178246                0.02425047               -0.02385297
               6.99941753                2.99996015                5.00422792                0.01305357               -0.03439375               -0.02031806                0.09156053                0.01435512                0.02267599               -0.04095667
               7.99905324                3.00008922                5.00459827                0.01000000               -0.04690828               -0.03083600                0.10412298                0.02935081                0.01246424               -0.03458804
               8.99847936                3.00044831                5.00483668                0.01000000               -0.04468311               -0.03612322                0.10596484                0.03956584               -0.00257198               -0.01432852
               9.99815958                3.00073567                5.00509916                0.12956696               -0.03197810               -0.04983937                0.10737517                0.03690123               -0.00093674               -0.01804948
               0.00158983                4.00050561                5.00407524                0.01000000               -0.03883978               -0.01850429                0.10639440               -0.01316963               -0.01044008                0.10102203
               1.00120143                4.00037346                5.00385630                0.01000000               -0.03248401               -0.01963291                0.10040090               -0.03785272               -0.01159324                0.07042646
               2.00094015                4.00005046                5.00351329                0.01000001               -0.02378538               -0.02224037                0.08993751               -0.03032093               -0.00769948               -0.00593378
               3.00072572                3.99980534                5.00335109                0.01000000               -0.02228729               -0.02545896                0.08954828               -0.01284797                0.00632496               -0.01222066
               4.00049440                3.99964767                5.00333032                0.01000001               -0.02585524               -0.02631436                0.09596430               -0.00270234                0.01531264               -0.01940033
               5.00020862                3.99957999                5.00344916                0.01000001               -0.03136911               -0.02702720                0.10312776                0.00868266                0.02248664               -0.02325325
               5.99986702                3.99961809                5.00367277                0.01000007               -0.03617944               -0.03014684                0.11118620                0.01969075                0.02472565               -0.02339887
               6.99948503                3.99973322                5.00392907                0.01000000               -0.03366086               -0.02885225                0.10347713                0.02376849                0.02274141               -0.02749081
               7.99919380                3.99984021                5.00418426                0.01289182               -0.02816705               -0.02756620                0.09277724                0.03316637                0.01413605               -0.02143159
               8.99892169                4.00004459                5.00436180                0.01000001               -0.02922612               -0.03852330                0.09955871                0.04359583                0.00688327               -0.01998514
               9.99860928                4.00006472                5.00439671                0.01000000               -0.03124081               -0.05280935                0.10912999                0.03534780                0.00338865               -0.03375400
               0.00140879                5.00036132                5.00522435                0.01693902               -0.03232649               -0.00766836                0.11493184               -0.02311156               -0.05766576                0.04709305
               1.00108553                5.00014972                5.00456788                0.01000000               -0.02293434               -0.02271034                0.10600819               -0.02612506               -0.05213893                0.02196380
               2.00095011                4.99978802                5.00364319                0.01000000               -0.01356787               -0.02756784                0.08935786               -0.02189869               -0.02793434               -0.00672555
               3.00081417                4.99952361                5.00339168                0.01000000               -0.01759164               -0.02851122                0.09281721               -0.00921108                0.00627627               -0.02009717
               4.00059827                4.99936213                5.00330056                0.01000001               -0.02486050               -0.03041036                0.09855005                0.00005836                0.01797250               -0.01929167
               5.00031696                4.99927684                5.00338317                0.01000001               -0.03082878               -0.03118130                0.10605457                0.00700950                0.02335829               -0.02461027
               5.99998170                4.99928183                5.00349378                0.01000001               -0.03230956               -0.03393752                0.10895846                0.01693197                0.02579378               -0.02112287
               6.99967077                4.99938311                5.00372692                0.01287209               -0.02882480               -0.03475414                0.09937882                0.03042350                0.02863222               -0.01372966
               7.99940520                4.99953789                5.00401808                0.01000000               -0.02719999               -0.03341463                0.09220825                0.03299234                0.02517080               -0.00252838
               8.99912677                4.99967784                5.00421303                0.01000000               -0.02894620               -0.03729162                0.10173683                0.02414417                0.01395867                0.00277021
               9.99882628                4.99967949                5.00420682                0.01000000               -0.03004922               -0.03308546                0.10857123                0.01451777                0.00741835               -0.00100138
               0.00155078                6.00035224                5.00489192                0.99232991               -0.02985593               -0.01648263                0.10515463               -0.01519445               -0.00388332               -0.01387856
               1.00125222                5.99991925                5.00443989                0.01000000               -0.02112462               -0.02612315                0.09518021               -0.01373268               -0.02023904               -0.01966036
               2.00112829                5.99949911                5.00365417                0.01000000               -0.01424148               -0.02837582                0.08259081               -0.01251344               -0.02047686               -0.00658151
               3.00096739                5.99923511                5.00327890                0.01000001               -0.01929751               -0.02931694                0.08528358               -0.00406527                0.01646829               -0.02023402
               4.00074234                5.99903947                5.00332164                0.01000007               -0.02691407               -0.03236488                0.10063629                0.00354327                0.02869658               -0.02508013
               5.00042911                5.99895636                5.00329951                0.01000001               -0.03214740               -0.03068886                0.10357733                0.00828830                0.03039373               -0.02358414
               6.00009939                5.99893934                5.00349849                0.01272532               -0.02958387               -0.03047782                0.09446866                0.01839696                0.03755448               -0.01104611
               6.99983743                5.99903814                5.00381808                0.01000000               -0.02702373               -0.03508019                0.09154067                0.02017951                0.03727234               -0.00467575
               7.99955892                5.99917192                5.00415811                0.01267021               -0.02872267               -0.04097147                0.10093989                0.01528491                0.03203608                0.00886600
               8.99926298                5.99929876                5.00436575                0.01000000               -0.03312848               -0.04022399                0.10949714                0.01172355                0.02022822                0.02138557
               9.99889635                5.99940301                5.00436526                0.01021157               -0.03666336               -0.02768366                0.11665379                0.00611630                0.01142456                0.02812381
               0.00197089                7.00003166                5.00506923                0.99954146               -0.03068780               -0.03249080                0.10722595               -0.00006509               -0.00318617                0.01519746
               1.00166401                6.99962726                5.00451512                0.99999996               -0.02934565               -0.02963180                0.09774767               -0.00086114               -0.00715254               -0.00461713
               2.00138398                6.99922051                5.00387623                0.01201021               -0.02357513               -0.02730676                0.08881316               -0.00264109               -0.00048741               -0.00709532
               3.00119251                6.99893727                5.00344645                0.01306124               -0.02180434               -0.02963365                0.07931954               -0.00112148                0.01509078               -0.01616028
               4.00094789                6.99871483                5.00327445                0.01000000               -0.03048251               -0.02772219                0.09273118                0.00719065                0.02891741               -0.02348663
               5.00058286                6.99866306                5.00332883                0.01287830               -0.03400132               -0.02550362                0.08960459                0.01690181                0.04032956               -0.01631373
               6.00026786                6.99867227                5.00361474                0.01000000               -0.03705398               -0.02383315                0.08736788                0.01388064                0.04098985               -0.00409719
               6.99984178                6.99868150                5.00385916                0.01000001               -0.04087889               -0.03175374                0.10121076               -0.00203778                0.04823250                0.00418735
               7.99945028                6.99871847                5.00440468                0.01000001               -0.03558128               -0.05182852                0.11425892               -0.02050793                0.05067692                0.01947334
               8.99913015                6.99887336                5.00483816                0.01000001               -0.03550913               -0.05491077                0.11925194               -0.01764771                0.02937676                0.03992088
               9.99874010                6.99912581                5.00488560                0.01139468               -0.03900508               -0.03560544                0.12742914               -0.01170499                0.01238809                0.07624502
               0.00235829                7.99970243                5.00531649                0.99999999               -0.03121285               -0.03318896                0.10973410               -0.00045681               -0.00102276                0.01995451
               1.00204616                7.99932661                5.00467785                1.00000000               -0.02964133               -0.03014704                0.09952944               -0.00090430               -0.00052912                0.00206870
               2.00176546                7.99895297                5.00404623                0.01000000               -0.02977604               -0.02700868                0.08955916                0.00206486                0.01003398               -0.01186717
               3.00145064                7.99864244                5.00361553                0.01000000               -0.03025491               -0.03048925                0.10031821                0.00983041                0.01772869               -0.03250962
               4.00116036                7.99848502                5.00336772                0.01290536               -0.03204629               -0.02030392                0.07777039                0.01346989                0.03609816               -0.01731683
               5.00080971                7.99844629                5.00343744                0.01000000               -0.04008989               -0.01859407                0.07876636                0.01825811                0.04862423               -0.00999330
               6.00035856                7.99846267                5.00379626                0.01268645               -0.05296119               -0.01892747                0.09333091                0.00234888                0.05375850               -0.00030196
               6.99975049                7.99840306                5.00421343                0.01000001               -0.07008306               -0.02245647                0.10895545               -0.02271414                0.06143872                0.01548057
               7.99895690                7.99813535                5.00487792                0.01004143               -0.06239036               -0.04130410                0.12347324               -0.05226258                0.06226642                0.02920390
               8.99850268                7.99820054                5.00550305                0.01000001               -0.03997781               -0.06320456                0.13760242               -0.05490304                0.04902826                0.10704114
               9.99815734                7.99869090                5.00613722                0.01000000               -0.03453338               -0.08087580                0.15198383               -0.04107772                0.05391172                0.13684462
               0.00271338                8.99936788                5.00558851                0.99999999               -0.03179973               -0.03354719                0.11130709               -0.00032369                0.00252801                0.01700861
               1.00239538                8.99902432                5.00488020                1.00000000               -0.03019645               -0.03020043                0.10029729               -0.00068760                0.00234354                0.00290856
               2.00210945                8.99868033                5.00416386                1.00000000               -0.02691560               -0.02707374                0.08873656               -0.00131354               -0.00192966               -0.00790753
               3.00185707                8.99832748                5.00336738                0.01000000               -0.03480060               -0.02711348                0.07617057                0.01823399                0.03863228               -0.03152105
               4.00141344                8.99830876                5.00346304                0.01000001               -0.04433488               -0.01582887                0.08170863                0.01908381                0.05838043               -0.01456853
               5.00097037                8.99829118                5.00353136                0.01000000               -0.05276841               -0.01443091                0.08507436                0.00863329                0.06195216               -0.00408891
               6.00035807                8.99829372                5.00398481                0.01000000               -0.06277745               -0.01720383                0.10084655                0.00003289                0.06681326               -0.00124905
               6.99971482                8.99823238                5.00458022                0.01000001               -0.08752547               -0.01753845                0.11234956               -0.02275213                0.07744038                0.00907316
               7.99860756                8.99789238                5.00543309                0.01000000               -0.11191395               -0.01430448                0.13257841               -0.03663993                0.13431156                0.03238533
               8.99747654                8.99760927                5.00759223                1.00000000               -0.08348630               -0.05647124                0.18394451               -0.06709064                0.08769389                0.08725717
               9.99693783                8.99750830                5.00797634                0.99899749               -0.05387099               -0.08443568                0.17423571               -0.06599499               -0.00086467                0.07289195
               0.00303894                9.99903148                5.00577484                0.99999999               -0.03189837               -0.03364005                0.11207287                0.00166859                0.01206778                0.01273309
               1.00271996                9.99872261                5.00505705                0.99999997               -0.03014585               -0.03017133                0.10075289                0.00145835                0.01552838                0.00147344
               2.00243602                9.99841150                5.00440641                1.00000000               -0.02665316               -0.02688351                0.08910774                0.00153570                0.01549752               -0.00202399
               3.00218689                9.99810017                5.00369017                0.01000000               -0.04288411               -0.02273142                0.07762468                0.02082986                0.03653240               -0.00382998
               4.00157834                9.99816844                5.00347513                0.01000000               -0.05947421               -0.01403114                0.08084906                0.01936559                0.05462129               -0.01144717
               5.00099741                9.99815767                5.00365641                0.01000000               -0.05801570               -0.01335078                0.09157424                0.00021143                0.06429777                0.00302524
               6.00041803                9.99811860                5.00403617                0.01010544               -0.06503125               -0.01751274                0.10345162                0.00072697                0.07380092               -0.00263654
               6.99969678                9.99805230                5.00472510                0.01000000               -0.07854096               -0.01800798                0.11758539               -0.01527065                0.10391646                0.00402472
               7.99884721                9.99784926                5.00604428                0.01000002               -0.10759157               -0.00431257                0.14279079               -0.02509411                0.14763257                0.04450331
               8.99754495                9.99707112                5.00795607                0.99899164               -0.09039075               -0.05381558                0.17390483               -0.03551267                0.07754944                0.00117358
               9.99703939                9.99700218                5.00834004                0.99943244               -0.05055597               -0.05061133                0.16415904                0.00326293                0.00099028               -0.00103828
               0.00105792                0.00143820                6.00497835                1.00000000               -0.02400344               -0.02415735                0.07909388                0.00076062               -0.00378307                0.00355081
               1.00081788                0.00119467                6.00486228                0.99999999               -0.02430647               -0.02480393                0.08117006                0.00033565               -0.00424855               -0.00111616
               2.00057179                0.00096103                6.00473923                0.01000000               -0.01819900               -0.02547102                0.08320823                0.00638312               -0.01462350               -0.00176788
               3.00045390                0.00085807                6.00441771                0.01000000               -0.01288449               -0.04189327                0.10838549               -0.00067029               -0.00335362               -0.00137241
               4.00031410                0.00066679                6.00462537                0.01000000               -0.00949600               -0.03410634                0.09678286               -0.00679498                0.03294393               -0.01099407
               5.00026398                0.00059819                6.00510990                0.01000005               -0.00153037               -0.03733342                0.10529737               -0.01089398                0.06667599               -0.01533812
               6.00028349                0.00060192                6.00603423                0.52509528               -0.01710601               -0.03953407                0.12332235               -0.02206934                0.05129151               -0.00069899
               6.99992186                0.00097101                6.00635960                1.00000000               -0.03522608               -0.03452706                0.11693530               -0.00075829                0.01445421               -0.00164379
               7.99957897                0.00134574                6.00659718                1.00000000               -0.03424865               -0.03410578                0.11555921                0.00070122                0.00974670                0.00025160
               8.99923689                0.00171484                6.00684144                0.99999999               -0.03474487               -0.03445829                0.11697998                0.00065774                0.00748001                0.00079378
               9.99888407                0.00206750                6.00703935                0.99933287               -0.03528182               -0.03487758                0.11851889                0.00114098                0.00507073                0.00496139
               0.00130906                1.00119663                6.00489144                1.00000000               -0.02492300               -0.02459230                0.08207674                0.00044644                0.00107668                0.00381493
               1.00105983                1.00094663                6.00477689                0.01000000               -0.02525672               -0.02524711                0.08408871                0.00000743                0.00284225               -0.00289587
               2.00080392                1.00070632                6.00469706                0.01000000               -0.02327522               -0.02572055                0.08616240               -0.00517190               -0.00485606               -0.01296920
               3.00059432                1.00043914                6.00442690                0.01000000               -0.02139158               -0.03364595                0.10398677               -0.00712698                0.00238615               -0.01132276
               4.00037609                1.00032573                6.00461116                0.01000000               -0.02034215               -0.03183101                0.09656210               -0.00575902                0.02625659               -0.01467829
               5.00018748                1.00022485                6.00498544                0.01000000               -0.02498498               -0.03196388                0.10230641               -0.01449039                0.05328302               -0.01906514
               5.99987639                1.00020658                6.00586492                0.01000000               -0.03225535               -0.02967888                0.11723512               -0.01019707                0.04131106               -0.03228554
               6.99954237                1.00062574                6.00613904                1.00000000               -0.03311620               -0.03329219                0.11029686                0.00206784                0.00522893               -0.00206907
               7.99921407                1.00100469                6.00634728                0.99999995               -0.03298908               -0.03335109                0.11059272                0.00090600                0.00119441                0.00040033
               8.99888259                1.00137026                6.00655103                0.99999999               -0.03356227               -0.03373302                0.11245928                0.00057879                0.00020904               -0.00015040
               9.99854282                1.00171872                6.00674438                1.00000000               -0.03397690               -0.03424419                0.11431017                0.00097370               -0.00027580                0.00582406
               0.00156684                2.00094636                6.00481139                0.01000000               -0.02585012               -0.02954475                0.08507280               -0.00323579                0.00160851               -0.00918141
               1.00130834                2.00068973                6.00465592                0.01000000               -0.02954971               -0.02503984                0.08697104               -0.01422202               -0.00177045               -0.01232479
               2.00097585                2.00044662                6.00443167                0.01069387               -0.03081909               -0.02554516                0.08977696               -0.01521011               -0.00137760               -0.01730424
               3.00069196                2.00018515                6.00439812                0.01000000               -0.02813228               -0.02440800                0.08847238               -0.01182284                0.01007188               -0.01414560
               4.00041320                2.00003017                6.00449027                0.01000001               -0.02993180               -0.02772430                0.09621404               -0.00683578                0.01914451               -0.02206241
               5.00009332                1.99995891                6.00476439                0.01000000               -0.03672653               -0.02546586                0.09841953               -0.00369140                0.02482156               -0.02264944
               5.99967867                2.00000835                6.00510181                0.01000000               -0.04641015               -0.02150584                0.10623209                0.01142587                0.04572968               -0.04557765
               6.99916512                2.00030516                6.00591514                0.01200035               -0.04130501               -0.02851941                0.10342685                0.01983848                0.02590890               -0.03128386
               7.99885257                2.00067872                6.00610251                0.01126368               -0.03153456               -0.03598825                0.10539484                0.01844777               -0.00818509               -0.02078026
               8.99853443                2.00104018                6.00624383                1.00000000               -0.03229805               -0.03236251                0.10837077                0.00064073               -0.00655649               -0.00356059
               9.99820661                2.00138262                6.00646646                0.99999997               -0.03278188               -0.03304869                0.11036819                0.00084451               -0.00228934                0.00549215
               0.00175759                3.00060573                6.00446460                0.01000000               -0.04824739               -0.02900823                0.12403856               -0.01019776                0.00901055                0.00942006
               1.00127512                3.00044583                6.00437983                0.01000000               -0.03766484               -0.02453104                0.11996556               -0.01751808                0.00021283                0.00017364
               2.00100430                3.00019542                6.00438577                0.01000000               -0.02504033               -0.02598269                0.08526742               -0.01793012                0.00597432               -0.00551412
               3.00077431                2.99995098                6.00431546                0.01000001               -0.02693422               -0.02618254                0.09024451               -0.01268088                0.00683246               -0.01746308
               4.00046561                2.99977124                6.00433252                0.01000000               -0.03194189               -0.02715763                0.09319099               -0.00293634                0.01745976               -0.02061965
               5.00013548                2.99971554                6.00459276                0.01187617               -0.03534780               -0.02607276                0.09419306                0.00954299                0.02771129               -0.02158683
               5.99975866                2.99977647                6.00488986                0.01075362               -0.04333548               -0.02481732                0.09807986                0.02910592                0.02575960               -0.02004556
               6.99926877                3.00005535                6.00512125                0.01000001               -0.04553256               -0.03001010                0.09846364                0.04438077                0.01893412               -0.04128882
               7.99884800                3.00028492                6.00543731                0.01000000               -0.05386286               -0.03381809                0.09458841                0.04656690                0.02266985               -0.03935226
               8.99819151                3.00072301                6.00588695                0.01000000               -0.04865859               -0.04142063                0.10486375                0.05284448                0.00690124               -0.01984384
               9.99787483                3.00105775                6.00616531                0.12435274               -0.03166752               -0.05917994                0.10619937                0.05153304               -0.00143944               -0.01256659
               0.00168268                4.00036619                6.00510558                0.01155656               -0.03143898               -0.00761857                0.09272577               -0.02357757               -0.02018119                0.06428342
               1.00136829                4.00019911                6.00476850                0.01000000               -0.02852902               -0.01862134                0.08876491               -0.01190938               -0.01404738                0.03566968
               2.00111210                3.99992697                6.00443099                0.01000001               -0.02528883               -0.02791423                0.09060329               -0.01236562               -0.00699620               -0.00620849
               3.00086252                3.99966150                6.00423966                0.01000000               -0.02610947               -0.03018696                0.09043515               -0.00863963                0.00781367               -0.01514360
               4.00058991                3.99948702                6.00429900                0.01174739               -0.02917792               -0.03039959                0.09174438                0.00490500                0.02104827               -0.01640726
               5.00027896                3.99943746                6.00449132                0.01022638               -0.03344669               -0.03027683                0.09288562                0.01887271                0.03064217               -0.01902851
               5.99992098                3.99951200                6.00479588                0.01298625               -0.03673388               -0.02976227                0.09432624                0.03270282                0.02569920               -0.01729377
               6.99954428                3.99970496                6.00488965                0.01000000               -0.04023648               -0.03619464                0.09609465                0.04872967                0.01560872               -0.02032029
               7.99911625                4.00000236                6.00495327                0.01000000               -0.03628967               -0.03622306                0.10072532                0.05353181                0.01488999               -0.01763799
               8.99881849                4.00021177                6.00525326                0.01000000               -0.02742354               -0.04866801                0.09906297                0.05780644                0.01550072               -0.01452580
               9.99856778                4.00019902                6.00552370                0.01000005               -0.02507080               -0.06729205                0.10761273                0.04884430                0.01864910               -0.02927032
               0.00162021                5.00045336                6.00588801                0.01000004               -0.01440524               -0.00402898                0.05376269               -0.02127400               -0.02163702                0.04079111
               1.00147616                5.00007341                6.00535578                0.01000000               -0.01628080               -0.02267729                0.06493312               -0.02321172               -0.02872885                0.01680834
               2.00129459                4.99963713                6.00451829                0.01000000               -0.02173440               -0.03091639                0.09068990               -0.01495816               -0.01931712               -0.00767948
               3.00104147                4.99934724                6.00430400                0.01187906               -0.02534186               -0.03375449                0.08749264               -0.00168454                0.01185614               -0.01387380
               4.00078776                4.99916325                6.00430388                0.01022803               -0.02767599               -0.03373350                0.08992130                0.01129398                0.02442686               -0.01504249
               5.00048795                4.99911000                6.00443861                0.01282767               -0.03212733               -0.03302786                0.09355190                0.02315937                0.03366662               -0.01603688
               6.00014521                4.99918122                6.00465723                0.01000000               -0.03674746               -0.03389955                0.09665379                0.02928629                0.03024167               -0.02359513
               6.99975300                4.99933145                6.00472581                0.01000000               -0.03666865               -0.03644448                0.09456960                0.03478442                0.02007605               -0.01730554
               7.99941184                4.99956046                6.00480227                0.01000000               -0.03010103               -0.04640266                0.09532779                0.04281464                0.02660554                0.00622356
               8.99915098                4.99974965                6.00514505                0.01000000               -0.02673108               -0.05030192                0.10510572                0.03258211                0.03058400                0.01517397
               9.99887721                4.99971191                6.00534937                0.01000000               -0.02737646               -0.04114486                0.11274665                0.01714161                0.02691225                0.00558484
               0.00201711                6.00028561                6.00594002                0.98685714               -0.02968238               -0.02432118                0.10449661               -0.00778770               -0.00367017                0.00522557
               1.00172029                5.99974556                6.00538509                0.01000000               -0.02390003               -0.03082030                0.09435890               -0.01065856               -0.01452680               -0.01134145
               2.00153911                5.99930864                6.00461164                0.01000000               -0.02087889               -0.03444127                0.09442871               -0.00456973               -0.01091423               -0.00888376
               3.00130271                5.99898641                6.00432640                0.01075850               -0.02430403               -0.03572605                0.09474276                0.00629317                0.01891769               -0.02690553
               4.00105303                5.99881235                6.00433310                0.01298993               -0.02892668               -0.03195067                0.08617201                0.01542814                0.03316101               -0.02378259
               5.00072417                5.99877690                6.00440857                0.01000000               -0.03838886               -0.03135654                0.09289035                0.02007999                0.03284099               -0.02259456
               6.00028525                5.99883401                6.00442296                0.01000000               -0.04317222               -0.03186240                0.09064248                0.02216553                0.03251745               -0.02246055
               6.99986073                5.99897607                6.00453636                0.01000000               -0.03654500               -0.03739038                0.09330782                0.02135834                0.04258008                0.00261056
               7.99955435                5.99907431                6.00496863                0.01000001               -0.02710259               -0.04859924                0.09789852                0.01379385                0.05064547                0.02767518
               8.99931868                5.99920573                6.00539665                0.01028238               -0.02841349               -0.05180247                0.11211878                0.01359431                0.03744113                0.03713830
               9.99898608                5.99937612                6.00559746                0.01000000               -0.03325967               -0.03355976                0.11942253                0.01248018                0.03130830                0.04472613
               0.00254455                6.99996694                6.00613866                0.99993454               -0.03045959               -0.03229411                0.10665146                0.00011862               -0.00263543                0.01642070
               1.00223996                6.99945700                6.00548752                0.99972257               -0.02911015               -0.02929970                0.09703226               -0.00050976               -0.00640666               -0.00345193
               2.00196235                6.99894831                6.00475838                0.01203828               -0.02881678               -0.03128578                0.08805239                0.00423128               -0.00264408               -0.01171038
               3.00166362                6.99863272                6.00417957                0.01000001               -0.03282606               -0.02945960                0.08052352                0.01294746                0.02292976               -0.02953398
               4.00130583                6.99852424                6.00418201                0.01000000               -0.03978667               -0.02829982                0.09062403                0.01865724                0.04526781               -0.03628790
               5.00086789                6.99848287                6.00422588                0.01000000               -0.04582404               -0.02410743                0.08494168                0.01709676                0.04541942               -0.02689730
               6.00038935                6.99854397                6.00430070                0.01000000               -0.04640097               -0.02681834                0.08949952                0.01296748                0.05720363               -0.00400041
               6.99993987                6.99858365                6.00487554                0.01000000               -0.04656460               -0.03814431                0.10659071                0.00076335                0.07248177                0.02308330
               7.99945806                6.99858847                6.00545206                0.01000000               -0.04094091               -0.05041155                0.11379091               -0.01535911                0.05915649                0.05171710
               8.99912105                6.99871360                6.00588029                0.01000000               -0.03360128               -0.05913612                0.12099499               -0.01953901                0.04360697                0.07319595
               9.99878603                6.99904071                6.00623870                0.01035887               -0.03350202               -0.04255530                0.12687865               -0.01428666                0.04321055                0.09516514
               0.00303935                7.99963973                6.00641152                0.99999999               -0.03106344               -0.03300143                0.10915536               -0.00012933               -0.00091802                0.02105398
               1.00272872                7.99915957                6.00567013                0.99999999               -0.02956673               -0.02992240                0.09908418               -0.00054971               -0.00039072                0.00229522
               2.00244802                7.99868292                6.00493725                0.01000001               -0.03714961               -0.02677581                0.08911886                0.00875706                0.00914223               -0.01307484
               3.00198573                7.99839722                6.00438743                0.01000000               -0.04360005               -0.03337815                0.08833104                0.02727583                0.02721662               -0.04793172
               4.00157602                7.99824635                6.00399182                0.01000000               -0.04696772               -0.02105617                0.07698322                0.02648186                0.05062883               -0.02397748
               5.00104637                7.99829475                6.00412397                0.01000000               -0.05660975               -0.01621785                0.08451331                0.02522574                0.06930948               -0.01019872
               6.00044382                7.99829764                6.00455438                0.01000001               -0.06074393               -0.01923597                0.09074892                0.00122794                0.07897778                0.01594363
               6.99983149                7.99821318                6.00522611                0.01000000               -0.06633022               -0.02752545                0.11090489               -0.02119653                0.09726336                0.01896315
               7.99911722                7.99806608                6.00626510                0.01000000               -0.06779186               -0.04311995                0.13597076               -0.05117820                0.10204849                0.06115267
               8.99847566                7.99802300                6.00707916                0.01000002               -0.05355545               -0.07037517                0.15388263               -0.07655785                0.06428109                0.15926387
               9.99804611                7.99852501                6.00754895                0.01000002               -0.04295471               -0.09274628                0.14681343               -0.05943210                0.04313438                0.16283106
               0.00350229                8.99930691                6.00669827                0.99999999               -0.03165201               -0.03341289                0.11073378               -0.00000792                0.00249276                0.01746660
               1.00318577                8.99885855                6.00588251                1.00000000               -0.03012235               -0.03019737                0.10029227               -0.00033634                0.00196612                0.00256295
               2.00289984                8.99841279                6.00505426                1.00000000               -0.02700298               -0.02710227                0.08948907               -0.00063166               -0.00303583               -0.00922584
               3.00264571                8.99796515                6.00413957                0.01000000               -0.04809541               -0.03341217                0.07819126                0.03885498                0.04065132               -0.03277400
               4.00193793                8.99810311                6.00418963                0.01000000               -0.06622979               -0.01012029                0.07747948                0.04053889                0.07560372               -0.00960675
               5.00132111                8.99815851                6.00433379                0.01000000               -0.07212301               -0.01204492                0.09208644                0.02139432                0.07846073                0.01020203
               6.00049547                8.99815925                6.00492077                0.01027185               -0.07868042               -0.01272207                0.09822530                0.00495898                0.09322547                0.01486048
               6.99974750                8.99803314                6.00556761                0.01000000               -0.09354008               -0.01459889                0.11448449               -0.02277456                0.11249872                0.02012294
               7.99862467                8.99772608                6.00694047                0.01000001               -0.13082753               -0.01919621                0.14791203               -0.05668207                0.19030846                0.04133245
               8.99713095                8.99730609                6.00942763                0.99999999               -0.10156516               -0.06270212                0.18314472               -0.08975218                0.10880330                0.10508200
               9.99659337                8.99718579                6.00971837                0.99745616               -0.05375858               -0.09232262                0.17419160               -0.07862945               -0.00089055                0.09420938
               0.00393591                9.99897147                6.00689524                1.00000000               -0.03197968               -0.03354381                0.11200067                0.00177682                0.01227694                0.01306938
               1.00361611                9.99855562                6.00606847                1.00000000               -0.03035603               -0.03029330                0.10147321                0.00150454                0.01548732                0.00113359
               2.00332879                9.99814088                6.00530758                0.99999998               -0.02718024               -0.02719140                0.09085060                0.00156221                0.01528919               -0.00269642
               3.00307251                9.99772897                6.00448365                0.01000000               -0.05676751               -0.02361789                0.08042490                0.03783312                0.04537985               -0.00391317
               4.00219344                9.99804395                6.00433706                0.01000005               -0.08271930               -0.00591669                0.08456803                0.04179421                0.06770684               -0.00227022
               5.00141812                9.99805385                6.00462449                0.01000000               -0.07625289               -0.01046611                0.09691284                0.00966337                0.08043743                0.01852808
               6.00066838                9.99804320                6.00513521                0.01000000               -0.08044690               -0.01160528                0.10563539                0.01065829                0.10001732                0.01478244
               6.99980918                9.99792121                6.00595532                0.01136526               -0.09788777               -0.01119313                0.11781156               -0.01188477                0.13407895                0.02896311
               7.99871062                9.99768215                6.00739951                0.01000001               -0.12941407               -0.00439243                0.14026522               -0.04901702                0.17862652                0.03580909
               8.99722090                9.99676896                6.00969508                0.99745152               -0.09982475               -0.05371300                0.17391890               -0.04118481                0.10139124                0.00114817
               9.99671413                9.99667856                6.00998584                1.00000000               -0.05067721               -0.05072266                0.16497259                0.00303601                0.00101933               -0.00100962
               0.00112556                0.00154596                7.00577144                1.00000000               -0.02410233               -0.02423739                0.07952051                0.00067974               -0.00378010                0.00359593
               1.00088453                0.00125400                7.00567492                0.99999999               -0.02436947               -0.02479341                0.08135571                0.00028396               -0.00424348               -0.00114193
               2.00063817                0.00097040                7.00557151                0.01000000               -0.01972379               -0.02536456                0.08320235                0.00159783               -0.00615010               -0.00181548
               3.00049006                0.00072184                7.00543748                0.01000005               -0.01491465               -0.03191736                0.09819697               -0.00301143                0.00563286               -0.01246471
               4.00033987                0.00058130                7.00562369                0.01000000               -0.01447912               -0.03366659                0.10065152               -0.00327041                0.03958152               -0.01104255
               5.00020047                0.00058184                7.00619809                0.01000005               -0.01179041               -0.03594898                0.10745048               -0.00567159                0.06791949               -0.01523847
               6.00010406                0.00074528                7.00707358                0.46921669               -0.02118237               -0.03087613                0.11350581               -0.01336002                0.04932803               -0.00161210
               6.99977683                0.00119612                7.00750644                0.99994950               -0.03366311               -0.03392913                0.11573948                0.00089914                0.01890028               -0.00169311
               7.99943080                0.00162237                7.00776134                1.00000000               -0.03475867               -0.03429227                0.11636286                0.00040683                0.00958662               -0.00014894
               8.99908165                0.00203563                7.00801186                0.99999999               -0.03510884               -0.03447754                0.11720624                0.00035546                0.00717144                0.00079757
               9.99872863                0.00243412                7.00822534                1.00000000               -0.03530271               -0.03484994                0.11844251                0.00098620                0.00527754                0.00478816
               0.00142431                1.00130358                7.00571259                1.00000000               -0.02491641               -0.02462889                0.08217515                0.00040780                0.00109453                0.00385369
               1.00117515                1.00100606                7.00561719                0.01000001               -0.02520447               -0.02519691                0.08396686               -0.00000352                0.00283918               -0.00293569
               2.00092022                1.00071676                7.00555687                0.01000000               -0.02603282               -0.02776098                0.08579036               -0.00747511                0.00110838               -0.01229906
               3.00065449                1.00040266                7.00542521                0.01000000               -0.02715289               -0.02982126                0.09699334               -0.01015624                0.00713133               -0.01243505
               4.00037717                1.00024464                7.00559495                0.01000000               -0.02963618               -0.03129511                0.09922854               -0.00547985                0.02997546               -0.01549826
               5.00006177                1.00022235                7.00604898                0.01000000               -0.03569192               -0.03184387                0.10493081                0.00030177                0.05162465               -0.01942455
               5.99966333                1.00043652                7.00685577                0.01000000               -0.03572475               -0.03170339                0.10876944                0.00341986                0.03913695               -0.02187315
               6.99934727                1.00085683                7.00723788                1.00000000               -0.03241069               -0.03322101                0.11061620               -0.00070203                0.01001949               -0.00186347
               7.99901511                1.00127944                7.00746082                0.99999995               -0.03339706               -0.03355388                0.11156600                0.00028899                0.00139666               -0.00009334
               8.99867933                1.00169086                7.00767595                0.99937941               -0.03375547               -0.03378570                0.11269407                0.00031357                0.00037470                0.00010741
               9.99834000                1.00208562                7.00788354                0.99999999               -0.03393284               -0.03418519                0.11391699                0.00079174               -0.00002664                0.00594074
               0.00172875                2.00105338                7.00566095                0.01000001               -0.02574643               -0.03389877                0.08485111               -0.01366567                0.00159797                0.00600485
               1.00147129                2.00075006                7.00552385                0.01000000               -0.03183451               -0.02863944                0.08658698               -0.01714079               -0.00109480               -0.00294381
               2.00109206                2.00041518                7.00533081                0.01019263               -0.03561176               -0.02967666                0.09103722               -0.01863046                0.00000907               -0.01791385
               3.00075905                2.00012541                7.00529726                0.01000001               -0.03407380               -0.02803393                0.09243216               -0.01280192                0.01244107               -0.01754907
               4.00041059                1.99995540                7.00545015                0.01000001               -0.03722131               -0.02886668                0.09640086               -0.00293732                0.02273806               -0.02163975
               5.00001463                1.99994497                7.00576582                0.01000000               -0.04362984               -0.02818165                0.10113740                0.01023223                0.02964603               -0.02576450
               5.99953799                2.00011121                7.00620868                0.01000000               -0.05473837               -0.03233663                0.10839186                0.03256118                0.04506150               -0.04055774
               6.99891986                2.00053170                7.00696428                0.01017776               -0.04677187               -0.03484801                0.10541810                0.03707809                0.02274654               -0.02709660
               7.99860255                2.00095129                7.00716364                0.01241566               -0.03190541               -0.04140160                0.10663830                0.02770236               -0.00723881               -0.01894466
               8.99828175                2.00135992                7.00732723                1.00000000               -0.03238054               -0.03244310                0.10849484                0.00045896               -0.00559245               -0.00286930
               9.99795494                2.00175041                7.00756430                0.99999997               -0.03268099               -0.03292587                0.10973713                0.00075258               -0.00190824                0.00598910
               0.00175764                3.00062561                7.00564503                0.01038928               -0.02871114               -0.03427531                0.10852115               -0.01265286               -0.01123455                0.01894822
               1.00147053                3.00043327                7.00546430                0.01000000               -0.02926906               -0.03195771                0.10192886               -0.01892984                0.00003324                0.00601498
               2.00117226                3.00012322                7.00526713                0.01000001               -0.03061458               -0.03107055                0.09055716               -0.01771394                0.00345402               -0.00722160
               3.00085824                2.99984199                7.00519783                0.01000001               -0.03366972               -0.03057409                0.09058761               -0.01004913                0.01002419               -0.01698474
               4.00049887                2.99966730                7.00527803                0.01000000               -0.03738184               -0.03036143                0.09433306                0.00349297                0.01874317               -0.02208644
               5.00011060                2.99965872                7.00548644                0.01171381               -0.03855228               -0.02956963                0.08965138                0.02162182                0.02241151               -0.02353108
               5.99972782                2.99978979                7.00576554                0.01014499               -0.04309218               -0.03031812                0.09386932                0.04729153                0.02900031               -0.02436882
               6.99924876                3.00015987                7.00619720                0.01295922               -0.04934398               -0.04047215                0.10278151                0.06907903                0.02927563               -0.04074467
               7.99874094                3.00045141                7.00649004                0.01000000               -0.06796849               -0.04143978                0.10924455                0.07037828                0.02552537               -0.03089561
               8.99788939                3.00104200                7.00693396                0.01000000               -0.05834361               -0.04319744                0.10469267                0.06776064                0.00608622               -0.01508212
               9.99757407                3.00142710                7.00722315                0.01000000               -0.03153199               -0.07275809                0.10556500                0.06283289               -0.00156171               -0.01167057
               0.00186036                4.00036787                7.00592976                0.01165165               -0.02652871               -0.01414566                0.07857398               -0.01155301               -0.00993766                0.03653349
               1.00159508                4.00011090                7.00563159                0.01000000               -0.02656458               -0.02819867                0.08441668               -0.00819808               -0.00689703                0.01350009
               2.00132907                3.99979377                7.00532536                0.01000001               -0.02905417               -0.03347200                0.09089536               -0.00768442               -0.00137541               -0.00307049
               3.00101399                3.99951393                7.00515979                0.01000000               -0.03326806               -0.03412959                0.09182945               -0.00190652                0.00927090               -0.01636918
               4.00066371                3.99934817                7.00516520                0.01213872               -0.03447061               -0.03200616                0.08551802                0.01464877                0.01846488               -0.01924153
               5.00032458                3.99935357                7.00530687                0.01070328               -0.03405177               -0.03099356                0.07884581                0.03415104                0.02622954               -0.01631066
               5.99998267                3.99950485                7.00555929                0.01327026               -0.03423834               -0.03034696                0.07876533                0.04700944                0.02913368               -0.01347399
               6.99963981                3.99972226                7.00585096                0.01000000               -0.04273427               -0.03847923                0.09070912                0.06480665                0.03087480               -0.01960918
               7.99912799                4.00012249                7.00619877                0.01000000               -0.04892684               -0.04022032                0.10915475                0.07754250                0.01763761               -0.01358679
               8.99866128                4.00049597                7.00634306                0.01000000               -0.03432993               -0.06020328                0.11377308                0.07373610                0.00463166               -0.00559121
               9.99844139                4.00029525                7.00654897                0.01000000               -0.02198856               -0.08548418                0.10574460                0.04901906                0.01158490               -0.02439327
               0.00204052                5.00034270                7.00629960                0.01641976               -0.01598489               -0.00808866                0.05451545               -0.01099540                0.00295044                0.04254606
               1.00188067                4.99986930                7.00586654                0.01000000               -0.02124868               -0.02751113                0.06270817               -0.00969574               -0.00381653                0.01445323
               2.00161554                4.99945378                7.00545699                0.01000000               -0.03074801               -0.03562137                0.09298804               -0.00351378               -0.00308963               -0.00750537
               3.00126571                4.99915939                7.00514154                0.01171666               -0.03316736               -0.03462502                0.08460868                0.00918452                0.00960599               -0.01704983
               4.00095220                4.99902718                7.00509899                0.01070490               -0.03143827               -0.03312432                0.07712767                0.02695669                0.02509004               -0.01739826
               5.00063694                4.99903885                7.00525420                0.01355944               -0.03264349               -0.03181846                0.07669423                0.04135797                0.03165677               -0.01306854
               6.00029933                4.99918285                7.00542685                0.01000000               -0.03548489               -0.03290982                0.07491380                0.04953519                0.03174167               -0.01186590
               6.99992725                4.99939028                7.00561831                0.01000000               -0.03906263               -0.03908161                0.09102306                0.04838554                0.03694757               -0.00182339
               7.99951808                4.99964701                7.00592464                0.01000000               -0.03679467               -0.05234292                0.11419862                0.05155968                0.04285854                0.00657245
               8.99919135                4.99983793                7.00631515                0.01190818               -0.02810937               -0.05948434                0.10928691                0.03960515                0.03200124                0.02232885
               9.99895589                4.99971742                7.00646175                0.01000000               -0.02354646               -0.04435274                0.09870990                0.02192355                0.02311563                0.01055565
               0.00258724                6.00020610                7.00698185                0.97623447               -0.02971710               -0.02270571                0.10422844               -0.00554403               -0.00358270                0.03645778
               1.00229007                5.99956068                7.00632707                0.01000000               -0.03092704               -0.02980563                0.09451294               -0.00446318               -0.01015151                0.01025425
               2.00196870                5.99908134                7.00554275                0.01000000               -0.03328920               -0.03965479                0.09353735                0.01421232               -0.00840639               -0.01467216
               3.00162429                5.99882143                7.00517376                0.01014981               -0.03226573               -0.04369187                0.08594555                0.02830533                0.01602598               -0.02362071
               4.00132339                5.99868568                7.00504508                0.01327394               -0.03141079               -0.03484126                0.07445264                0.03752562                0.03163988               -0.01534139
               5.00099607                5.99871721                7.00515732                0.01000000               -0.03507206               -0.03145664                0.07336818                0.04482891                0.04082265               -0.01817183
               6.00062195                5.99884665                7.00531134                0.01000000               -0.04263539               -0.03610015                0.08818052                0.03431802                0.05382578               -0.00378324
               7.00014336                5.99894062                7.00568424                0.01000000               -0.04552054               -0.04684291                0.11247853                0.02208953                0.06393845                0.01576695
               7.99971154                5.99907564                7.00611608                0.01000000               -0.03801977               -0.05953344                0.11746891                0.02381254                0.06331819                0.03901839
               8.99938297                5.99930628                7.00660813                0.01100293               -0.02953232               -0.05915757                0.11205996                0.01784278                0.04380748                0.05187694
               9.99912089                5.99940820                7.00675371                0.01089920               -0.02620797               -0.03198936                0.09819595                0.00677121                0.02975412                0.04697960
               0.00322047                6.99988858                7.00720226                0.99969354               -0.03043123               -0.03211024                0.10635219                0.00023429               -0.00219434                0.01728819
               1.00291616                6.99927319                7.00645576                1.00000000               -0.02907158               -0.02915795                0.09689828               -0.00026763               -0.00580680               -0.00254976
               2.00263904                6.99866069                7.00563728                0.01014577               -0.03443425               -0.03428757                0.08791620                0.01373332                0.00248459               -0.01532861
               3.00222748                6.99828556                7.00505692                0.01296666               -0.04160533               -0.05488142                0.09752556                0.04928872                0.02773587               -0.01592105
               4.00180694                6.99833035                7.00508693                0.01000000               -0.04274613               -0.03439176                0.08062986                0.06185860                0.04868066               -0.02684425
               5.00137255                6.99840972                7.00502766                0.01000000               -0.05223325               -0.02913986                0.08431604                0.03838793                0.06207951               -0.01280274
               6.00076227                6.99846084                7.00540473                0.01000000               -0.06162499               -0.03425882                0.10841572                0.01288682                0.08367689                0.00511183
               7.00014005                6.99845342                7.00599097                0.01000000               -0.05668024               -0.04251826                0.11333166               -0.00814193                0.08743354                0.02746492
               7.99962867                6.99845634                7.00668049                0.01000000               -0.04622034               -0.06028217                0.12446152               -0.01826790                0.08281399                0.06519227
               8.99921565                6.99865478                7.00725806                0.01000000               -0.03705896               -0.07339029                0.13532580               -0.01286140                0.05364138                0.09335427
               9.99888749                6.99907763                7.00742317                0.01000001               -0.03281604               -0.04701744                0.12142806               -0.00973748                0.03078241                0.11429421
               0.00382271                7.99956390                7.00749959                0.99999999               -0.03101014               -0.03275444                0.10858511                0.00007684               -0.00080623                0.02166622
               1.00351261                7.99897752                7.00665953                1.00000000               -0.02958569               -0.02979758                0.09893447               -0.00028747               -0.00032424                0.00245638
               2.00323100                7.99839559                7.00582861                0.01000001               -0.02861077               -0.02676003                0.08933647               -0.00505456                0.01923946               -0.01384804
               3.00294040                7.99772380                7.00538215                0.01000000               -0.03973003               -0.03548868                0.05458496                0.04547523                0.04265402               -0.04540880
               4.00243640                7.99799785                7.00490738                0.01000000               -0.06535278               -0.02794863                0.09444299                0.06674823                0.06057332               -0.02804128
               5.00163334                7.99813441                7.00512770                0.01000000               -0.08002115               -0.02075079                0.10138402                0.02997596                0.09161815               -0.00079879
               6.00083598                7.99816148                7.00561124                0.01000000               -0.08241546               -0.02253727                0.10846993                0.00911653                0.10470865                0.01516256
               6.99998503                7.99809026                7.00643153                0.01000000               -0.08455763               -0.02739017                0.12051994               -0.02432217                0.12024978                0.03366143
               7.99914482                7.99786999                7.00759734                0.01000000               -0.07402915               -0.04358552                0.13374133               -0.06633689                0.11535689                0.07111683
               8.99850445                7.99783848                7.00858070                0.01000005               -0.05321924               -0.07798971                0.15193436               -0.08715461                0.07953988                0.18432856
               9.99808044                7.99846785                7.00907349                0.01000000               -0.04240103               -0.10610140                0.15481971               -0.06451086                0.05451503                0.19651818
               0.00439476                8.99923349                7.00780319                0.99999999               -0.03160408               -0.03324828                0.11030867                0.00014029                0.00241347                0.01759838
               1.00407871                8.99867724                7.00688605                0.99999996               -0.03015418               -0.03020786                0.10046971               -0.00016249                0.00167799                0.00233147
               2.00379167                8.99812549                7.00595364                0.99999999               -0.02719944               -0.02723300                0.09040743               -0.00029149               -0.00371655               -0.00999233
               3.00353473                8.99757578                7.00493120                0.01000000               -0.05301885               -0.01950273                0.08004979                0.03852519                0.04667196               -0.04433502
               4.00273129                8.99777138                7.00501263                0.01000000               -0.08631397               -0.00848371                0.08757058                0.03870801                0.10019217               -0.01586847
               5.00180845                8.99799470                7.00537309                0.01195005               -0.08712715               -0.00937872                0.09699928                0.02066893                0.09557884                0.00689591
               6.00098875                8.99801010                7.00594932                0.01101321               -0.09316755               -0.00880639                0.09724538                0.00812401                0.11153832                0.01613677
               6.99994510                8.99790562                7.00686991                0.01000000               -0.12175217               -0.01170608                0.12811465               -0.01482167                0.13861419                0.02535022
               7.99855371                8.99758463                7.00839133                0.01000001               -0.15351977               -0.01113165                0.14391293               -0.06377419                0.22046901                0.05272704
               8.99687470                8.99709498                7.01125512                1.00000000               -0.11075890               -0.06396524                0.18235259               -0.10735141                0.13191122                0.12577847
               9.99633853                8.99695560                7.01146017                0.99804225               -0.05361693               -0.10103901                0.17416481               -0.09404682               -0.00088667                0.10948077
               0.00493803                9.99889893                7.00801485                1.00000000               -0.03206631               -0.03345622                0.11189656                0.00177110                0.01229672                0.01309176
               1.00461737                9.99837337                7.00708652                0.99999999               -0.03057033               -0.03038707                0.10204170                0.00146543                0.01548985                0.00093988
               2.00432662                9.99785093                7.00622342                0.99999998               -0.02761801               -0.02745541                0.09213475                0.00151428                0.01537112               -0.00301505
               3.00406501                9.99733375                7.00529866                0.01002055               -0.07674912               -0.02420352                0.08232214                0.05189019                0.05144058               -0.00396538
               4.00279164                9.99782817                7.00516649                0.01000000               -0.11285018                0.00567937                0.08737614                0.03668890                0.08108160               -0.00434155
               5.00180800                9.99794683                7.00559466                0.01000000               -0.08520517               -0.00478680                0.08730939                0.00781438                0.08575591                0.01401903
               6.00108754                9.99798535                7.00614887                0.01086754               -0.08469666               -0.00247494                0.08667409                0.00534368                0.10083975                0.01595129
               7.00011407                9.99785614                7.00708133                0.01000000               -0.12037805               -0.00494846                0.11691341               -0.00000200                0.15216219                0.01902698
               7.99867998                9.99764736                7.00884959                0.01000000               -0.15638117                0.00627322                0.14305573               -0.05222137                0.22586354                0.04697598
               8.99698645                9.99655917                7.01143445                0.99803877               -0.11008537               -0.05358114                0.17395126               -0.04883991                0.12014286                0.00115291
               9.99647827                9.99644707                7.01163950                0.99999999               -0.05081774               -0.05085337                0.16576288                0.00276329                0.00101389               -0.00101576
               0.00117536                0.00162783                8.00656876                1.00000000               -0.02424174               -0.02436305                0.08011313                0.00058475               -0.00371946                0.00367431
               1.00093295                0.00128729                8.00648940                0.99880471               -0.02445718               -0.02483039                0.08162081                0.00024698               -0.00418886               -0.00112150
               2.00068622                0.00095400                8.00640327                0.01000000               -0.02092825               -0.02529610                0.08313112                0.00048691               -0.00133364               -0.00181285
               3.00051438                0.00063333                8.00638165                0.01000000               -0.01705466               -0.03026680                0.09353438               -0.00408037                0.01363826               -0.01080804
               4.00034513                0.00050342                8.00663840                0.01000000               -0.01709475               -0.03141202                0.10053104               -0.00141624                0.04396861               -0.01177156
               5.00017249                0.00059162                8.00725891                0.01000000               -0.01917145               -0.03229903                0.10672025                0.00376032                0.07938505               -0.01532832
               5.99996170                0.00100530                8.00830435                0.46157825               -0.02801917               -0.03712787                0.11927059               -0.00501399                0.05480393               -0.00049210
               6.99961210                0.00147427                8.00867439                0.99988082               -0.03482077               -0.03436427                0.11648336               -0.00051375                0.01424020               -0.00243274
               7.99926528                0.00194381                8.00892444                1.00000000               -0.03478898               -0.03432862                0.11647375                0.00028145                0.00866369               -0.00022277
               8.99891632                0.00240261                8.00918556                0.99999999               -0.03513068               -0.03455762                0.11737089                0.00025566                0.00721593                0.00081686
               9.99856267                0.00284685                8.00940820                1.00000000               -0.03536548               -0.03482742                0.11825601                0.00086810                0.00526265                0.00491630
               0.00152175                1.00138420                8.00653494                1.00000000               -0.02494182               -0.02469080                0.08237356                0.00036091                0.00111276                0.00391810
               1.00127233                1.00103899                8.00645623                0.01003105               -0.02518384               -0.02517775                0.08388748                0.00002409                0.00285826               -0.00292474
               2.00101807                1.00070104                8.00641287                0.01000000               -0.02867300               -0.02879630                0.08539538               -0.00959638                0.00455716               -0.01024478
               3.00069887                1.00033066                8.00636676                0.01000000               -0.03331253               -0.02858929                0.09360081               -0.01023426                0.01262142               -0.01435260
               4.00035182                1.00018930                8.00659573                0.01000000               -0.03698583               -0.02945646                0.09970243               -0.00038796                0.03256331               -0.01625633
               4.99995915                1.00026863                8.00708406                0.01000000               -0.04407920               -0.02927259                0.10411082                0.00999736                0.06024674               -0.01841172
               5.99947023                1.00063402                8.00804031                0.01000000               -0.04107210               -0.03589399                0.11477493                0.01408658                0.04275721               -0.02715830
               6.99913771                1.00113062                8.00835137                1.00000000               -0.03331544               -0.03351770                0.11143810                0.00097453                0.00558421               -0.00279939
               7.99880393                1.00160052                8.00857860                0.99999998               -0.03351753               -0.03366021                0.11199509                0.00029839                0.00117839               -0.00013876
               8.99846736                1.00205703                8.00880491                0.99936778               -0.03384109               -0.03389109                0.11299553                0.00018234                0.00059889                0.00023945
               9.99812710                1.00249858                8.00902272                0.99999999               -0.03402543               -0.03420290                0.11395422                0.00073690                0.00011474                0.00612283
               0.00187300                2.00113401                8.00650841                0.01158911               -0.02564164               -0.03341553                0.08463030               -0.01639696                0.00159359                0.01194125
               1.00161658                2.00078374                8.00638766                0.01000000               -0.03351906               -0.02903011                0.08614441               -0.01872916                0.00097301                0.00034819
               2.00120262                2.00037808                8.00625241                0.01000001               -0.03975732               -0.03223042                0.09163244               -0.02002055                0.00276142               -0.01522824
               3.00082144                2.00006154                8.00624676                0.01000001               -0.04016092               -0.02909595                0.09452085               -0.00993758                0.01356650               -0.01853263
               4.00039940                1.99991429                8.00641829                0.01000001               -0.04468602               -0.02874222                0.09772173                0.00723372                0.02514726               -0.02233168
               4.99992772                2.00000617                8.00678714                0.01000000               -0.05089815               -0.02823833                0.10042582                0.02550858                0.03280146               -0.02799555
               5.99938144                2.00028742                8.00726965                0.01000000               -0.06313134               -0.03477741                0.10771201                0.04777060                0.04492783               -0.04422275
               6.99866509                2.00080391                8.00802350                0.01014904               -0.05182968               -0.03884238                0.10636675                0.04876282                0.02237005               -0.02914260
               7.99834484                2.00127061                8.00823527                0.01342318               -0.03215865               -0.04843255                0.10745137                0.03693489               -0.00663292               -0.01363167
               8.99802192                2.00172479                8.00841372                0.99999999               -0.03252652               -0.03257473                0.10878518                0.00024783               -0.00503478               -0.00247941
               9.99769431                2.00216280                8.00866120                0.99999997               -0.03276035               -0.03294537                0.10972707                0.00070672               -0.00165027                0.00613645
               0.00189435                3.00071589                8.00663503                0.01000001               -0.02406766               -0.03458604                0.08716845               -0.01538726               -0.00749049                0.01624416
               1.00165368                3.00045839                8.00641841                0.01000000               -0.02772526               -0.03584346                0.08955166               -0.02206422               -0.00591324                0.00456789
               2.00133985                3.00005643                8.00619691                0.01000001               -0.03448892               -0.03511891                0.09344747               -0.01779324                0.00052154               -0.00724448
               3.00096390                2.99974874                8.00612721                0.01000001               -0.03939908               -0.03355676                0.09338005               -0.00276624                0.01166407               -0.01743897
               4.00055187                2.99961446                8.00621918                0.01000000               -0.04338517               -0.03165318                0.09421549                0.01839279                0.01756623               -0.02370931
               5.00009620                2.99970386                8.00638579                0.01025615               -0.04619825               -0.03313469                0.09456633                0.04028790                0.02440928               -0.02977323
               5.99962790                2.99993847                8.00676725                0.01071835               -0.04832095               -0.03531061                0.10521016                0.06140195                0.02368359               -0.02221661
               6.99912978                3.00035378                8.00717688                0.01078841               -0.05030764               -0.04561259                0.10083001                0.07753061                0.02459226               -0.04377505
               7.99862175                3.00063187                8.00762221                0.01000000               -0.07748257               -0.04872904                0.14335865                0.08419099               -0.00606714               -0.01182774
               8.99758013                3.00140554                8.00798080                0.01000000               -0.06782651               -0.05030180                0.10476304                0.08734031                0.00154408               -0.00564865
               9.99726522                3.00183967                8.00827661                0.01000000               -0.03149058               -0.08451242                0.10538368                0.07808085               -0.00160288               -0.00769758
               0.00208025                4.00044229                8.00667706                0.01004124               -0.02455038               -0.02318483                0.08802921               -0.00499364                0.00228531                0.02539243
               1.00183475                4.00006687                8.00645684                0.01000000               -0.02619297               -0.03956921                0.08953982               -0.00889187                0.00142311                0.00473532
               2.00155639                3.99967570                8.00624890                0.01000001               -0.03133314               -0.03933974                0.09255920               -0.00292496                0.00397052               -0.00352205
               3.00120809                3.99939041                8.00607625                0.01000000               -0.03721302               -0.03782325                0.09159477                0.01166105                0.01004827               -0.01974547
               4.00081213                3.99928123                8.00600936                0.01096245               -0.03993140               -0.03395234                0.08606742                0.02890429                0.01674525               -0.02504852
               5.00040946                3.99934348                8.00606823                0.01000000               -0.04262855               -0.03528400                0.08732316                0.04985007                0.02646317               -0.01794313
               5.99995956                3.99958121                8.00637118                0.01203554               -0.04435802               -0.03733092                0.08804906                0.06681086                0.02979698               -0.01675542
               6.99952230                3.99989166                8.00670383                0.01000000               -0.04913306               -0.04460342                0.09317621                0.07896035                0.02806454               -0.01027010
               7.99897690                4.00029603                8.00713636                0.01000000               -0.04806876               -0.04286358                0.10157566                0.08887536                0.02943681                0.00049250
               8.99856092                4.00071875                8.00752872                0.01000000               -0.02946206               -0.07371915                0.11537789                0.09251423                0.01283308               -0.00535078
               9.99838766                4.00047255                8.00763859                0.01102528               -0.01732632               -0.10606982                0.10680420                0.06443463                0.00611318               -0.02684831
               0.00254533                5.00025219                8.00697832                0.01239196               -0.03028950               -0.01650939                0.09075669                0.00021984                0.01219450                0.06646506
               1.00224243                4.99966700                8.00660994                0.01000000               -0.02937593               -0.03527198                0.08931115                0.00695300                0.00995297                0.02410377
               2.00195781                4.99926964                8.00637805                0.01000000               -0.03254209               -0.04203966                0.09026495                0.01465871                0.00721625               -0.00789127
               3.00159159                4.99899228                8.00599617                0.01025891               -0.03904604               -0.03958978                0.08977109                0.02892894                0.01124487               -0.02109894
               4.00117689                4.99893541                8.00584643                0.01000000               -0.03991849               -0.03818237                0.08388459                0.04480192                0.03059261               -0.02273466
               5.00079322                4.99899818                8.00597249                0.01262082               -0.03804763               -0.03517373                0.07824003                0.05606734                0.03687533               -0.01327972
               6.00041594                4.99919185                8.00615550                0.01000000               -0.03995276               -0.04003711                0.08145420                0.06694027                0.04214783               -0.00755193
               6.99999417                4.99946171                8.00654627                0.01000000               -0.04218831               -0.04864563                0.09855440                0.06976076                0.05296383                0.01359800
               7.99957217                4.99977460                8.00708624                0.01000000               -0.03701380               -0.05986039                0.11462180                0.06946850                0.04629817                0.02205080
               8.99925389                4.99993115                8.00733079                0.01000001               -0.02629248               -0.07091962                0.10908342                0.04699700                0.02179347                0.02073404
               9.99904632                4.99971828                8.00732357                0.01030753               -0.02075701               -0.05591252                0.10038037                0.02382849                0.00971371                0.00499434
               0.00325503                6.00011210                8.00802459                0.96491571               -0.02986657               -0.02286146                0.10425206               -0.00265044               -0.00357964                0.05416222
               1.00295636                5.99936143                8.00727535                0.01000000               -0.03653674               -0.02967302                0.09506659                0.00845867               -0.00586956                0.02005054
               2.00252429                5.99883491                8.00648239                0.01000000               -0.04177331               -0.04568815                0.09405939                0.03451329                0.00064460               -0.01899509
               3.00212089                5.99859861                8.00604531                0.01072305               -0.04110123               -0.04431901                0.08920915                0.04298895                0.02908181               -0.02286108
               4.00170227                5.99851758                8.00582215                0.01203917               -0.04232653               -0.04051801                0.08205919                0.05865969                0.03961223               -0.02127195
               5.00127436                5.99864000                8.00587593                0.01000000               -0.04337108               -0.03708781                0.08000278                0.06306680                0.04935767               -0.01190060
               6.00083484                5.99878046                8.00618657                0.01000000               -0.04697990               -0.04227711                0.09189150                0.04811959                0.06849955                0.00833958
               7.00033477                5.99891875                8.00678593                0.01000000               -0.04690095               -0.05380290                0.10977517                0.03684831                0.07668396                0.02907682
               7.99989683                5.99909882                8.00731801                0.01000000               -0.03887875               -0.06817706                0.11725194                0.03283452                0.06344643                0.04662389
               8.99955719                5.99930036                8.00763785                0.01000001               -0.03034186               -0.06615259                0.11010192                0.02263966                0.03616134                0.06434497
               9.99928999                5.99935430                8.00756138                0.01000001               -0.02672019               -0.03557269                0.09973307                0.00665069                0.01431334                0.06621419
               0.00399367                6.99979496                8.00826571                0.99985095               -0.03048648               -0.03199855                0.10625885                0.00027448               -0.00211204                0.01777098
               1.00368880                6.99907354                8.00742548                1.00000000               -0.02913894               -0.02915073                0.09710276               -0.00011111               -0.00558781               -0.00211857
               2.00341089                6.99835588                8.00651670                0.01015722               -0.04600548               -0.03726511                0.08823499                0.03091275                0.01696987               -0.01929462
               3.00276869                6.99810590                8.00613008                0.01079553               -0.05510971               -0.04919287                0.09600994                0.07041572                0.03365171               -0.04477820
               4.00230869                6.99812505                8.00579460                0.01000000               -0.04885092               -0.03788800                0.07943337                0.07450996                0.04373465               -0.01559366
               5.00179167                6.99825643                8.00591220                0.01000000               -0.06045574               -0.03533259                0.09221169                0.05608865                0.07840407               -0.00396042
               6.00109958                6.99834631                8.00646901                0.01000000               -0.06894480               -0.03620793                0.10586311                0.02642720                0.09808143                0.01517499
               7.00041278                6.99838565                8.00714217                0.01000000               -0.06261646               -0.04556385                0.11458412               -0.00098096                0.10249613                0.03676310
               7.99984725                6.99841106                8.00794129                0.01000000               -0.04807871               -0.06606232                0.12324383               -0.01995944                0.09606425                0.07745812
               8.99945120                6.99860810                8.00858681                0.01000001               -0.03878976               -0.07939233                0.13722711               -0.01855648                0.06194778                0.11927517
               9.99907146                6.99900682                8.00866726                0.01000000               -0.03797488               -0.04679613                0.13853368               -0.01708560                0.03477071                0.15747793
               0.00470335                7.99947213                8.00858322                0.99999999               -0.03101314               -0.03256721                0.10819211                0.00018675               -0.00076722                0.02192274
               1.00439322                7.99877841                8.00764882                1.00000000               -0.02965825               -0.02976724                0.09902086               -0.00012291               -0.00030302                0.00253173
               2.00411019                7.99808960                8.00672398                0.01000002               -0.03165942               -0.02688743                0.08987742                0.01029047               -0.01598365               -0.01425242
               3.00376003                7.99761476                8.00547913                0.01000000               -0.05341263               -0.04719785                0.07165884                0.07108414                0.02600896               -0.03148930
               4.00304194                7.99775982                8.00588068                0.01000000               -0.07925788               -0.02992091                0.09513885                0.07548938                0.09539183               -0.01898293
               5.00217488                7.99793335                8.00615165                0.01000000               -0.09038843               -0.02134796                0.10080153                0.04004063                0.09775313               -0.00097230
               6.00123417                7.99805631                8.00672378                0.01000000               -0.09622397               -0.02009768                0.10779981                0.01019801                0.11802906                0.00958376
               7.00025040                7.99800747                8.00763651                0.01000000               -0.09794913               -0.02476543                0.12084430               -0.03068690                0.14073831                0.04319952
               7.99927518                7.99777757                8.00893993                0.01000000               -0.08300482               -0.04413487                0.13411553               -0.07466843                0.14106401                0.08790172
               8.99859030                7.99771251                8.01011784                0.01040312               -0.05621727               -0.08200913                0.14998506               -0.10550304                0.09570872                0.21996887
               9.99815084                7.99841837                8.01064535                0.01000001               -0.04394612               -0.10987107                0.14820193               -0.07470982                0.07186901                0.23946714
               0.00538484                8.99914362                8.00890445                0.99999998               -0.03159661               -0.03310808                0.10999715                0.00021609                0.00237137                0.01763470
               1.00506887                8.99847820                8.00789191                0.99999996               -0.03022420               -0.03024701                0.10072754               -0.00006864                0.00152315                0.00220937
               2.00478035                8.99781813                8.00686241                0.99999999               -0.02743578               -0.02742957                0.09133198               -0.00011892               -0.00409620               -0.01039558
               3.00452016                8.99716194                8.00574057                0.01000000               -0.06402327               -0.03500064                0.08176075                0.05533605                0.05707211               -0.00992916
               4.00349989                8.99752663                8.00594104                0.01000000               -0.11120767               -0.00552123                0.09419092                0.05723303                0.11175848               -0.01680926
               5.00229600                8.99782947                8.00627377                0.01000001               -0.11352358               -0.00211326                0.09443489                0.01968534                0.10877670               -0.00321034
               6.00122942                8.99794436                8.00686567                0.01000001               -0.11091144               -0.00465926                0.10139774                0.00126053                0.12941434                0.00277816
               7.00007777                8.99789034                8.00812990                0.01123446               -0.12902874               -0.00642833                0.12204346               -0.02573403                0.16241750                0.03196419
               7.99864884                8.99752836                8.00981872                0.01000001               -0.16887169               -0.00362049                0.13758505               -0.06614128                0.25310583                0.06521754
               8.99670034                8.99696792                8.01307468                1.00000000               -0.12416549               -0.06395705                0.18156105               -0.12377060                0.15542392                0.14389692
               9.99616553                8.99680940                8.01320167                0.99756304               -0.05348079               -0.10593863                0.17413496               -0.10717850               -0.00088848                0.12195645
               0.00603851                9.99880997                8.00913317                1.00000000               -0.03211767               -0.03336459                0.11172886                0.00171792                0.01230033                0.01309744
               1.00571734                9.99817347                8.00810930                0.99999999               -0.03072249               -0.03047229                0.10245366                0.00139862                0.01550702                0.00083948
               2.00542406                9.99754101                8.00715027                1.00000000               -0.02795441               -0.02771154                0.09314949                0.00143451                0.01546530               -0.00317791
               3.00515825                9.99691474                8.00613009                0.01086078               -0.09524980               -0.02471977                0.08387655                0.06922854                0.06074907               -0.00401832
               4.00351907                9.99764940                8.00608458                0.01116875               -0.15036958                0.01227650                0.09085987                0.05073495                0.09363016               -0.00508213
               5.00215086                9.99789108                8.00637067                0.01036663               -0.11602814                0.00616149                0.08627811                0.00117159                0.10033736                0.00323506
               6.00119851                9.99796312                8.00686870                0.01000001               -0.09995738                0.00187632                0.09400792               -0.00370015                0.12443586                0.00186776
               7.00015171                9.99787891                8.00829359                0.01020356               -0.11618626               -0.00114364                0.11562993               -0.00550440                0.17123963                0.02178376
               7.99887478                9.99770516                8.01026062                0.01010101               -0.16589293                0.01767986                0.13329901               -0.04968299                0.24744949                0.04885357
               8.99683385                9.99643337                8.01317411                0.99756060               -0.12752357               -0.05345499                0.17398159               -0.05692695                0.14047698                0.00115212
               9.99632431                9.99629960                8.01330109                0.99934047               -0.05095426               -0.05097986                0.16655489                0.00250074                0.00101569               -0.00101481
               0.00120991                0.00168709                9.00737370                1.00000000               -0.02436585               -0.02447848                0.08065250                0.00049206               -0.00381685                0.00358158
               1.00096625                0.00129791                9.00730733                0.99926819               -0.02453351               -0.02486056                0.08186574                0.00020711               -0.00425125               -0.00115020
               2.00071924                0.00091495                9.00723413                0.01000001               -0.02192741               -0.02522246                0.08306913                0.00003672                0.00274454               -0.00179853
               3.00052770                0.00053546                9.00730817                0.01000001               -0.01886231               -0.02849494                0.09233304               -0.00455046                0.02119572               -0.01114380
               4.00034199                0.00043121                9.00763431                0.01000000               -0.02027389               -0.02915899                0.09933279                0.00139106                0.05076492               -0.01147689
               5.00012222                0.00062498                9.00833249                0.01000000               -0.02786634               -0.02990877                0.10722558                0.01160607                0.08614696               -0.01596777
               5.99978466                0.00126352                9.00945899                0.44307232               -0.03403413               -0.03354658                0.11561698                0.00507644                0.05735762               -0.00171701
               6.99944154                0.00179351                9.00983611                1.00000000               -0.03458789               -0.03417761                0.11614667                0.00021676                0.01400907               -0.00281669
               7.99909290                0.00230960                9.01009082                1.00000000               -0.03496646               -0.03437615                0.11665619                0.00021202                0.00847867               -0.00030603
               8.99874221                0.00281328                9.01035928                0.99999999               -0.03521545               -0.03457886                0.11739742                0.00018923                0.00719280                0.00086306
               9.99838860                0.00330342                9.01059046                1.00000000               -0.03536135               -0.03483364                0.11820573                0.00082299                0.00533100                0.00499982
               0.00160400                1.00144230                9.00736006                1.00000000               -0.02496182               -0.02474816                0.08254807                0.00031067                0.00108094                0.00385636
               1.00135439                1.00104930                9.00729494                0.01000001               -0.02515885               -0.02515321                0.08379590                0.00004617                0.00282953               -0.00294973
               2.00110083                1.00066272                9.00726477                0.01000000               -0.03151608               -0.02941847                0.08501262               -0.01149186                0.00778337               -0.00832993
               3.00072407                1.00025051                9.00729722                0.01000000               -0.03948452               -0.02705716                0.09269295               -0.00931503                0.01798712               -0.01443032
               4.00031114                1.00013962                9.00758900                0.01025279               -0.04509706               -0.02729462                0.09872576                0.00532750                0.03683721               -0.01610233
               4.99982212                1.00032589                9.00813120                0.01000000               -0.05299877               -0.02708279                0.10341847                0.02427586                0.06509254               -0.02118696
               5.99925116                1.00092806                9.00915127                0.01000000               -0.04507283               -0.03818540                0.11134423                0.02706821                0.04460249               -0.02439479
               6.99892067                1.00145173                9.00946664                1.00000000               -0.03330109               -0.03350877                0.11161581               -0.00010623                0.00531609               -0.00301252
               7.99858514                1.00196584                9.00970072                0.99999998               -0.03367378               -0.03372746                0.11232537                0.00012608                0.00118555               -0.00023097
               8.99824719                1.00246749                9.00993586                0.99999996               -0.03392281               -0.03394195                0.11315783                0.00010837                0.00071507                0.00036936
               9.99790668                1.00295508                9.01016263                1.00000000               -0.03405076               -0.03420845                0.11398697                0.00067879                0.00026507                0.00620709
               0.00200212                2.00119212                9.00735355                0.01001930               -0.02553709               -0.03302304                0.08442868               -0.01787467                0.00161011                0.00628733
               1.00174675                2.00079484                9.00724673                0.01000000               -0.03569626               -0.02969214                0.08569802               -0.02147750                0.00288409               -0.00181586
               2.00128819                2.00032658                9.00716345                0.01000001               -0.04411210               -0.03404379                0.09064152               -0.02137372                0.00502743               -0.01236685
               3.00086451                1.99999431                9.00718767                0.01000000               -0.04575199               -0.02933923                0.09356626               -0.00480396                0.01561820               -0.01885114
               4.00037315                1.99988531                9.00740458                0.01048580               -0.05226034               -0.02687837                0.09639906                0.01847427                0.02535837               -0.02341938
               4.99981930                2.00008332                9.00777433                0.01000000               -0.05864836               -0.02718639                0.09864834                0.04215461                0.03613908               -0.02924713
               5.99920019                2.00049981                9.00836292                0.01273605               -0.07088331               -0.03420705                0.09942945                0.05996240                0.04504045               -0.03996033
               6.99840163                2.00112333                9.00909162                0.01000000               -0.05602580               -0.04238479                0.10706544                0.05501086                0.02076969               -0.02853934
               7.99807967                2.00163505                9.00931266                0.02455312               -0.03232501               -0.03260349                0.10795651                0.01208206               -0.00630438                0.02142430
               8.99775513                2.00213444                9.00950294                0.99999999               -0.03263428               -0.03267327                0.10901890                0.00014358               -0.00470168               -0.00222041
               9.99742698                2.00261925                9.00975884                0.99999999               -0.03281476               -0.03296622                0.10982256                0.00066669               -0.00148503                0.00617005
               0.00204107                3.00078184                9.00738840                0.01000000               -0.02506913               -0.03298454                0.08754565               -0.01541819                0.00087585                0.02143777
               1.00179038                3.00045546                9.00725534                0.01000000               -0.02835940               -0.03903819                0.08896761               -0.02475189               -0.00044740                0.00537945
               2.00147388                2.99998185                9.00713608                0.01000000               -0.03605647               -0.03921938                0.09230828               -0.01454287                0.00345055               -0.00755514
               3.00106925                2.99966372                9.00706543                0.01000003               -0.04411361               -0.03721227                0.09425353                0.01050974                0.01188811               -0.01870136
               4.00059161                2.99960205                9.00716234                0.01000001               -0.05092673               -0.03326812                0.09358673                0.03759593                0.02060301               -0.02852065
               5.00005072                2.99978216                9.00737776                0.01077698               -0.05906051               -0.03376565                0.09802836                0.06572909                0.03014229               -0.02736326
               5.99941040                3.00024391                9.00786974                0.01039603               -0.05825338               -0.03591620                0.09886269                0.07823517                0.02124798               -0.02375657
               6.99888565                3.00060404                9.00821380                0.01000002               -0.07973623               -0.04879355                0.10352587                0.10520720                0.04772730               -0.03687148
               7.99781568                3.00131377                9.00935721                0.01000001               -0.08098923               -0.04833719                0.12865012                0.10110740               -0.01678824               -0.00083564
               8.99726586                3.00181402                9.00902922                0.01000000               -0.04326404               -0.05477344                0.10497777                0.08212853               -0.03302168                0.00038464
               9.99695040                3.00229576                9.00933082                0.07896599               -0.03154681               -0.09539600                0.10559093                0.09402023               -0.00161518               -0.00599030
               0.00234652                4.00053243                9.00769034                0.01000003               -0.02948162               -0.02286876                0.10079068               -0.00283065               -0.00148848                0.04197931
               1.00205170                4.00001408                9.00742239                0.01025610               -0.02787228               -0.04612977                0.09640107               -0.00503127               -0.00104278                0.01228072
               2.00178907                3.99954219                9.00717654                0.01048777               -0.02986013               -0.04596891                0.09099207                0.00678723                0.00378848               -0.00808664
               3.00145450                3.99925007                9.00699169                0.01000001               -0.03912216               -0.04476829                0.09114514                0.03153691                0.00956673               -0.01934422
               4.00100663                3.99921995                9.00688655                0.01000001               -0.04812424               -0.04211793                0.09391643                0.05770288                0.02197711               -0.02694939
               5.00049201                3.99940801                9.00705333                0.01003428               -0.05318059               -0.04083031                0.09969870                0.07880999                0.02905430               -0.01940062
               5.99994302                3.99978149                9.00732027                0.01017394               -0.05280452               -0.05137454                0.10118135                0.09487767                0.03503091               -0.02189487
               6.99943592                4.00014746                9.00771448                0.01000000               -0.05255927               -0.05119483                0.10894614                0.10284743                0.03684305                0.00087859
               7.99889183                4.00066831                9.00823028                0.01000001               -0.05101054               -0.07036944                0.11995323                0.13676772                0.04158257               -0.01956762
               8.99841571                4.00103897                9.00865062                0.01000000               -0.02739556               -0.08352704                0.11361794                0.10835286                0.01721602                0.00050365
               9.99834392                4.00071133                9.00868505                0.01169397               -0.00717926               -0.12006240                0.10413258                0.07794653                0.00283219               -0.01815511
               0.00302116                5.00032446                9.00811473                0.01184440               -0.03411695               -0.02652377                0.10457160                0.00422061               -0.00021137                0.07066808
               1.00268000                4.99953286                9.00765277                0.01000000               -0.03237623               -0.04339634                0.09979504                0.02005953                0.00325461                0.02602247
               2.00237364                4.99906247                9.00726229                0.01000000               -0.03288830               -0.04896995                0.08983883                0.03290296                0.00913362               -0.00823041
               3.00202223                4.99876836                9.00693696                0.01077961               -0.03929574               -0.05098832                0.09206748                0.05544401                0.01920693               -0.02251089
               4.00158773                4.99875969                9.00677668                0.01003579               -0.04784256               -0.04539396                0.09335382                0.07377903                0.03687371               -0.02804405
               5.00106538                4.99896556                9.00681900                0.01091474               -0.05096107               -0.04342600                0.09251728                0.07917637                0.04428306               -0.01790130
               6.00056850                4.99921642                9.00705594                0.01000000               -0.05047983               -0.05407776                0.10317690                0.08767504                0.05674252               -0.00176766
               7.00005578                4.99958014                9.00758940                0.01000000               -0.04544899               -0.06106005                0.11327342                0.08998172                0.06776457                0.02444948
               7.99965952                4.99990638                9.00821707                0.01000000               -0.03329414               -0.07576182                0.11423595                0.09000273                0.05098345                0.03982041
               8.99938990                5.00014348                9.00849682                0.01000001               -0.02474584               -0.08509005                0.11583801                0.07176187                0.02621127                0.03031897
               9.99916461                4.99989451                9.00846936                0.01014813               -0.02252913               -0.06612722                0.11242427                0.03591130                0.01416024                0.01680588
               0.00401413                6.00000196                9.00906689                0.95272878               -0.02992470               -0.03195466                0.10418521                0.00629547               -0.00361669                0.04880958
               1.00371489                5.99914615                9.00822840                0.01000000               -0.04012478               -0.03377548                0.09552501                0.02171250               -0.00196607                0.01489643
               2.00321164                5.99856279                9.00742393                0.01274147               -0.04243642               -0.05146333                0.08597159                0.04921754                0.00511914               -0.01906967
               3.00286616                5.99823030                9.00695794                0.01040054               -0.04633155               -0.04060918                0.08317354                0.06748307                0.03348051               -0.03039995
               4.00228501                5.99831207                9.00668626                0.01017736               -0.06236753               -0.03998697                0.09283550                0.08104875                0.04954805               -0.02613101
               5.00161881                5.99853949                9.00675737                0.01000000               -0.06015358               -0.04553820                0.09786484                0.07943550                0.06837505               -0.01083752
               6.00108194                5.99869993                9.00714917                0.01000000               -0.05366022               -0.04946451                0.10279856                0.06560944                0.08829381                0.01823345
               7.00054560                5.99892626                9.00787974                0.01000000               -0.04766958               -0.06210137                0.11137371                0.05575275                0.09112331                0.03839756
               8.00012854                5.99915307                9.00846112                0.01000000               -0.03413919               -0.07613989                0.11518524                0.04283516                0.07119621                0.05733105
               8.99986282                5.99933717                9.00881016                0.01000000               -0.02842262               -0.07915950                0.11927196                0.02872218                0.04462505                0.08244504
               9.99956009                5.99938878                9.00874838                0.01000003               -0.03027280               -0.03756418                0.12235746                0.01803049                0.02643330                0.08845691
               0.00485868                6.99968537                9.00932744                0.99927045               -0.03052740               -0.03191731                0.10616002                0.00030061               -0.00211386                0.01804306
               1.00455341                6.99885735                9.00839782                0.99999997               -0.02924204               -0.02922092                0.09743718               -0.00006307               -0.00548874               -0.00189259
               2.00427384                6.99803320                9.00740198                0.01000000               -0.04653992               -0.03989768                0.08890625                0.04840969                0.01957337               -0.02305015
               3.00362261                6.99795617                9.00697712                0.01000002               -0.06871661               -0.03733855                0.07895451                0.06822315                0.05144497               -0.03304545
               4.00289951                6.99795995                9.00667560                0.01000000               -0.06781924               -0.04201595                0.09328912                0.07426655                0.06996610               -0.02045252
               5.00226623                6.99805479                9.00687190                0.01000000               -0.07027937               -0.03930509                0.10473293                0.06968405                0.10016319               -0.00146817
               6.00149392                6.99822713                9.00752199                0.01000000               -0.07742623               -0.03717222                0.10601903                0.04565399                0.11509193                0.02101364
               7.00071770                6.99833811                9.00828265                0.01000000               -0.06943014               -0.04798706                0.11286648                0.00972460                0.11786254                0.04705508
               8.00010532                6.99838358                9.00914537                0.01023068               -0.04945371               -0.07012399                0.12152837               -0.02107987                0.11470029                0.09330904
               8.99972863                6.99856029                9.01000260                0.01269607               -0.03416677               -0.07935940                0.12627122               -0.01949856                0.07773864                0.12889505
               9.99942198                6.99914323                9.01019384                0.01000000               -0.03066427               -0.03330001                0.12224904                0.00342933                0.05128915                0.15670310
               0.00567618                7.99936361                9.00966344                0.99999999               -0.03103889               -0.03245689                0.10795348                0.00024142               -0.00071072                0.02206818
               1.00536579                7.99856173                9.00863995                1.00000000               -0.02975847               -0.02982076                0.09928137               -0.00004827               -0.00026805                0.00258768
               2.00508101                7.99776484                9.00762615                0.01000000               -0.05309602               -0.02709606                0.09061041                0.02545205                0.01018768               -0.01447150
               3.00430387                7.99748353                9.00681533                0.01000000               -0.07046485               -0.06149682                0.12288300                0.08409204                0.03499616               -0.04356577
               4.00367172                7.99747175                9.00681016                0.01000001               -0.07792837               -0.03643286                0.09439422                0.09018043                0.09760300               -0.01906661
               5.00274531                7.99775339                9.00714373                0.01000000               -0.09800098               -0.01716628                0.09626503                0.06389285                0.13020886               -0.00321835
               6.00171170                7.99795649                9.00776724                0.01000000               -0.10808288               -0.01531953                0.10766744                0.02200572                0.14113548                0.01472030
               7.00058365                7.99796652                9.00884842                0.01027709               -0.11134648               -0.02251449                0.11876072               -0.03416039                0.16309278                0.05016931
               7.99948477                7.99775059                9.01027965                0.01000000               -0.09352224               -0.04076483                0.13303246               -0.08254059                0.16212562                0.10055625
               8.99871320                7.99774998                9.01158041                0.01074555               -0.05109782               -0.08218166                0.13175919               -0.10780999                0.10547435                0.23690552
               9.99846281                7.99872278                9.01203753                0.01000001               -0.02503929               -0.12021216                0.11947940               -0.07047972                0.06584060                0.23551262
               0.00646726                8.99903623                9.01000313                0.99999999               -0.03160494               -0.03300936                0.10974904                0.00025041                0.00234696                0.01768381
               1.00615121                8.99826094                9.00890060                0.99999996               -0.03030885               -0.03031844                0.10102147               -0.00001689                0.00144737                0.00215966
               2.00586109                8.99749128                9.00778028                0.99999999               -0.02768390               -0.02765961                0.09223403               -0.00002893               -0.00428500               -0.01060099
               3.00559754                8.99672624                9.00656642                0.01000000               -0.07139140               -0.05046003                0.08335758                0.08909078                0.06789469               -0.03651622
               4.00443326                8.99723129                9.00689645                0.01000000               -0.12690953               -0.00161542                0.09795687                0.08685894                0.12678489               -0.01685367
               5.00305935                8.99771147                9.00726179                0.01000001               -0.13561765                0.00321706                0.09559069                0.04873902                0.14031470               -0.00531294
               6.00172091                8.99792074                9.00797728                0.01000000               -0.14094761                0.00300847                0.11154618                0.00589982                0.16136920                0.01376689
               7.00024039                8.99788782                9.00931078                0.01000001               -0.15249294               -0.00010395                0.11964354               -0.03945854                0.19161424                0.03179234
               7.99867105                8.99756828                9.01114304                0.01000001               -0.18200806               -0.00049756                0.13817761               -0.08537418                0.28953739                0.06588006
               8.99660023                8.99691666                9.01488634                1.00000000               -0.13021329               -0.06833085                0.18077269               -0.13934965                0.18331199                0.16493534
               9.99606678                8.99673898                9.01494287                0.99664535               -0.05334509               -0.12474302                0.17410373               -0.12867774               -0.00088835                0.14299189
               0.00723178                9.99870342                9.01024943                1.00000000               -0.03213746               -0.03328112                0.11150177                0.00164608                0.01232149                0.01310464
               1.00691041                9.99795536                9.00913559                1.00000000               -0.03083227               -0.03055734                0.10277795                0.00133056                0.01553816                0.00079282
               2.00661514                9.99721165                9.00808641                1.00000000               -0.02823653               -0.02796355                0.09404595                0.00135326                0.01552967               -0.00325405
               3.00634568                9.99647433                9.00697619                0.01254483               -0.10957373               -0.02519068                0.08531599                0.08620403                0.06800808               -0.00404174
               4.00442366                9.99743944                9.00698369                0.01187007               -0.16575202                0.02081511                0.08628434                0.06621044                0.11197374               -0.01009505
               5.00303064                9.99781773                9.00732023                0.01023009               -0.13851618                0.01062618                0.09587907                0.02598987                0.12996446                0.00076120
               6.00165334                9.99801666                9.00802903                0.01000003               -0.14418501                0.00959161                0.11454834                0.00057883                0.15632508                0.01317930
               7.00014694                9.99796444                9.00939393                0.01000000               -0.14524456                0.00766179                0.11614850               -0.02314669                0.20467663                0.02083614
               7.99874845                9.99774064                9.01151557                0.01000000               -0.16957123                0.01723543                0.14176476               -0.07131380                0.27828232                0.04634993
               8.99675551                9.99638336                9.01491408                0.99664380               -0.12519198               -0.05332953                0.17401164               -0.06010771                0.16825246                0.00115362
               9.99624461                9.99622792                9.01497059                0.99947899               -0.05109042               -0.05110587                0.16734538                0.00223874                0.00101477               -0.00101681
               0.00123177                0.00172675               10.00818181                1.00000000               -0.02442733               -0.02452734                0.08096883                0.00041744               -0.00383489                0.00355247
               1.00098749                0.00128908               10.00812671                0.99973179               -0.02457472               -0.02484891                0.08199815                0.00017057               -0.00424905               -0.00115663
               2.00074027                0.00085674               10.00806466                0.01000000               -0.02246880               -0.02516245                0.08302606                0.00028155                0.00666917               -0.00178590
               3.00053812                0.00043235               10.00822831                0.01000001               -0.02020836               -0.02697991                0.09198806               -0.00498441                0.02916637               -0.01093661
               4.00033610                0.00036451               10.00862505                0.01000000               -0.02336853               -0.02675300                0.09947170                0.00397239                0.05858527               -0.01116588
               5.00007075                0.00067484               10.00940342                0.01000001               -0.03654358               -0.02717968                0.10755867                0.02389311                0.09488843               -0.01779549
               5.99960523                0.00158640               10.01061669                0.42801007               -0.04051462               -0.03442063                0.11556123                0.01626234                0.06123947               -0.00093448
               6.99926045                0.00215687               10.01099732                1.00000000               -0.03467742               -0.03420028                0.11606123               -0.00001375                0.01354081               -0.00297382
               7.99891168                0.00271788               10.01125757                1.00000000               -0.03499582               -0.03438246                0.11667527                0.00016480                0.00830992               -0.00034698
               8.99856054                0.00326670               10.01153351                1.00000000               -0.03523780               -0.03459404                0.11742266                0.00015283                0.00721348                0.00088853
               9.99820693                0.00380251               10.01177232                0.99979681               -0.03536092               -0.03481713                0.11816071                0.00077550                0.00530925                0.00503193
               0.00167361                1.00148147               10.00818591                1.00000000               -0.02494070               -0.02476651                0.08260937                0.00026513                0.00106943                0.00384902
               1.00142420                1.00104059               10.00813214                0.01000000               -0.02510785               -0.02510303                0.08364573                0.00002557                0.00282399               -0.00294771
               2.00117145                1.00060512               10.00811312                0.01000000               -0.03449059               -0.02986559                0.08466617               -0.01280410                0.01096464               -0.00654658
               3.00073439                1.00016255               10.00822062                0.01000000               -0.04584341               -0.02580200                0.09247892               -0.00767921                0.02382021               -0.01459884
               4.00025458                1.00009698               10.00857024                0.01061431               -0.05178288               -0.02459751                0.09608746                0.01121466                0.04074559               -0.01740911
               4.99969873                1.00040305               10.00915243                0.01000000               -0.06138688               -0.02500899                0.10121016                0.03833167                0.07080713               -0.02229699
               5.99902685                1.00124220               10.01026719                0.01000000               -0.05020779               -0.04083334                0.11143767                0.03857729                0.04865021               -0.03408426
               6.99869458                1.00181486               10.01058368                1.00000000               -0.03342149               -0.03354482                0.11174825                0.00010719                0.00488800               -0.00322910
               7.99835842                1.00237406               10.01082511                0.99999998               -0.03374117               -0.03376417                0.11250883                0.00008239                0.00116645               -0.00026797
               8.99801975                1.00292076               10.01106807                0.99999996               -0.03397704               -0.03398399                0.11330391                0.00007240                0.00075895                0.00041911
               9.99767887                1.00345434               10.01130246                0.99999997               -0.03408777               -0.03422535                0.11407682                0.00065158                0.00026123                0.00623235
               0.00211884                2.00123142               10.00819698                0.01000000               -0.02544749               -0.03368117                0.08424266               -0.01922036                0.00161865                0.01310950
               1.00186436                2.00078702               10.00810162                0.01000000               -0.03783041               -0.03251369                0.08529091               -0.02495716                0.00465872                0.00167426
               2.00136223                2.00025943               10.00806524                0.01000001               -0.04858447               -0.03564379                0.08983842               -0.02216959                0.00823702               -0.01099627
               3.00089267                1.99991631               10.00811809                0.01000000               -0.05211614               -0.02959271                0.09290051                0.00270723                0.01723702               -0.01832873
               4.00031990                1.99987256               10.00834627                0.01000001               -0.06002532               -0.02674529                0.09449003                0.03276822                0.02813415               -0.02556254
               4.99969216                2.00017467               10.00876011                0.01000001               -0.06774708               -0.02627233                0.09840693                0.05950418                0.03465145               -0.03065436
               5.99896496                2.00076973               10.00925824                0.01117857               -0.07807150               -0.03681073                0.09535857                0.07506454                0.05130928               -0.05117800
               6.99813073                2.00148597               10.01016481                0.01000000               -0.05787634               -0.04106917                0.10746152                0.05875712                0.02931774               -0.02846428
               7.99780744                2.00204260               10.01039440                0.02714321               -0.03245147               -0.03382592                0.10832300                0.01065995               -0.00612869                0.01133446
               8.99748171                2.00258702               10.01059410                0.99999999               -0.03273157               -0.03276057                0.10925359                0.00008683               -0.00453774               -0.00206831
               9.99715280                2.00311800               10.01085765                0.99999999               -0.03289011               -0.03303422                0.11004673                0.00064008               -0.00143422                0.00620752
               0.00217800                3.00080785               10.00838594                0.01041754               -0.02809519               -0.03379385                0.09542029               -0.01837589               -0.00461965                0.02767872
               1.00189704                3.00039032               10.00819776                0.01000000               -0.02896152               -0.04359850                0.09268026               -0.02261379               -0.00319433                0.00894857
               2.00159877                2.99989224               10.00804308                0.01000000               -0.03608196               -0.04358366                0.09110888               -0.00594894                0.00458032               -0.00939139
               3.00117541                2.99957070               10.00801228                0.01053184               -0.04735852               -0.03921576                0.09204065                0.02332859                0.01324151               -0.02027596
               4.00065160                2.99956207               10.00809091                0.01000001               -0.05918823               -0.03723297                0.09433378                0.05885147                0.02295945               -0.02692588
               4.99999164                2.99987760               10.00834636                0.01078729               -0.07173825               -0.03302213                0.09765124                0.09042825                0.03079906               -0.02729666
               5.99921683                3.00050598               10.00874450                0.01000000               -0.06973935               -0.04063101                0.09328411                0.10749739                0.03429527               -0.02465399
               6.99859685                3.00099348               10.00924740                0.01059327               -0.08731335               -0.04761703                0.10196347                0.12049878                0.04628964               -0.02863201
               7.99747056                3.00169754               10.01019521                0.01000000               -0.08253841               -0.04988939                0.10215735                0.11685265                0.00308213                0.00029726
               8.99694609                3.00226555               10.01008036                0.01000000               -0.04204253               -0.06628987                0.10525711                0.10324433               -0.02264778                0.00756815
               9.99662971                3.00279366               10.01038843                0.12520896               -0.03163725               -0.10735491                0.10595088                0.11394210               -0.00160277               -0.00499709
               0.00258638                4.00055554               10.00869288                0.01000003               -0.02586918               -0.02594257                0.09666319                0.00030266               -0.00426375                0.03832382
               1.00232769                3.99991505               10.00838486                0.01061752               -0.02617595               -0.05044368                0.09261102                0.00475694               -0.00290488                0.01146452
               2.00206287                3.99938776               10.00806874                0.01000001               -0.03191408               -0.05173019                0.09052413                0.02372367                0.00391903               -0.00848454
               3.00168941                3.99913200               10.00789915                0.01000001               -0.04364166               -0.04974444                0.09176270                0.05130382                0.01557847               -0.02157162
               4.00119003                3.99912790               10.00788768                0.01000000               -0.05662938               -0.04936275                0.09785586                0.08814719                0.02770260               -0.02671706
               5.00055682                3.99951422               10.00806221                0.01000000               -0.05955007               -0.04707404                0.09977482                0.11186000                0.03696897               -0.02169690
               5.99999903                3.99995711               10.00839481                0.01057025               -0.06038362               -0.05891897                0.10664343                0.12914842                0.04633250               -0.01092413
               6.99934915                4.00053363               10.00888275                0.01000001               -0.05633056               -0.06040205                0.11311228                0.13395819                0.04819324                0.00999840
               7.99887242                4.00104481               10.00953543                0.01241935               -0.04493368               -0.06786812                0.11359863                0.14707252                0.02993953                0.00513522
               8.99845048                4.00126122               10.00980108                0.01000000               -0.02484918               -0.09437824                0.10830938                0.12529187                0.00634147                0.00346815
               9.99837544                4.00097091               10.00972124                0.01185387               -0.00750412               -0.14012935                0.10599775                0.10870441               -0.00493736               -0.01307712
               0.00346503                5.00028900               10.00906975                0.01000001               -0.03050652               -0.03399775                0.10414566                0.02290925                0.00138192                0.07238923
               1.00315997                4.99938144               10.00860584                0.01000000               -0.03043700               -0.05003724                0.09663572                0.04004716                0.00454917                0.02563725
               2.00285629                4.99885764               10.00817483                0.01000001               -0.03493135               -0.05369686                0.09066072                0.05143171                0.01099559               -0.01443024
               3.00246134                4.99857581               10.00783752                0.01078986               -0.04119880               -0.05907710                0.09067451                0.07779723                0.02141200               -0.02781676
               4.00203231                4.99857482               10.00771351                0.01000000               -0.05308562               -0.05159267                0.09504772                0.10320361                0.03892650               -0.02459157
               5.00139963                4.99893612               10.00782284                0.01000001               -0.06259620               -0.05719330                0.10572115                0.11874563                0.05640263               -0.01650376
               6.00078039                4.99932760               10.00821904                0.01000000               -0.06056532               -0.06390198                0.11463129                0.11643197                0.06969211                0.00624279
               7.00018832                4.99978544               10.00881174                0.01000001               -0.05479857               -0.07700927                0.12530020                0.12543573                0.07681809                0.02923698
               7.99968442                5.00034018               10.00937096                0.01000000               -0.03312453               -0.08638351                0.11036675                0.10552254                0.05796836                0.03961521
               8.99952583                5.00037799               10.00964755                0.01000000               -0.01499904               -0.09088740                0.10389811                0.06814221                0.02703374                0.03739632
               9.99938444                4.99999107               10.00957205                0.01136396               -0.01413905               -0.07859767                0.11193875                0.03964814                0.01445792                0.02710788
               0.00485968                5.99987559               10.01010830                0.94014111               -0.02996844               -0.03648610                0.10405653                0.02115210               -0.00361534                0.05242884
               1.00456000                5.99891430               10.00918585                0.01000000               -0.04812742               -0.03786531                0.09594072                0.03913776               -0.00673978                0.01434256
               2.00389713                5.99831382               10.00820182                0.01118382               -0.05159108               -0.05824935                0.08442830                0.07014593               -0.00146331               -0.02022838
               3.00352817                5.99795046               10.00770878                0.01000000               -0.05016686               -0.04941061                0.08427269                0.09224330                0.03624281               -0.03142421
               4.00289379                5.99809605               10.00767886                0.01057356               -0.06746104               -0.04913572                0.09854699                0.11004092                0.06444031               -0.02452824
               5.00217895                5.99837036               10.00783323                0.01000000               -0.07077221               -0.05477088                0.10646988                0.10659705                0.08603210               -0.00780903
               6.00147835                5.99867908               10.00824254                0.01000000               -0.06668324               -0.05895412                0.11533274                0.09166802                0.09964025                0.01805103
               7.00084529                5.99899344               10.00901341                0.01000000               -0.05440126               -0.07136829                0.11749927                0.07982000                0.09845981                0.05148554
               8.00039033                5.99931714               10.00962171                0.01000000               -0.03414287               -0.09407338                0.11526184                0.05934615                0.08493082                0.07358816
               9.00016243                5.99944348               10.01002329                0.01000000               -0.02240461               -0.09811115                0.12064433                0.02567432                0.05507237                0.09204753
               9.99994223                5.99939895               10.01000853                0.01000000               -0.02201983               -0.05696695                0.12126314                0.01206322                0.03584790                0.08887201
               0.00581063                6.99955928               10.01038891                0.99854866               -0.03061487               -0.03188895                0.10615220                0.00030756               -0.00220624                0.01822583
               1.00550449                6.99862414               10.00937422                1.00000000               -0.02937880               -0.02934582                0.09786241               -0.00007406               -0.00549262               -0.00176798
               2.00522306                6.99769265               10.00829483                0.01000000               -0.04902537               -0.04459734                0.08969225                0.06024451                0.01577688               -0.01820776
               3.00452398                6.99758760               10.00770917                0.01059997               -0.07049126               -0.03981582                0.07888309                0.08236158                0.05536787               -0.03601080
               4.00381323                6.99759211               10.00766038                0.01000001               -0.07877195               -0.04692067                0.09859090                0.10124504                0.10089115               -0.03332841
               5.00294854                6.99784070               10.00800686                0.01000001               -0.09112852               -0.04456316                0.11614734                0.10997164                0.11849285               -0.00463369
               6.00199066                6.99814852               10.00858939                0.01000000               -0.09009431               -0.03918219                0.10830791                0.06956057                0.13941245                0.02138745
               7.00114665                6.99835807               10.00939950                0.01000000               -0.07846759               -0.05053573                0.11368061                0.02323728                0.13856577                0.05792583
               8.00042131                6.99845871               10.01037186                0.01000002               -0.05945738               -0.07630552                0.12205962               -0.02734646                0.12749349                0.11140559
               8.99995751                6.99841576               10.01111223                0.01000001               -0.03532797               -0.09382994                0.11730900               -0.04137546                0.07672422                0.14891626
               9.99971475                6.99885173               10.01111224                0.01000002               -0.02427539               -0.05096778                0.10882626               -0.02584480                0.03782343                0.16033880
               0.00673611                7.99923781               10.01074229                0.99999999               -0.03109707               -0.03239912                0.10784204                0.00026857               -0.00071482                0.02211212
               1.00642514                7.99832739               10.00963444                1.00000000               -0.02987753               -0.02991958                0.09963746                0.00001241               -0.00026730                0.00260868
               2.00613856                7.99742187               10.00853619                0.01000000               -0.05745940               -0.02734023                0.09142064                0.03162633                0.02497483               -0.01456785
               3.00527595                7.99715414               10.00793679                0.01000000               -0.07364847               -0.06584239                0.10164629                0.09868306                0.09641970               -0.09589894
               4.00466559                7.99715763               10.00776857                0.01243377               -0.07269900               -0.02880392                0.08218920                0.09259680                0.12656434               -0.02637747
               5.00382197                7.99747909               10.00807695                0.01000000               -0.11567004               -0.01469932                0.09878718                0.09053661                0.14768579               -0.00764264
               6.00235219                7.99789543               10.00887713                0.01000000               -0.14110648               -0.00953088                0.10889621                0.04603909                0.17126821                0.02173657
               7.00099984                7.99798273               10.01001172                0.01000001               -0.12832413               -0.01886997                0.11833501               -0.02533771                0.18726111                0.06239294
               7.99978571                7.99779103               10.01160058                0.01000000               -0.10289696               -0.04243344                0.13336490               -0.09865673                0.17462421                0.11631179
               8.99894190                7.99756688               10.01275303                0.01000001               -0.06161523               -0.07414039                0.13344483               -0.14010982                0.10506791                0.28100798
               9.99855340                7.99837960               10.01303493                0.01000001               -0.03885002               -0.10577774                0.13439296               -0.10273035                0.04805248                0.28025301
               0.00763684                8.99891129               10.01109943                1.00000000               -0.03161752               -0.03291750                0.10950142                0.00027069                0.00234046                0.01770784
               1.00732067                8.99802575               10.00991234                1.00000000               -0.03040041               -0.03040246                0.10132695                0.00002643                0.00142236                0.00213398
               2.00702883                8.99714585               10.00870709                0.99999999               -0.02793935               -0.02791046                0.09312486                0.00002492               -0.00436757               -0.01068708
               3.00676188                8.99627075               10.00740772                0.01000000               -0.08443090               -0.05698930                0.08486643                0.11076807                0.08017280               -0.05149752
               4.00534022                8.99701603               10.00790018                0.01000000               -0.13702029                0.00576931                0.08880219                0.10124424                0.13696517               -0.02277765
               5.00402147                8.99754672               10.00818559                0.01000000               -0.14662041                0.01551689                0.08746925                0.04123533                0.15097836               -0.00025295
               6.00240781                8.99795790               10.00909660                0.01000000               -0.16385876                0.01138809                0.11236350                0.01665346                0.18271132                0.01863946
               7.00074430                8.99798067               10.01052277                0.01000001               -0.17718892                0.00732988                0.12351255               -0.02944991                0.22373394                0.04114918
               7.99886403                8.99761004               10.01258228                0.01000001               -0.20887772                0.00480306                0.14597626               -0.09565749                0.33118194                0.08127677
               8.99656674                8.99693295               10.01669013                0.99999997               -0.14146612               -0.05829538                0.17998963               -0.15359475                0.20469329                0.19968014
               9.99603471                8.99673617               10.01668374                0.99999999               -0.05320375               -0.10778872                0.17407436               -0.13576950               -0.00089486                0.18333537
               0.00851262                9.99857946               10.01136321                1.00000000               -0.03215063               -0.03318384                0.11124802                0.00156643                0.01235437                0.01312985
               1.00819112                9.99771934               10.01016486                1.00000000               -0.03092847               -0.03064067                0.10307529                0.00125547                0.01558287                0.00077734
               2.00789405                9.99686366               10.00903119                0.99999999               -0.02849913               -0.02821826                0.09490853                0.00127278                0.01557938               -0.00328512
               3.00762113                9.99601435               10.00783641                0.01000001               -0.12397716               -0.02563975                0.08672544                0.10639329                0.07061046               -0.00405042
               4.00541451                9.99727302               10.00781027                0.01205227               -0.19581650                0.02569933                0.08574778                0.09618341                0.12149584               -0.02334505
               5.00370480                9.99778943               10.00828826                0.01146718               -0.15816046                0.02427144                0.09709540                0.01084174                0.13927949                0.00877237
               6.00225130                9.99812319               10.00915966                0.01000000               -0.14730500                0.01652918                0.11072430                0.00134428                0.17644704                0.01752901
               7.00075870                9.99812933               10.01061656                0.01000001               -0.16655115                0.01486530                0.12534626               -0.01036440                0.24666383                0.02604167
               7.99892028                9.99788709               10.01309592                0.01000003               -0.20074141                0.02770513                0.15499646               -0.08079290                0.32296137                0.06853697
               8.99674388                9.99640097               10.01665434                0.99999999               -0.13443522               -0.05319843                0.17404488               -0.06545030                0.17938926                0.00114850
               9.99623157                9.99622382               10.01664800                0.99949538               -0.05123019               -0.05123518                0.16813011                0.00197200                0.00102141               -0.00101146
               0.00124342                0.00174995               11.00899308                0.99962887               -0.02449918               -0.02458411                0.08128163                0.00034532               -0.00383616                0.00354403
               1.00099843                0.00126391               11.00894730                0.99997488               -0.02462013               -0.02484732                0.08213351                0.00013924               -0.00425134               -0.00114620
               2.00075101                0.00078229               11.00889465                0.01000002               -0.02238975               -0.02510870                0.08299539                0.00147253                0.01067460               -0.00177594
               3.00055063                0.00033210               11.00914793                0.01000000               -0.02062136               -0.02633468                0.09219798               -0.00396735                0.03790865               -0.01080997
               4.00033859                0.00031751               11.00962374                0.01000000               -0.02611393               -0.02472898                0.09872459                0.00751324                0.06801555               -0.01575175
               5.00002835                0.00077105               11.01048366                0.01000001               -0.04615192               -0.02477873                0.10909967                0.03261259                0.10300016               -0.02126456
               5.99941555                0.00194383               11.01177021                0.41399366               -0.04784367               -0.03390012                0.11482974                0.02724890                0.06425596               -0.00117963
               6.99907148                0.00256131               11.01215733                1.00000000               -0.03463165               -0.03416435                0.11590120                0.00009114                0.01336054               -0.00312232
               7.99872292                0.00316758               11.01242432                0.99999999               -0.03498766               -0.03439394                0.11662654                0.00014848                0.00819742               -0.00037029
               8.99837172                0.00376194               11.01270773                0.99804326               -0.03528757               -0.03466550                0.11757072                0.00013965                0.00714758                0.00094742
               9.99801716                0.00434378               11.01295367                0.99994380               -0.03545605               -0.03493826                0.11850920                0.00078087                0.00522356                0.00518511
               0.00173292                1.00150411               11.00901224                1.00000000               -0.02492691               -0.02478376                0.08265465                0.00022183                0.00106303                0.00383924
               1.00148365                1.00101543               11.00896785                0.01000000               -0.02506381               -0.02505970                0.08351032                0.00001662                0.00280854               -0.00294149
               2.00123164                1.00053121               11.00895810                0.01000000               -0.03701488               -0.03027962                0.08435862               -0.01306096                0.01453020               -0.00479865
               3.00074335                1.00006876               11.00914680                0.01000000               -0.05186982               -0.02480139                0.09202956               -0.00417016                0.02883331               -0.01395569
               4.00019424                1.00007022               11.00951074                0.01000000               -0.06010166               -0.02320570                0.09600752                0.02048696                0.04542458               -0.01893931
               4.99954132                1.00052327               11.01015540                0.01000000               -0.07006671               -0.02473748                0.10423233                0.05533100                0.07774691               -0.02460425
               5.99879291                1.00160482               11.01138002                0.01000000               -0.05404018               -0.04724425                0.11083323                0.05512599                0.05346399               -0.03681387
               6.99846051                1.00221967               11.01170161                1.00000000               -0.03344113               -0.03354893                0.11179001               -0.00004232                0.00469908               -0.00334132
               7.99812409                1.00282364               11.01195090                0.99999998               -0.03377468               -0.03379707                0.11261832                0.00002511                0.00114942               -0.00029429
               8.99778502                1.00341528               11.01220194                0.99999996               -0.03404796               -0.03405787                0.11352713                0.00000839                0.00075732                0.00049080
               9.99744313                1.00399440               11.01244416                0.99999999               -0.03418916               -0.03431774                0.11441949                0.00061363                0.00023892                0.00635260
               0.00222521                2.00125428               11.00903840                0.01049753               -0.02535476               -0.03322948                0.08402971               -0.01955041                0.00162238                0.01582376
               1.00197166                2.00076271               11.00895255                0.01000000               -0.03943703               -0.03321195                0.08489919               -0.02459348                0.00639202                0.00393152
               2.00143647                2.00017670               11.00896022                0.01000001               -0.05217234               -0.03703417                0.08920719               -0.02036561                0.01185293               -0.00876903
               3.00092822                1.99983608               11.00904568                0.01000000               -0.05713272               -0.02958094                0.09204597                0.01097920                0.02022300               -0.02009587
               4.00029382                1.99985339               11.00929438                0.01042676               -0.06639275               -0.02740495                0.09460043                0.04813547                0.03271518               -0.02510686
               4.99960036                2.00027631               11.00974247                0.01000001               -0.07360734               -0.02945689                0.09873803                0.08086700                0.03846372               -0.03022983
               5.99882167                2.00099894               11.01027009                0.01000007               -0.08742722               -0.04952833                0.10471583                0.10081910                0.05968578               -0.05826203
               6.99785182                2.00189033               11.01124085                0.01000001               -0.06469331               -0.04531075                0.10770485                0.06964601                0.03213056               -0.02997794
               7.99752780                2.00249164               11.01147912                0.03384278               -0.03253425               -0.03224755                0.10859496                0.00553600               -0.00603012                0.01938960
               8.99720113                2.00308078               11.01168801                0.99999999               -0.03283005               -0.03284384                0.10951425                0.00002281               -0.00444302               -0.00197412
               9.99687120                2.00365743               11.01195977                1.00000000               -0.03299304               -0.03310877                0.11036379                0.00061828               -0.00139710                0.00625280
               0.00232504                3.00083952               11.00929680                0.01000000               -0.02556841               -0.03195903                0.08938621               -0.01622959               -0.00270759                0.03205717
               1.00206936                3.00035119               11.00910894                0.01000000               -0.02870380               -0.04637127                0.08993829               -0.02014619               -0.00057417                0.01082548
               2.00175096                2.99979052               11.00895826                0.01000000               -0.03915563               -0.04679755                0.09124352                0.00213179                0.00549313               -0.00949849
               3.00128624                2.99947714               11.00890624                0.01000000               -0.05171196               -0.04213386                0.09196162                0.03752497                0.01658764               -0.02126305
               4.00071673                2.99952212               11.00904902                0.01000001               -0.06365681               -0.03951861                0.09532683                0.07803994                0.02688615               -0.02564105
               5.00001311                2.99993413               11.00933079                0.01000000               -0.07607297               -0.03893565                0.09807392                0.11080231                0.03633902               -0.02921892
               5.99919527                3.00061426               11.00973542                0.01000000               -0.08261846               -0.04552348                0.10318861                0.13033869                0.04279088               -0.02632416
               6.99836074                3.00131345               11.01025307                0.01000000               -0.10754527               -0.05536225                0.10514830                0.14858914                0.06274347               -0.03165240
               7.99704436                3.00217869               11.01140036                0.01315386               -0.08705257               -0.04481908                0.10653734                0.12447210                0.00547093               -0.00043332
               8.99661969                3.00275840               11.01113436                0.01000001               -0.03710806               -0.07698191                0.10557722                0.11545667               -0.03055998                0.00774748
               9.99630220                3.00333222               11.01144984                0.13875233               -0.03174875               -0.11956316                0.10637496                0.13406444               -0.00160739               -0.00187524
               0.00287728                4.00061510               11.00962360                0.01000003               -0.02595360               -0.02413479                0.09625884                0.00459799               -0.00422030                0.04979485
               1.00261774                3.99983529               11.00927461                0.01000000               -0.02620571               -0.05532898                0.09241884                0.01110977               -0.00113350                0.01375565
               2.00235316                3.99924075               11.00898703                0.01042864               -0.03353088               -0.05748686                0.09173064                0.03845106                0.00769839               -0.00952719
               3.00194712                3.99899340               11.00882694                0.01000001               -0.04777691               -0.05373733                0.09231848                0.07239086                0.02078820               -0.02346882
               4.00139762                3.99906302               11.00884367                0.01000001               -0.06114281               -0.05227172                0.09651015                0.10842010                0.03361026               -0.02567964
               5.00072427                3.99949759               11.00904883                0.01000000               -0.06742512               -0.05348346                0.10060400                0.13501206                0.04867440               -0.02226225
               6.00004912                4.00008847               11.00945314                0.01051947               -0.07325477               -0.05603533                0.10446441                0.15318353                0.05361784               -0.00630315
               6.99925917                4.00078309               11.00997673                0.01000001               -0.07384145               -0.06396135                0.11338015                0.17931328                0.05226956                0.01827387
               7.99857229                4.00159525               11.01050226                0.01116603               -0.04512202               -0.07831444                0.09674064                0.18483890                0.02833039               -0.00352217
               8.99835673                4.00154114               11.01081680                0.01000000               -0.00837193               -0.10446031                0.09594894                0.13903520                0.00382839                0.01426516
               9.99840485                4.00126616               11.01080501                0.01175147                0.00481233               -0.15914243                0.10800181                0.13763024               -0.00160490               -0.00848059
               0.00397662                5.00035683               11.01019765                0.01000002               -0.03107215               -0.04418610                0.10950561                0.03425098               -0.00593987                0.07958840
               1.00366590                4.99924461               11.00958548                0.01000000               -0.03073742               -0.05853344                0.09921777                0.05763944               -0.00057359                0.02613238
               2.00336187                4.99864079               11.00907551                0.01000001               -0.03770543               -0.06012622                0.09115757                0.07320307                0.01149460               -0.01697839
               3.00291179                4.99840239               11.00875045                0.01000000               -0.04904693               -0.06316167                0.09218355                0.10013730                0.02668569               -0.02829353
               4.00238093                4.99847668               11.00867764                0.01000000               -0.06119476               -0.05941955                0.09898363                0.12569039                0.04538899               -0.02001170
               5.00168790                4.99886446               11.00893343                0.01000001               -0.07037461               -0.06491495                0.10905378                0.15341874                0.06482660               -0.01288478
               6.00097344                4.99949355               11.00934856                0.01000001               -0.06238379               -0.06989347                0.11103814                0.15076022                0.08000699                0.01041795
               7.00044022                5.00003422               11.01009540                0.01297230               -0.04951790               -0.07074379                0.11445342                0.14976514                0.06841094                0.04421982
               7.99998308                5.00061240               11.01042441                0.01000000               -0.03553686               -0.09856576                0.10097146                0.14399784                0.05535181                0.02899622
               8.99972948                5.00066920               11.01057478                0.01000000               -0.01891623               -0.09138510                0.10257221                0.08788462                0.03996201                0.05189960
               9.99960476                5.00014937               11.01070813                0.01208183               -0.01247233               -0.08200652                0.10998245                0.04310323                0.03693954                0.03750078
               0.00578672                5.99973138               11.01114802                0.92741213               -0.03001493               -0.04704666                0.10390612                0.03668926               -0.00358319                0.04734653
               1.00548657                5.99866462               11.01014721                0.01000000               -0.05636369               -0.04356063                0.09633334                0.05892925               -0.00531066                0.01263192
               2.00465945                5.99803823               11.00911250                0.01000007               -0.06862993               -0.06530534                0.09464371                0.09790551                0.00439150               -0.02214567
               3.00411397                5.99773017               11.00864339                0.01000000               -0.06050415               -0.06972236                0.09679930                0.11445110                0.04182953               -0.03407155
               4.00344936                5.99787463               11.00865720                0.01052276               -0.06691001               -0.06365017                0.09817543                0.13539191                0.06938696               -0.02167586
               5.00277577                5.99819929               11.00888677                0.01000001               -0.07774005               -0.05730303                0.10666087                0.14175765                0.09236848                0.00081732
               6.00189456                5.99869060               11.00945583                0.01000001               -0.08200725               -0.07366280                0.12625912                0.15424995                0.11133046                0.02115483
               7.00113563                5.99936821               11.01022973                0.01000000               -0.05386431               -0.07679553                0.11038058                0.10998358                0.10547573                0.04870149
               8.00081728                5.99962394               11.01076635                0.01000000               -0.02790896               -0.09897850                0.10416777                0.06523035                0.08944640                0.08100021
               9.00057745                5.99971344               11.01122305                0.01000000               -0.02553550               -0.09301583                0.11843089                0.03976657                0.06097217                0.11398930
              10.00030657                5.99962603               11.01117364                0.01111443               -0.02708815               -0.04128872                0.11621503                0.01994255                0.03419569                0.10599680
               0.00684392                6.99941589               11.01145048                1.00000000               -0.03062859               -0.03180223                0.10593330                0.00029413               -0.00241030                0.01840626
               1.00653764                6.99837340               11.01035507                1.00000000               -0.02947430               -0.02944111                0.09818639               -0.00006167               -0.00559771               -0.00166969
               2.00625444                6.99733468               11.00919583                0.01000001               -0.05866126               -0.04885030                0.09056378                0.06266306                0.01694492               -0.01956412
               3.00536441                6.99700794               11.00855478                0.01000000               -0.08173949               -0.09315824                0.10048037                0.13774590                0.05859943               -0.03126829
               4.00461965                6.99720368               11.00864741                0.01000001               -0.08286678               -0.05851084                0.10236725                0.16619681                0.10920677               -0.03962907
               5.00370708                6.99771840               11.00919485                0.01297885               -0.08650609               -0.03887432                0.10433468                0.13156529                0.12878080               -0.00730519
               6.00288952                6.99802030               11.00968815                0.01000000               -0.10002604               -0.04032929                0.10584265                0.10438195                0.13771958                0.02585690
               7.00170655                6.99849831               11.01055627                0.01000000               -0.09735302               -0.06385516                0.11713068                0.05411640                0.15479809                0.06585056
               8.00094246                6.99863283               11.01158656                0.01000001               -0.05919161               -0.08787685                0.12377789               -0.01353811                0.14185058                0.12527889
               9.00052272                6.99880888               11.01234878                0.01000000               -0.03820202               -0.09606020                0.12623943               -0.02532360                0.09031098                0.17956409
              10.00017842                6.99932360               11.01237037                0.01000001               -0.03442987               -0.04348443                0.12922573               -0.02085424                0.04798359                0.21127895
               0.00787759                7.99909533               11.01182028                0.99999999               -0.03110330               -0.03232108                0.10757909                0.00026333               -0.00079728                0.02203735
               1.00756655                7.99807580               11.01063270                1.00000000               -0.02997104               -0.03001014                0.09994589                0.00001260               -0.00032522                0.00258205
               2.00727816                7.99706122               11.00945457                0.01238843               -0.02833312               -0.02760716                0.09229390               -0.00924387                0.02855737               -0.01459501
               3.00699989                7.99586700               11.00884825                0.01316308               -0.06076602               -0.06056423                0.03793355                0.11433433                0.09508617               -0.08533069
               4.00606284                7.99670441               11.00845394                0.01117914               -0.12047146               -0.02348214                0.08894989                0.16649276                0.12446962               -0.03414871
               5.00459046                7.99742181               11.00911948                0.01000000               -0.14302783               -0.01116497                0.10153725                0.11775115                0.13678839               -0.01136315
               6.00320229                7.99788402               11.00994516                0.01000000               -0.14925196               -0.00046496                0.09826626                0.04088601                0.17325660                0.02830600
               7.00160542                7.99809111               11.01121512                0.01000000               -0.14831706               -0.01961731                0.12290271               -0.02473872                0.20474193                0.07219412
               8.00023595                7.99786640               11.01294694                0.01000000               -0.11126085               -0.04671747                0.13568004               -0.10570052                0.19520778                0.13365256
               8.99938020                7.99779223               11.01424930                0.01000000               -0.06879510               -0.08999670                0.15082725               -0.15200752                0.12817215                0.32479164
               9.99886004                7.99875634               11.01472539                0.01000000               -0.05201599               -0.12654889                0.16458971               -0.10942705                0.08192101                0.33333398
               0.00888826                8.99876947               11.01219316                1.00000000               -0.03162582               -0.03284386                0.10927109                0.00027197                0.00236652                0.01768775
               1.00857200                8.99777320               11.01092714                1.00000000               -0.03049524               -0.03049678                0.10164958                0.00002971                0.00142657                0.00210538
               2.00827835                8.99678254               11.00964278                0.99999999               -0.02820473               -0.02817404                0.09400737                0.00002345               -0.00440528               -0.01071570
               3.00800791                8.99579666               11.00826375                0.01000001               -0.09418289               -0.01655355                0.08631144                0.09652095                0.07990459               -0.05519807
               4.00639470                8.99673404               11.00867250                0.01000000               -0.15627062                0.02239729                0.07269072                0.10186666                0.15148486               -0.01545744
               5.00488249                8.99749510               11.00901117                0.01000000               -0.16783759                0.01830148                0.09452085                0.05766672                0.15850923                0.00503096
               6.00303794                8.99801100               11.01022455                0.01000000               -0.18265499                0.01785460                0.11256573                0.01312778                0.19983083                0.01991556
               7.00122939                8.99810597               11.01178103                0.01000000               -0.19553087                0.01032983                0.12620453               -0.03869887                0.23898483                0.04619026
               7.99912733                8.99769848               11.01406256                0.01000001               -0.23183811                0.01088481                0.14753436               -0.10815361                0.36303420                0.09482705
               8.99659263                8.99700895               11.01848613                0.99999997               -0.15328310               -0.06571561                0.17923155               -0.17474247                0.22324070                0.21742777
               9.99606166                8.99679262               11.01842436                1.00000000               -0.05309667               -0.12385816                0.17404555               -0.15074913               -0.00089869                0.18860767
               0.00987557                9.99843845               11.01247439                0.99994714               -0.03214865               -0.03310182                0.11098089                0.00147190                0.01240740                0.01315357
               1.00955408                9.99746586               11.01119710                1.00000000               -0.03101985               -0.03073388                0.10338268                0.00117261                0.01562174                0.00077160
               2.00925517                9.99649774               11.00998459                0.99999998               -0.02876373               -0.02847971                0.09577881                0.00118545                0.01561924               -0.00330026
               3.00897881                9.99553593               11.00871070                0.01000001               -0.14267179               -0.02607301                0.08813278                0.12982133                0.07530851               -0.00405599
               4.00640174                9.99715236               11.00869865                0.01198101               -0.22559871                0.04183214                0.09081488                0.11329948                0.12613530               -0.01186020
               5.00446684                9.99778784               11.00926213                0.01000000               -0.17738803                0.02927356                0.09603882                0.01287178                0.15518717                0.02667771
               6.00285398                9.99824111               11.01024352                0.01124495               -0.16614370                0.02301123                0.11086342                0.00709668                0.19136960                0.01335023
               7.00114396                9.99829770               11.01190086                0.01000000               -0.18420408                0.01917362                0.12831018               -0.01639368                0.25834736                0.02925483
               7.99916989                9.99808410               11.01461550                0.01000000               -0.21763742                0.03856197                0.15045033               -0.08673221                0.35024199                0.07625846
               8.99679121                9.99647792               11.01839498                1.00000000               -0.14460910               -0.05310252                0.17407998               -0.07038777                0.19320819                0.00114561
               9.99627771                9.99627918               11.01833320                0.99948483               -0.05134996               -0.05134417                0.16888833                0.00173069                0.00101685               -0.00101671
               0.00124661                0.00175930               12.00980745                0.99995234               -0.02457167               -0.02463625                0.08158872                0.00027972               -0.00383526                0.00353769
               1.00100089                0.00122505               12.00976938                1.00000000               -0.02467414               -0.02485416                0.08229933                0.00011423               -0.00425136               -0.00113650
               2.00075313                0.00069433               12.00972456                0.01069836               -0.02168473               -0.02507568                0.08301886                0.00266641                0.01499676               -0.00176824
               3.00056720                0.00021842               12.01007227                0.01020137               -0.01962221               -0.02327286                0.08644964               -0.00182199                0.04294648               -0.01249785
               4.00036068                0.00027547               12.01059954                0.01000000               -0.02914593               -0.02279182                0.09540202                0.01376138                0.07400296               -0.01521393
               4.99998428                0.00090607               12.01158541                0.01003234               -0.05719996               -0.02539189                0.11401820                0.04339775                0.11159258               -0.02079413
               5.99921668                0.00234320               12.01291328                0.39917080               -0.05553630               -0.03371521                0.11416601                0.03831407                0.06613905               -0.00103809
               6.99887355                0.00300587               12.01331535                0.99982628               -0.03457252               -0.03413513                0.11573738                0.00011918                0.01356723               -0.00319467
               7.99852523                0.00365733               12.01359010                0.99999999               -0.03497075               -0.03439563                0.11656488                0.00015147                0.00822438               -0.00035637
               8.99817414                0.00429723               12.01388493                0.99967317               -0.03528575               -0.03469320                0.11757705                0.00014427                0.00737407                0.00082269
               9.99781952                0.00492523               12.01414250                1.00000000               -0.03546208               -0.03499400                0.11859265                0.00076834                0.00554561                0.00489393
               0.00178366                1.00151293               12.00983900                1.00000000               -0.02491390               -0.02479808                0.08269321                0.00017593                0.00105632                0.00383294
               1.00153452                1.00097650               12.00980235                0.01000000               -0.02502759               -0.02502429                0.08340008                0.00000642                0.00279569               -0.00293402
               2.00128311                1.00044357               12.00980030                0.01000000               -0.03880547               -0.03052215                0.08410819               -0.01188940                0.01772977               -0.00307160
               3.00075841                0.99998569               12.01006121                0.01000001               -0.05643180               -0.02317327                0.08928525               -0.00001251                0.03391746               -0.01482809
               4.00015447                1.00004755               12.01049039                0.01000000               -0.06870066               -0.02216598                0.09675716                0.02915993                0.05073821               -0.02063757
               4.99938440                1.00065215               12.01123708                0.01000000               -0.08022728               -0.02556938                0.10931592                0.07299730                0.07983219               -0.02483887
               5.99854992                1.00200604               12.01248386                0.01000000               -0.05833581               -0.05470533                0.11031914                0.07279946                0.05434786               -0.03601351
               6.99821768                1.00266452               12.01281949                1.00000000               -0.03344275               -0.03354609                0.11179359               -0.00009577                0.00492303               -0.00340200
               7.99788107                1.00331337               12.01307747                0.99999998               -0.03380239               -0.03381998                0.11270247                0.00001084                0.00118038               -0.00027861
               8.99754163                1.00395030               12.01333861                0.99999996               -0.03409318               -0.03410567                0.11367567               -0.00000142                0.00085912                0.00042777
               9.99719921                1.00457529               12.01359085                0.99935503               -0.03424261               -0.03439218                0.11464122                0.00058941                0.00038250                0.00617251
               0.00232299                2.00126333               12.00987758                0.01000000               -0.02526053               -0.03245700                0.08380228               -0.01808182                0.00162436                0.01708324
               1.00207038                2.00072456               12.00979961                0.01000000               -0.04084162               -0.03458682                0.08451458               -0.02449314                0.00810692                0.00533869
               2.00150615                2.00008389               12.00984939                0.01000001               -0.05537058               -0.03840515                0.08884611               -0.01706939                0.01473603               -0.00662071
               3.00096297                1.99975495               12.00995901                0.01000000               -0.06143687               -0.03107552                0.09191370                0.02031287                0.02248128               -0.01944897
               4.00027742                1.99983215               12.01023828                0.01000000               -0.07386170               -0.02737927                0.09597944                0.06250182                0.03528819               -0.02643781
               4.99948574                2.00039469               12.01073487                0.01000001               -0.08085566               -0.03326434                0.10060763                0.10322768                0.04274049               -0.03224651
               5.99866030                2.00124909               12.01135255                0.01000001               -0.09607131               -0.06048007                0.10766653                0.12703569                0.06103166               -0.05629995
               6.99756431                2.00233495               12.01231890                0.01000000               -0.07103158               -0.05199856                0.10787979                0.08504742                0.03146783               -0.02705578
               7.99723967                2.00298093               12.01256630                0.03841716               -0.03260580               -0.03238155                0.10882383                0.00488924               -0.00600426                0.01329537
               8.99691219                2.00361512               12.01278439                0.99999999               -0.03291714               -0.03292985                0.10978949                0.00001164               -0.00442204               -0.00194469
               9.99658133                2.00423739               12.01306492                1.00000000               -0.03308640               -0.03321851                0.11071494                0.00059686               -0.00139049                0.00620942
               0.00249957                3.00086379               12.01017366                0.01000001               -0.02754668               -0.03063700                0.09260789               -0.01405362               -0.00083918                0.03950620
               1.00222410                3.00028477               12.00999652                0.01000001               -0.02941219               -0.05054693                0.09106005               -0.01585511                0.00140537                0.01454016
               2.00191133                2.99967547               12.00986795                0.01000000               -0.04038500               -0.05019591                0.09083159                0.01188786                0.00908734               -0.01023204
               3.00141640                2.99936418               12.00985152                0.01000000               -0.05732761               -0.04682675                0.09407063                0.05550278                0.01983848               -0.02237528
               4.00076477                2.99949997               12.00999745                0.01000001               -0.06921952               -0.04232316                0.09582596                0.09928112                0.03007443               -0.02518072
               5.00003201                2.99998687               12.01030784                0.01000000               -0.08072014               -0.04641735                0.09940310                0.13657882                0.04125706               -0.02624111
               5.99915037                3.00079644               12.01080828                0.01000000               -0.09226124               -0.05155873                0.10621089                0.15604345                0.04569870               -0.02258337
               6.99818679                3.00162455               12.01135037                0.01000000               -0.12258418               -0.06390911                0.10842303                0.18252095                0.05904380               -0.02472536
               7.99669869                3.00266574               12.01232595                0.01194488               -0.09506899               -0.05153046                0.09882293                0.15132157                0.00580203               -0.00435735
               8.99628541                3.00329170               12.01219190                0.01000003               -0.03660385               -0.07545052                0.10596137                0.12786402               -0.02437781                0.00206303
               9.99596661                3.00391092               12.01251593                0.15498272               -0.03187978               -0.13471944                0.10685922                0.15120180               -0.00161143                0.00063086
               0.00319997                4.00065059               12.01061805                0.01000000               -0.02583636               -0.02537219                0.09672752                0.00985235               -0.00578115                0.05640517
               1.00294160                3.99971362               12.01023324                0.01000000               -0.02677324               -0.06266385                0.09484157                0.02379531               -0.00196036                0.01500703
               2.00266450                3.99907997               12.00990335                0.01000000               -0.03465364               -0.06414373                0.09299802                0.05573436                0.00925428               -0.01222980
               3.00224853                3.99881842               12.00974552                0.01000001               -0.05120750               -0.05853438                0.09361104                0.09411190                0.02561604               -0.02529879
               4.00164035                3.99898569               12.00981789                0.01000000               -0.06638456               -0.05694572                0.09709260                0.13201310                0.04055332               -0.02400689
               5.00092084                3.99946634               12.01007429                0.01000000               -0.07484314               -0.05731906                0.10185708                0.16127226                0.05158199               -0.01485809
               6.00014349                4.00021791               12.01048410                0.01000000               -0.07877045               -0.06315829                0.10308352                0.18293083                0.06354655               -0.00436095
               6.99934543                4.00105677               12.01115035                0.01264297               -0.07722681               -0.06038565                0.10669551                0.20131554                0.05608536                0.01715723
               7.99859895                4.00195032               12.01147024                0.01006888               -0.05605666               -0.10048674                0.09903875                0.23313656                0.04205403               -0.02213049
               8.99822430                4.00210611               12.01172006                0.01000000               -0.01160086               -0.11409871                0.09908813                0.16743068                0.01406044                0.03096611
               9.99836694                4.00154300               12.01188128                0.01151911                0.01426389               -0.17692342                0.10461444                0.13818425                0.01483457               -0.00752035
               0.00457056                5.00035635               12.01125986                0.01000003               -0.02999283               -0.05404586                0.10695709                0.04699774               -0.00368720                0.07846848
               1.00427063                4.99903149               12.01059020                0.01000000               -0.03246727               -0.06581318                0.10040663                0.07919749                0.00376015                0.01841268
               2.00392122                4.99839260               12.00999798                0.01000001               -0.04388561               -0.06646919                0.09354304                0.09931403                0.01492945               -0.01716516
               3.00339292                4.99819349               12.00968119                0.01000000               -0.05820511               -0.06768613                0.09451315                0.12699947                0.03538060               -0.02738333
               4.00275711                4.99836105               12.00969318                0.01000000               -0.06838452               -0.06464682                0.10034786                0.15224008                0.05703355               -0.02155002
               5.00202523                4.99884049               12.01000392                0.01000000               -0.07692798               -0.06705268                0.10258463                0.17395414                0.07299715               -0.00678164
               6.00121856                4.99953328               12.01043980                0.01000001               -0.07722697               -0.07276662                0.11353916                0.18974334                0.08663110                0.01935421
               7.00048069                5.00041684               12.01110081                0.01163824               -0.04532379               -0.07750793                0.09653394                0.17107903                0.06989093                0.02843430
               8.00031208                5.00065601               12.01139039                0.01000000               -0.02196741               -0.10876639                0.09571104                0.15899334                0.05614973                0.03020155
               9.00004134                5.00100973               12.01169899                0.01000000               -0.02277804               -0.10784232                0.11515077                0.12333689                0.04783880                0.06655316
               9.99985652                5.00037245               12.01177170                0.01000000               -0.01848254               -0.08431708                0.10762549                0.05417403                0.03507086                0.04634613
               0.00678964                5.99956968               12.01218642                0.91457833               -0.03003329               -0.05506002                0.10367470                0.05190318               -0.00360501                0.04539854
               1.00648931                5.99839736               12.01111252                0.01000000               -0.06504286               -0.04631166                0.09665741                0.07787315               -0.00079471                0.00982952
               2.00548878                5.99775059               12.01009469                0.01000001               -0.08346218               -0.07166472                0.09733970                0.12541828                0.01234176               -0.02417394
               3.00482006                5.99746469               12.00964476                0.01000000               -0.07253116               -0.07180602                0.09941793                0.13968122                0.05026000               -0.02431462
               4.00403816                5.99769275               12.00964237                0.01000000               -0.07961820               -0.06791341                0.09765468                0.16303878                0.07732606               -0.01566952
               5.00322770                5.99812528               12.00996645                0.01000001               -0.08380780               -0.06892973                0.11215537                0.17640072                0.10330677                0.00117761
               6.00236200                5.99876258               12.01076772                0.01230762               -0.07917095               -0.06784764                0.11400053                0.17732028                0.11135388                0.02224821
               7.00164428                5.99950661               12.01122102                0.01000000               -0.05880370               -0.08635728                0.09817928                0.14379614                0.10174577                0.03778148
               8.00118593                5.99977499               12.01170507                0.01000000               -0.03348450               -0.09361550                0.10534026                0.07981906                0.10011206                0.08919045
               9.00097459                5.99994926               12.01239191                0.01000000               -0.02304774               -0.10144686                0.11690444                0.05101203                0.07120570                0.12088527
              10.00072497                5.99985666               12.01233283                0.01000000               -0.02496160               -0.04234468                0.11918179                0.02947568                0.03561079                0.11841579
               0.00795326                6.99925515               12.01250757                1.00000000               -0.03060757               -0.03168981                0.10559622                0.00029500               -0.00250320                0.01847848
               1.00764719                6.99810526               12.01133795                1.00000000               -0.02955095               -0.02951987                0.09845746               -0.00004041               -0.00561295               -0.00161972
               2.00736225                6.99695930               12.01010610                0.01000000               -0.07014043               -0.05337817                0.09148151                0.08287417                0.03332045               -0.02405681
               3.00624438                6.99675737               12.00971878                0.01000000               -0.10024725               -0.08630686                0.10108898                0.17008611                0.07334482               -0.06430474
               4.00535730                6.99700278               12.00970773                0.01264839               -0.08804820               -0.06215870                0.09885230                0.17750624                0.08717401               -0.01796831
               5.00448342                6.99746189               12.01009355                0.01164475               -0.09868334               -0.03448909                0.09041262                0.15061801                0.11433030               -0.00310119
               6.00338363                6.99817632               12.01070625                0.01000000               -0.10696058               -0.04187111                0.10228341                0.12937404                0.12439229                0.02125941
               7.00234420                6.99868969               12.01174212                0.01000000               -0.09589121               -0.06523827                0.11001335                0.05279968                0.15690786                0.07383335
               8.00146581                6.99878370               12.01284741                0.01000000               -0.06821418               -0.08934534                0.12519095               -0.01195750                0.14213210                0.14361020
               9.00097992                6.99898079               12.01363702                0.01000000               -0.04172815               -0.10119542                0.12961486               -0.02529127                0.08769834                0.18703935
              10.00063125                6.99952556               12.01369676                0.01000001               -0.03486745               -0.04321855                0.13191528               -0.01978959                0.05133043                0.22121241
               0.00909532                7.99893588               12.01289387                0.99999999               -0.03109773               -0.03221077                0.10725368                0.00025550               -0.00073977                0.02205333
               1.00878434                7.99780696               12.01163336                1.00000000               -0.03005854               -0.03009018                0.10023483               -0.00002358               -0.00028866                0.00260796
               2.00849415                7.99668302               12.01038207                0.01146748               -0.03030217               -0.02788932                0.09320182                0.00867347               -0.02177373               -0.01465514
               3.00817830                7.99573856               12.00869546                0.01195385               -0.08051945               -0.07265148                0.06858996                0.14262149                0.03036477               -0.02549980
               4.00688376                7.99644958               12.00954756                0.01008181               -0.15558906               -0.02703053                0.10157974                0.19810650                0.12970842               -0.03154813
               5.00506652                7.99743550               12.01010769                0.01000000               -0.15810408                0.00213932                0.09274792                0.13158872                0.12583070               -0.00523760
               6.00372168                7.99792516               12.01084245                0.01000000               -0.14868103               -0.00592329                0.10103882                0.05086370                0.17081045                0.03806524
               7.00209290                7.99820185               12.01246978                0.01000000               -0.15330009               -0.02354758                0.12374765               -0.02976497                0.22126657                0.07377120
               8.00065568                7.99798809               12.01431418                0.01000000               -0.11829984               -0.04728338                0.13669963               -0.11613455                0.20607759                0.14510198
               8.99972690                7.99792535               12.01576957                0.01000000               -0.07080135               -0.09224781                0.14984704               -0.16529807                0.13633950                0.34618608
               9.99923965                7.99899228               12.01632673                0.01000000               -0.04872507               -0.13125182                0.15622385               -0.11785506                0.09265238                0.34785869
               0.01021622                8.99861093               12.01328485                0.99893452               -0.03166394               -0.03279112                0.10911897                0.00025393                0.00238431                0.01771334
               1.00989958                8.99750345               12.01194533                0.99999999               -0.03060489               -0.03060565                0.10201087               -0.00002023                0.00142980                0.00209462
               2.00960412                8.99640152               12.01058724                1.00000000               -0.02846610               -0.02844877                0.09487739               -0.00002156               -0.00444072               -0.01076504
               3.00933025                8.99530434               12.00913395                0.01000000               -0.09908161               -0.03496196                0.08772364                0.11478006                0.07411857               -0.00496958
               4.00762249                8.99646217               12.00935399                0.01000000               -0.18453226                0.02669690                0.08191224                0.13511799                0.16730389               -0.02208826
               5.00563961                8.99750468               12.01007600                0.01000000               -0.19939606                0.01927796                0.10841646                0.08964194                0.17567773                0.00338276
               6.00363456                8.99805786               12.01134791                0.01000000               -0.19768150                0.02135464                0.11077902                0.02161776                0.21065424                0.03139543
               7.00168598                8.99821874               12.01304686                0.01000000               -0.21074771                0.01364650                0.12569062               -0.03795285                0.25825257                0.04684913
               7.99941961                8.99783803               12.01553296                0.01000001               -0.25081096                0.01591508                0.14629945               -0.11537929                0.39249022                0.10342256
               8.99666976                8.99713584               12.02027477                0.99999998               -0.16396628               -0.06595771                0.17851579               -0.18870335                0.24156094                0.23322254
               9.99614028                8.99690052               12.02016466                1.00000000               -0.05294753               -0.13032347                0.17401086               -0.16674050               -0.00090265                0.19793489
               0.01131536                9.99828006               12.01358283                1.00000000               -0.03220019               -0.03308754                0.11090781                0.00139341                0.01251136                0.01311721
               1.01099336                9.99719485               12.01223251                1.00000000               -0.03112639               -0.03086064                0.10377294                0.00107766                0.01570660                0.00074518
               2.01069283                9.99611405               12.01094677                0.99999998               -0.02900573               -0.02874688                0.09663826                0.00109507                0.01566824               -0.00331300
               3.01041324                9.99503932               12.00959907                0.01000001               -0.16535236               -0.02650226                0.08954528                0.15177245                0.08100122               -0.00406703
               4.00738579                9.99698352               12.00962657                0.01180218               -0.25747840                0.05213418                0.09198846                0.11541720                0.13216812                0.01049583
               5.00526368                9.99782106               12.01020903                0.01000000               -0.19729070                0.03163844                0.09753684                0.03084351                0.16789051                0.01756044
               6.00343997                9.99835225               12.01137693                0.01000002               -0.18550025                0.02943951                0.11452781                0.01322647                0.20764120                0.01413872
               7.00155367                9.99847478               12.01318276                0.01000001               -0.20044866                0.02560345                0.12600828               -0.01552409                0.28359364                0.03179345
               7.99943100                9.99830639               12.01610492                0.01033222               -0.23316638                0.04683582                0.14896590               -0.09228996                0.37619162                0.08031608
               8.99689034                9.99660620               12.02013594                1.00000000               -0.15277628               -0.05296363                0.17411029               -0.07397023                0.20819877                0.00114276
               9.99637547                9.99638582               12.02002577                0.99949327               -0.05148704               -0.05147056                0.16960586                0.00148035                0.00101235               -0.00102198
               0.00124285                0.00175761               13.01062485                1.00000000               -0.02465638               -0.02469645                0.08193058                0.00021257               -0.00381334                0.00355335
               1.00099628                0.00117524               13.01059328                1.00000000               -0.02473950               -0.02487109                0.08250163                0.00009096               -0.00423799               -0.00112750
               2.00074806                0.00059546               13.01055503                0.01000000               -0.02308512               -0.02505098                0.08307767                0.00438297                0.01338792               -0.00176932
               3.00053458                0.00010427               13.01087692                0.01000000               -0.02212754               -0.02188009                0.08777018                0.00150550                0.04730389               -0.00615236
               4.00030551                0.00023153               13.01153178                0.01000001               -0.02940589               -0.02127976                0.09671032                0.02014356                0.08872689               -0.01397611
               4.99994646                0.00105185               13.01276403                0.01178195               -0.06485544               -0.01748123                0.10102818                0.04732317                0.11352066               -0.02723215
               5.99900840                0.00278192               13.01405353                0.38439820               -0.06402258               -0.03366318                0.11382556                0.05077067                0.06404457               -0.00098838
               6.99866601                0.00348914               13.01447208                0.99983444               -0.03452854               -0.03410725                0.11557064                0.00012376                0.01384324               -0.00328367
               7.99831783                0.00418570               13.01475562                0.99999999               -0.03496055               -0.03438391                0.11647511                0.00016854                0.00814482               -0.00038264
               8.99796680                0.00487102               13.01505927                0.99953938               -0.03524522               -0.03466459                0.11742403                0.00016659                0.00730721                0.00086018
               9.99761292                0.00554497               13.01532553                1.00000000               -0.03538782               -0.03495456                0.11837553                0.00073317                0.00546027                0.00500050
               0.00182734                1.00151064               13.01066611                1.00000000               -0.02490763               -0.02481639                0.08274662                0.00012822                0.00106132                0.00384152
               1.00157826                1.00092653               13.01063585                0.01000001               -0.02499842               -0.02499625                0.08331128                0.00000117                0.00279723               -0.00292682
               2.00132737                1.00034495               13.01064026                0.01000000               -0.04233306               -0.03094132                0.08388184               -0.01086621                0.01897325               -0.00116077
               3.00073160                0.99988546               13.01093250                0.01000001               -0.06471118               -0.02237351                0.09005893                0.00640732                0.03795867               -0.01112419
               4.00003315                1.00001873               13.01144589                0.01000000               -0.07935525               -0.02069746                0.09751279                0.04548942                0.05863491               -0.01875009
               4.99914450                1.00087704               13.01234172                0.01000000               -0.08678453               -0.02456195                0.10251549                0.09104976                0.08221145               -0.03057310
               5.99829746                1.00244529               13.01358640                0.01000000               -0.05895696               -0.06166984                0.11014276                0.08604496                0.05402148               -0.03571655
               6.99796536                1.00314807               13.01393748                1.00000000               -0.03344432               -0.03354040                0.11178221               -0.00010079                0.00519334               -0.00346557
               7.99762857                1.00384186               13.01420495                0.99999998               -0.03382652               -0.03383183                0.11275729                0.00003592                0.00116338               -0.00029850
               8.99728883                1.00452438               13.01447545                1.00000000               -0.03411340               -0.03412160                0.11374108                0.00004199                0.00084621                0.00047172
               9.99694630                1.00519543               13.01473699                0.99999999               -0.03425250               -0.03442202                0.11472867                0.00057464                0.00036181                0.00626658
               0.00241364                2.00126128               13.01071445                0.01087872               -0.02516451               -0.03107344                0.08356766               -0.01683680                0.00162085                0.02352648
               1.00216199                2.00067531               13.01064284                0.01000000               -0.04209232               -0.03590784                0.08412987               -0.02298631                0.01001311                0.00938114
               2.00157179                1.99997664               13.01073715                0.01000001               -0.05865227               -0.04065184                0.08884527               -0.01340847                0.01863511               -0.00441966
               3.00098895                1.99965680               13.01088396                0.01000000               -0.06740372               -0.03211726                0.09239968                0.03314243                0.02627686               -0.01785327
               4.00022372                1.99981758               13.01121397                0.01000000               -0.08240253               -0.02899179                0.09759242                0.08662809                0.03811574               -0.02584948
               4.99934090                2.00056061               13.01175463                0.01000001               -0.08827273               -0.04035758                0.10308061                0.13069353                0.04680484               -0.03535126
               5.99845826                2.00154852               13.01242342                0.01000001               -0.10367381               -0.07071224                0.10630854                0.15134883                0.06193011               -0.05472337
               6.99726742                2.00281833               13.01339844                0.01000000               -0.07580135               -0.05802882                0.10802048                0.10095587                0.03142632               -0.02559372
               7.99694224                2.00350906               13.01365560                0.04399363               -0.03266758               -0.03271286                0.10902859                0.00302743               -0.00596601                0.01326463
               8.99661407                2.00418859               13.01388380                0.99999999               -0.03299620               -0.03301934                0.11007403                0.00003995               -0.00437789               -0.00190248
               9.99628231                2.00485653               13.01417407                0.99999999               -0.03317575               -0.03334697                0.11108745                0.00057501               -0.00136629                0.00625431
               0.00266254                3.00088917               13.01114896                0.01000001               -0.02593554               -0.03021372                0.09311931               -0.01219792               -0.00318010                0.04332054
               1.00240318                3.00020837               13.01093014                0.01000001               -0.02924083               -0.05667777                0.09192532               -0.01130093               -0.00188073                0.01734565
               2.00207772                2.99953192               13.01077489                0.01000000               -0.04248353               -0.05552570                0.09102871                0.02444604                0.00989030               -0.00867223
               3.00155351                2.99924312               13.01078766                0.01000000               -0.06079130               -0.04995225                0.09366944                0.07314680                0.02361006               -0.02212442
               4.00086189                2.99943889               13.01096554                0.01000001               -0.07630431               -0.04652115                0.09744601                0.12414858                0.03494869               -0.02660903
               5.00002742                3.00006989               13.01131885                0.01000000               -0.08975906               -0.05281297                0.10105179                0.16704723                0.04391421               -0.02437524
               5.99906671                3.00103104               13.01185964                0.01000001               -0.10017435               -0.05893979                0.10477374                0.18516631                0.04478525               -0.01840605
               6.99802394                3.00198749               13.01242153                0.01000000               -0.13739239               -0.07212747                0.10652188                0.21419367                0.05979338               -0.02508032
               7.99631886                3.00318760               13.01337682                0.01104809               -0.10408899               -0.07104268                0.10243487                0.18889634                0.00432400               -0.00436082
               8.99594216                3.00386399               13.01325359                0.01000000               -0.03484719               -0.07676094                0.10640040                0.14768598               -0.02430646                0.00481898
               9.99562192                3.00452849               13.01358702                0.17036266               -0.03202364               -0.14982749                0.10738534                0.17128966               -0.00162444               -0.00022912
               0.00353129                4.00065700               13.01155816                0.01000000               -0.02380537               -0.02656718                0.09613580                0.01745906               -0.00453549                0.06050520
               1.00329323                3.99954176               13.01117144                0.01000000               -0.02526614               -0.07373920                0.09487581                0.04044616                0.00068876                0.01723162
               2.00302596                3.99886612               13.01084699                0.01000000               -0.03741629               -0.07128869                0.09418682                0.08038713                0.01292449               -0.01236861
               3.00254491                3.99865775               13.01069916                0.01000001               -0.05730207               -0.06438193                0.09571739                0.11958639                0.02841164               -0.02488711
               4.00187992                3.99888715               13.01078552                0.01000000               -0.07276068               -0.06088470                0.09725764                0.15917951                0.04433174               -0.02371148
               5.00108969                3.99950435               13.01108597                0.01000000               -0.08179693               -0.06166093                0.10061192                0.19281818                0.05405588               -0.01224692
               6.00024398                4.00036973               13.01151481                0.01000000               -0.08474787               -0.07170145                0.10291161                0.22069443                0.06290008                0.00516247
               6.99939474                4.00137579               13.01211064                0.01147372               -0.07001581               -0.07276234                0.09780577                0.22909977                0.05448532                0.01158774
               7.99884367                4.00208821               13.01248303                0.01000001               -0.05839158               -0.11029993                0.10499436                0.27333096                0.04931282               -0.01790061
               8.99822690                4.00265337               13.01279857                0.01000000               -0.02322784               -0.12677889                0.11004495                0.20672835                0.02530262                0.02840311
               9.99837911                4.00185998               13.01289729                0.01128254                0.01522066               -0.19518738                0.10422323                0.14760312                0.01531306               -0.00176473
               0.00524221                5.00035783               13.01233679                0.01162322               -0.02392248               -0.06326837                0.09418857                0.05413249               -0.00784853                0.07969185
               1.00500299                4.99873359               13.01159361                0.01000000               -0.03363711               -0.07141525                0.09423669                0.10087413                0.00114306                0.01802010
               2.00456947                4.99810614               13.01094637                0.01000001               -0.05393903               -0.07097493                0.09607192                0.12849836                0.01700341               -0.01738946
               3.00392420                4.99795548               13.01064071                0.01000000               -0.06852937               -0.07257315                0.09633538                0.15708224                0.04146101               -0.02793285
               4.00319888                4.99822120               13.01068459                0.01000000               -0.07614950               -0.06702340                0.09828406                0.18377340                0.06354755               -0.02346214
               5.00240121                4.99883667               13.01098512                0.01000000               -0.07948563               -0.06855712                0.09881403                0.20013377                0.08512065                0.00119780
               6.00160917                4.99959701               13.01161935                0.01249905               -0.07568823               -0.07503014                0.10748947                0.21593306                0.08768872                0.02119179
               7.00088745                5.00053225               13.01202608                0.01045680               -0.05506357               -0.09466255                0.09322306                0.21115248                0.08004970                0.00888481
               8.00050790                5.00098160               13.01233863                0.01000000               -0.02912505               -0.10687402                0.10477759                0.18005617                0.06367929                0.06089714
               9.00030495                5.00132841               13.01287779                0.01000000               -0.01735676               -0.12301262                0.11444146                0.13950143                0.05139114                0.07136734
              10.00016076                5.00062474               13.01286064                0.01000000               -0.01441876               -0.08953460                0.10978066                0.06752382                0.02833094                0.05653319
               0.00786242                5.99939164               13.01322152                0.90145474               -0.03000198               -0.06399097                0.10331545                0.06672596               -0.00362448                0.04264128
               1.00756240                5.99811345               13.01208036                0.01000000               -0.07441937               -0.04567100                0.09686808                0.09394240                0.00243284                0.00729675
               2.00637404                5.99744662               13.01105929                0.01000001               -0.09954545               -0.07699859                0.09572963                0.15316945                0.01898846               -0.02778934
               3.00557149                5.99720629               13.01063175                0.01000001               -0.08499167               -0.06421632                0.09540290                0.17027694                0.05886280               -0.03240556
               4.00467420                5.99754669               13.01061030                0.01000000               -0.09274699               -0.06410400                0.09703638                0.18581976                0.08997928               -0.01907213
               5.00371656                5.99813321               13.01112988                0.01250078               -0.09035678               -0.06607698                0.10558992                0.19581939                0.10501244                0.00137900
               6.00286707                5.99886912               13.01173584                0.01101147               -0.07416794               -0.06131299                0.08901975                0.17344791                0.09865152                0.01490140
               7.00223320                5.99948253               13.01219331                0.01000000               -0.06092204               -0.09030118                0.09846704                0.14488491                0.10120357                0.04258043
               8.00164863                5.99995073               13.01287316                0.01000000               -0.04296998               -0.10428397                0.11978518                0.10464466                0.11083585                0.10789543
               9.00137380                6.00019312               13.01356114                0.01022884               -0.02558471               -0.10782032                0.11813514                0.06204782                0.07582217                0.12895469
              10.00113693                6.00006929               13.01355727                0.01000002               -0.02368643               -0.04353935                0.12123561                0.03385654                0.04293137                0.12863627
               0.00913310                6.99907801               13.01356241                1.00000000               -0.03062512               -0.03162575                0.10535780                0.00028530               -0.00260783                0.01864445
               1.00882685                6.99782017               13.01232422                1.00000000               -0.02965382               -0.02964353                0.09880028               -0.00008282               -0.00564370               -0.00150916
               2.00854002                6.99656617               13.01102546                0.01000000               -0.07985831               -0.05798202                0.09243152                0.11287719                0.03362159               -0.02722798
               3.00722968                6.99667115               13.01057656                0.01000000               -0.12758344               -0.06322263                0.09063682                0.16215713                0.08069496               -0.04097908
               4.00598835                6.99693912               13.01062446                0.01147881               -0.11172574               -0.05597496                0.09127654                0.17072759                0.09461217               -0.01802418
               5.00499517                6.99751513               13.01100310                0.01046323               -0.11297750               -0.03993040                0.09501454                0.17636328                0.10107971                0.00203927
               6.00372880                6.99837075               13.01173382                0.01000000               -0.11458106               -0.04327345                0.09929061                0.13002203                0.13423566                0.01765530
               7.00270354                6.99872622               13.01275653                0.01000000               -0.09192989               -0.06103753                0.11039047                0.04255010                0.15930276                0.07833136
               8.00189020                6.99889592               13.01409038                0.01000000               -0.06381007               -0.09339183                0.12196455               -0.00725709                0.15231418                0.15285479
               9.00142734                6.99917201               13.01494108                0.01000000               -0.04023273               -0.10574554                0.12904982               -0.02106620                0.09115487                0.20590629
              10.00108555                6.99975395               13.01500867                0.01000000               -0.03417924               -0.04118350                0.12756530               -0.01871301                0.05387381                0.23958918
               0.01038382                7.99875912               13.01396535                0.99999999               -0.03112298               -0.03216124                0.10707569                0.00024061               -0.00069944                0.02212691
               1.01007259                7.99752058               13.01263739                1.00000000               -0.03016130               -0.03021137                0.10060165               -0.00003885               -0.00026198                0.00265055
               2.00978059                7.99628698               13.01131860                0.01018484               -0.08154498               -0.02818189                0.09412517                0.04410757                0.01102301               -0.01475288
               3.00844169                7.99594183               13.01022005                0.01105646               -0.12679057               -0.09387474                0.13769077                0.18170232                0.03282127               -0.03667862
               4.00724478                7.99642719               13.01048554                0.01000001               -0.13147509               -0.03629266                0.09532319                0.21015667                0.11286086               -0.02624241
               5.00581219                7.99733460               13.01097443                0.01000000               -0.14941831               -0.00268564                0.09121414                0.14917147                0.16372114               -0.00347144
               6.00425641                7.99800365               13.01196594                0.01000000               -0.16265790               -0.01331640                0.11624886                0.07392721                0.19696082                0.03796017
               7.00255903                7.99826178               13.01369007                0.01000000               -0.15993556               -0.01981303                0.11974578               -0.02074575                0.23655760                0.08215269
               8.00105770                7.99808289               13.01568094                0.01000000               -0.12322922               -0.04598694                0.13549392               -0.11622750                0.22002568                0.15539985
               9.00009444                7.99807821               13.01724624                0.01000007               -0.07294623               -0.09324879                0.14673437               -0.17362274                0.14681446                0.37259026
               9.99959878                7.99924562               13.01784987                0.01000000               -0.04956656               -0.13508367                0.15146545               -0.12434478                0.09757971                0.37152806
               0.01161499                8.99843478               13.01437554                1.00000000               -0.03167810               -0.03271401                0.10888001                0.00024574                0.00231163                0.01786183
               1.01129821                8.99721594               13.01296735                0.99999999               -0.03070350               -0.03070957                0.10233512               -0.00002828                0.00136864                0.00212310
               2.01100092                8.99600253               13.01154033                0.99992085               -0.02873430               -0.02872837                0.09575662               -0.00004433               -0.00450965               -0.01085931
               3.01072352                8.99479366               13.01001822                0.01000000               -0.11011006               -0.07087444                0.08913993                0.18440402                0.08111135               -0.03791561
               4.00879872                8.99621327               13.01031074                0.01000000               -0.21606975                0.01949668                0.10307252                0.19290566                0.17060132               -0.01697273
               5.00640213                8.99746142               13.01117950                0.01000000               -0.22592762                0.02691913                0.10527608                0.10766279                0.19376702                0.00431456
               6.00428017                8.99810443               13.01244013                0.01035806               -0.20963673                0.02310949                0.10869469                0.03226012                0.22478497                0.03317872
               7.00220939                8.99832996               13.01429484                0.01000000               -0.22654679                0.01999966                0.12405318               -0.02997131                0.27964143                0.04805618
               7.99974923                8.99797619               13.01698855                0.01000001               -0.27086170                0.02318063                0.14471395               -0.11700424                0.42252302                0.11076336
               8.99679216                8.99730703               13.02205645                0.99999998               -0.17426995               -0.06498895                0.17782539               -0.19920033                0.25996162                0.25050516
               9.99626383                8.99705228               13.02190458                0.99999996               -0.05283274               -0.13545526                0.17397647               -0.17949884               -0.00090945                0.21078940
               0.01282643                9.99810484               13.01469255                1.00000000               -0.03221503               -0.03299439                0.11065009                0.00129855                0.01235136                0.01330387
               1.01250428                9.99690639               13.01327256                0.99937780               -0.03122209               -0.03095481                0.10407010                0.00098542                0.01561156                0.00079909
               2.01220198                9.99571241               13.01191735                0.99999998               -0.02926205               -0.02901166                0.09749124                0.00100425                0.01565767               -0.00335459
               3.01191903                9.99452435               13.01050161                0.01016529               -0.18834236               -0.02693134                0.09095458                0.17478649                0.08492624               -0.00407638
               4.00843514                9.99681712               13.01053842                0.01160850               -0.29223761                0.06038548                0.09385915                0.13107379                0.14684138                0.00885689
               5.00607428                9.99787299               13.01121287                0.01000000               -0.22010333                0.04115690                0.10318741                0.04965169                0.18231060                0.00681553
               6.00403307                9.99846584               13.01253407                0.01000002               -0.19932199                0.03614188                0.11104403                0.01473000                0.22082771                0.02148316
               7.00208784                9.99866178               13.01442102                0.01000001               -0.21462595                0.03318141                0.12234023               -0.00812203                0.30193940                0.03128010
               7.99974055                9.99854650               13.01759482                0.01000000               -0.25267500                0.05703188                0.14851407               -0.09503527                0.40401981                0.08528597
               8.99703434                9.99677843               13.02187718                0.99999996               -0.16111245               -0.05286003                0.17414267               -0.07628101                0.22284968                0.00113775
               9.99651830                9.99653652               13.02172531                0.99954050               -0.05160405               -0.05157643                0.17029647                0.00125566                0.00101908               -0.00101682
               0.00123349                0.00174785               14.01144606                1.00000000               -0.02475275               -0.02476840                0.08231701                0.00014166               -0.00380638                0.00355901
               1.00098596                0.00111736               14.01141941                1.00000000               -0.02481213               -0.02489495                0.08272911                0.00006649               -0.00423523               -0.00112533
               2.00073724                0.00048848               14.01138612                0.01007342               -0.02247178               -0.02502357                0.08314288                0.00621020                0.01912516               -0.00177136
               3.00053652               -0.00001579               14.01182768                0.01000000               -0.02445628               -0.02280371                0.09364083                0.00150643                0.05773748               -0.00896187
               4.00024812                0.00016774               14.01253375                0.01000001               -0.04017893               -0.01773779                0.09899328                0.02807472                0.08841308               -0.01459955
               4.99973294                0.00120604               14.01360598                0.01000002               -0.07292969               -0.01559462                0.09319358                0.07001413                0.12726257               -0.02092008
               5.99878952                0.00325769               14.01518980                0.36934241               -0.06423064               -0.03358618                0.11348129                0.06467580                0.07860769               -0.00095863
               6.99844833                0.00400941               14.01562676                1.00000000               -0.03442932               -0.03405577                0.11531287                0.00013377                0.01418622               -0.00337865
               7.99810094                0.00475102               14.01591960                0.99999999               -0.03489766               -0.03436006                0.11630030                0.00017572                0.00810473               -0.00039975
               8.99775038                0.00548207               14.01623341                0.99962276               -0.03523595               -0.03468640                0.11739323                0.00017808                0.00733413                0.00087130
               9.99739622                0.00620231               14.01651001                1.00000000               -0.03541597               -0.03502397                0.11848422                0.00073929                0.00546839                0.00503320
               0.00186540                1.00150017               14.01149393                0.99998055               -0.02490879               -0.02484194                0.08282408                0.00008041                0.00106493                0.00384332
               1.00161631                1.00086841               14.01146858                0.01000000               -0.02497401               -0.02497310                0.08323546                0.00000324                0.00279870               -0.00292566
               2.00136592                1.00023824               14.01147793                0.01000000               -0.04521768               -0.03138070                0.08364930               -0.01058663                0.02333984                0.00108275
               3.00071196                0.99975617               14.01186239                0.01000001               -0.07239840               -0.02207371                0.09256005                0.01136378                0.04698388               -0.01322415
               3.99991795                0.99999036               14.01244065                0.01000000               -0.09119229               -0.01861122                0.09831198                0.06074333                0.06399471               -0.02094433
               4.99888811                1.00105009               14.01328739                0.01000000               -0.09416754               -0.02477538                0.09766689                0.12054547                0.09777359               -0.02882556
               5.99803460                1.00292183               14.01468671                0.01000000               -0.05925546               -0.06881538                0.10997710                0.10421597                0.06155506               -0.03615219
               6.99770300                1.00366885               14.01505513                1.00000000               -0.03341193               -0.03351881                0.11171562               -0.00010407                0.00552613               -0.00353090
               7.99736636                1.00440742               14.01533262                0.99999998               -0.03382440               -0.03383368                0.11276428                0.00002112                0.00116055               -0.00031199
               8.99702651                1.00513521               14.01561343                1.00000000               -0.03414941               -0.03415692                0.11385472                0.00002180                0.00086609                0.00047910
               9.99668337                1.00585207               14.01588542                1.00000000               -0.03431414               -0.03449375                0.11495951                0.00054809                0.00036993                0.00627536
               0.00249862                2.00125101               14.01154893                0.01000000               -0.02506675               -0.03068343                0.08333370               -0.01290146                0.00161983                0.02582421
               1.00224795                2.00061789               14.01148220                0.01000000               -0.04304362               -0.03826620                0.08374364               -0.02229516                0.01225543                0.01232713
               2.00163774                1.99986086               14.01162629                0.01000001               -0.06181345               -0.04230280                0.08854358               -0.00947291                0.02287691               -0.00139135
               3.00101168                1.99954274               14.01180700                0.01000000               -0.07343402               -0.03248449                0.09242184                0.04603277                0.03111118               -0.01832181
               4.00016906                1.99979551               14.01219013                0.01000000               -0.08996458               -0.02970618                0.09742982                0.10911999                0.04524824               -0.02790395
               4.99921239                2.00071053               14.01279648                0.01000001               -0.09569871               -0.04410383                0.10244941                0.16069723                0.05093548               -0.03402236
               5.99825509                2.00188138               14.01347872                0.01047311               -0.11258670               -0.07924510                0.10406338                0.17686488                0.06360007               -0.05403877
               6.99696065                2.00333903               14.01447931                0.01000001               -0.08100456               -0.06290491                0.10814382                0.11777231                0.03220743               -0.02487331
               7.99663500                2.00407435               14.01474688                0.04883614               -0.03272456               -0.03281645                0.10921740                0.00233253               -0.00592184                0.01039163
               8.99630616                2.00479894               14.01498587                0.99999999               -0.03307722               -0.03309477                0.11034295                0.00003250               -0.00433984               -0.00188039
               9.99597345                2.00551244               14.01528667                1.00000000               -0.03327092               -0.03344789                0.11145164                0.00054420               -0.00134968                0.00626590
               0.00287361                3.00088650               14.01203605                0.01000001               -0.03130502               -0.02890704                0.09742016               -0.00913838               -0.00089575                0.05844206
               1.00256056                3.00010308               14.01183503                0.01000001               -0.03109944               -0.06115561                0.09419695               -0.00378572                0.00643902                0.03113910
               2.00225162                2.99939219               14.01168852                0.01000000               -0.04312973               -0.05998699                0.08972508                0.03804635                0.01445358               -0.00680623
               3.00169796                2.99910648               14.01172491                0.01000000               -0.06595322               -0.05375578                0.09449586                0.09352985                0.02769227               -0.02092205
               4.00093255                2.99939624               14.01194637                0.01000001               -0.08408861               -0.05015567                0.09829971                0.15163250                0.03816289               -0.02591272
               5.00001619                3.00016802               14.01232887                0.01000000               -0.09945766               -0.05777015                0.10118986                0.20004818                0.04729873               -0.02497182
               5.99894340                3.00133692               14.01290375                0.01000001               -0.10753551               -0.06599602                0.10300182                0.21822329                0.04642462               -0.01560039
               6.99786548                3.00241075               14.01348080                0.01000000               -0.14951474               -0.08275303                0.10462743                0.24602166                0.05739448               -0.02412269
               7.99595311                3.00375109               14.01437465                0.01038444               -0.11382022               -0.07219265                0.10000741                0.21624237                0.00539468               -0.00082368
               8.99558907                3.00447331               14.01431991                0.01000000               -0.03429266               -0.08744858                0.10686974                0.17209726               -0.02139619                0.00944045
               9.99526725                3.00518312               14.01466364                0.18300936               -0.03218229               -0.16391789                0.10793571                0.19609445               -0.00162902                0.00116970
               0.00388268                4.00067287               14.01254077                0.01000000               -0.02161344               -0.02998366                0.09409927                0.02350763               -0.00662533                0.06579172
               1.00366655                3.99939478               14.01213075                0.01000000               -0.02437062               -0.08100533                0.09306418                0.05558063                0.00003237                0.02468712
               2.00339527                3.99866112               14.01178709                0.01000000               -0.03941609               -0.07798436                0.09417871                0.10177053                0.01416680               -0.00796516
               3.00287823                3.99846762               14.01165987                0.01000001               -0.06275451               -0.07021181                0.09657153                0.14586155                0.03252742               -0.02450342
               4.00214018                3.99879240               14.01176304                0.01000000               -0.08027806               -0.06646004                0.09838329                0.19193063                0.04827679               -0.02374703
               5.00127266                3.99955513               14.01208652                0.01000001               -0.08816785               -0.06737402                0.10011466                0.22728810                0.05856071               -0.01205279
               6.00037682                4.00056146               14.01254233                0.01000000               -0.09028730               -0.08004188                0.10247807                0.25584037                0.06477323                0.00562568
               6.99946692                4.00168397               14.01310647                0.01054419               -0.07397708               -0.09494440                0.10217743                0.27829798                0.05756536                0.01054994
               7.99889728                4.00263050               14.01357013                0.01079351               -0.05754164               -0.11336353                0.10734206                0.30734213                0.04329337                0.00813076
               8.99831609                4.00304996               14.01392096                0.01000000               -0.02107699               -0.13994060                0.11054930                0.22808309                0.02493850                0.02683456
               9.99847574                4.00223408               14.01396574                0.01106284                0.01596553               -0.21699904                0.10988695                0.17792088                0.01265776                0.00324412
               0.00589994                5.00028683               14.01314363                0.01000000               -0.02160226               -0.07379951                0.08915030                0.07545405               -0.00438917                0.08908037
               1.00568392                4.99848298               14.01247493                0.01000000               -0.03428752               -0.07910453                0.09251618                0.12896554                0.00230564                0.02816330
               2.00521419                4.99783250               14.01191942                0.01000001               -0.06000007               -0.07727080                0.09599379                0.15705806                0.02115747               -0.01695656
               3.00448392                4.99770225               14.01160790                0.01000000               -0.07652663               -0.07934419                0.09722421                0.19013137                0.04476859               -0.03085114
               4.00368366                4.99806704               14.01165886                0.01000001               -0.08455118               -0.07104792                0.09783242                0.21588651                0.06852664               -0.02448026
               5.00279289                4.99882054               14.01198020                0.01000000               -0.08761442               -0.07101216                0.09919591                0.22993955                0.08793515               -0.00169162
               6.00193137                4.99973609               14.01258959                0.01136912               -0.07152448               -0.08076629                0.09485933                0.22930495                0.08435810                0.01563239
               7.00136240                5.00051186               14.01296527                0.01000000               -0.05987078               -0.10281001                0.10036261                0.24059246                0.08164186                0.02089373
               8.00073395                5.00148382               14.01348594                0.01000000               -0.04076250               -0.12246741                0.11572984                0.21500885                0.07396013                0.07233435
               9.00054715                5.00167450               14.01398782                0.01000000               -0.01382575               -0.12924448                0.10953091                0.14250718                0.04939967                0.07683401
              10.00045744                5.00084313               14.01396731                0.01000000               -0.00897149               -0.09763640                0.11233690                0.07264283                0.02826537                0.06275706
               0.00899946                5.99919688               14.01425273                0.88769608               -0.02992773               -0.07013101                0.10287938                0.08545871               -0.00362820                0.05325970
               1.00870019                5.99781269               14.01304988                0.01000000               -0.08411516               -0.04824680                0.09698853                0.11530879                0.00455559                0.01105762
               2.00731716                5.99711571               14.01200929                0.01047785               -0.11269348               -0.08385331                0.09449631                0.18180965                0.02111998               -0.03153608
               3.00644632                5.99688074               14.01155282                0.01000001               -0.09887699               -0.06763804                0.09284101                0.20155480                0.06653727               -0.03783104
               4.00533962                5.99737144               14.01158310                0.01000000               -0.11219554               -0.06499877                0.09754236                0.21967486                0.09843265               -0.02632336
               5.00420240                5.99813489               14.01207824                0.01137078               -0.10340114               -0.05812097                0.09310195                0.20887247                0.10855896               -0.00347860
               6.00327160                5.99894613               14.01254812                0.01000007               -0.08356865               -0.07183789                0.09050101                0.19382131                0.10593251                0.01168153
               7.00253103                5.99962777               14.01319036                0.01000000               -0.06183898               -0.08761505                0.10675547                0.15231552                0.11564024                0.06555878
               8.00203482                6.00018115               14.01410077                0.01000000               -0.03620576               -0.12254051                0.12150842                0.12154516                0.11998831                0.11549923
               9.00180692                6.00046507               14.01475461                0.01076163               -0.02217418               -0.11303441                0.11689701                0.07188901                0.07726342                0.13758453
              10.00159133                6.00028135               14.01475755                0.01000002               -0.02155833               -0.04091930                0.11309908                0.03743236                0.04599438                0.13212478
               0.01037749                6.99888421               14.01461473                1.00000000               -0.03062280               -0.03157949                0.10511585                0.00027249               -0.00267561                0.01892287
               1.01007127                6.99751804               14.01331396                1.00000000               -0.02975792               -0.02979282                0.09917063               -0.00015537               -0.00561605               -0.00127474
               2.00978234                6.99615543               14.01195473                0.01000001               -0.09059948               -0.06213061                0.09348697                0.13231198                0.03802985               -0.02917112
               3.00825928                6.99634949               14.01153151                0.01000000               -0.14796662               -0.06587063                0.09227667                0.19165533                0.08979058               -0.04219298
               4.00682300                6.99676706               14.01153326                0.01054894               -0.14318137               -0.05664965                0.09389773                0.21778056                0.11879198               -0.03018250
               5.00539565                6.99765812               14.01199384                0.01000000               -0.12540459               -0.04726085                0.09998611                0.20952023                0.12755396               -0.00981846
               6.00431491                6.99829933               14.01269206                0.01000000               -0.11109753               -0.04840379                0.10322160                0.13875537                0.16458357                0.02442382
               7.00317370                6.99875956               14.01394993                0.01000000               -0.09936811               -0.06605904                0.12030056                0.06558524                0.18311893                0.08998117
               8.00232755                6.99903301               14.01528670                0.01000000               -0.06444854               -0.09916168                0.12087162                0.00597284                0.16281584                0.16275390
               9.00188473                6.99941381               14.01621801                0.01000000               -0.03770103               -0.11016450                0.12611084               -0.01604584                0.09727461                0.21891803
              10.00157353                7.00002475               14.01624807                0.01000001               -0.03111987               -0.03772050                0.12150363               -0.01927315                0.05187212                0.25181456
               0.01173724                7.99856529               14.01503539                0.99999999               -0.03113927               -0.03216167                0.10694635                0.00022034               -0.00068774                0.02216949
               1.01142585                7.99721683               14.01364539                1.00000000               -0.03026457               -0.03036427                0.10101872               -0.00006518               -0.00025926                0.00268013
               2.01113195                7.99587310               14.01226457                0.01033856               -0.08790284               -0.02849247                0.09509919                0.05136066                0.02827566               -0.01488006
               3.00966779                7.99556332               14.01144927                0.01039237               -0.13726765               -0.10425061                0.11443856                0.21440721                0.08282312               -0.06517793
               4.00838660                7.99623845               14.01145403                0.01080545               -0.14036264               -0.03486096                0.09257018                0.23382852                0.14506561               -0.03529726
               5.00686054                7.99718967               14.01193197                0.01000000               -0.17206692               -0.01527928                0.10099671                0.18647622                0.19091207               -0.00686907
               6.00494526                7.99797806               14.01316743                0.01000000               -0.18757441               -0.00730164                0.11767096                0.09084637                0.22214904                0.03890147
               7.00310905                7.99830659               14.01486469                0.01000003               -0.17226203               -0.01553234                0.11834450               -0.01117295                0.25332698                0.08563692
               8.00150002                7.99819791               14.01702406                0.01000002               -0.13073949               -0.04467981                0.13403462               -0.11319443                0.24024757                0.17018304
               9.00049426                7.99826178               14.01870426                0.01000007               -0.07580091               -0.09494067                0.14577608               -0.18013667                0.15942175                0.39939240
               9.99998400                7.99952694               14.01935604                0.01000000               -0.05102612               -0.13919435                0.15044249               -0.13086841                0.10529683                0.39768279
               0.01307882                8.99824097               14.01546245                0.99994471               -0.03166566               -0.03265893                0.10859063                0.00023467                0.00232313                0.01781300
               1.01276216                8.99691075               14.01399203                0.99999999               -0.03078781               -0.03082057                0.10263579               -0.00002259                0.00135711                0.00205828
               2.01246306                8.99558558               14.01250237                1.00000000               -0.02900459               -0.02900939                0.09663511               -0.00006494               -0.00458205               -0.01096913
               3.01218207                8.99426447               14.01091675                0.01000002               -0.12949155               -0.07861570                0.09054487                0.21535842                0.09448486               -0.05537768
               4.00987323                8.99606984               14.01141544                0.01000000               -0.23982513                0.02334278                0.10571459                0.21564051                0.17649508               -0.01912706
               5.00738556                8.99735253               14.01218152                0.01000000               -0.24291538                0.03504821                0.09673771                0.10685711                0.20962247                0.00511518
               6.00501492                8.99815330               14.01352181                0.01000001               -0.23275905                0.03079798                0.10954874                0.03997483                0.24947424                0.02652445
               7.00273038                8.99844891               14.01552793                0.01000002               -0.24532282                0.02707178                0.12478994               -0.02956082                0.30272919                0.05116738
               8.00010846                8.99813942               14.01842724                0.01000001               -0.28887086                0.03008290                0.14318199               -0.11893491                0.45384562                0.12027494
               8.99695297                8.99751500               14.02383127                0.99999998               -0.18413095               -0.06371460                0.17714118               -0.20879881                0.27852598                0.26800590
               9.99642585                8.99724086               14.02364419                0.99979875               -0.05271210               -0.14014685                0.17394343               -0.19163436               -0.00091006                0.22412120
               0.01440237                9.99791211               14.01579583                1.00000000               -0.03215843               -0.03288589                0.11019677                0.00118665                0.01239964                0.01321655
               1.01408079                9.99660042               14.01431392                1.00000000               -0.03127193               -0.03103312                0.10425762                0.00090260                0.01566228                0.00073501
               2.01377693                9.99529291               14.01289659                0.99999998               -0.02950419               -0.02926754                0.09829798                0.00091676                0.01569538               -0.00339704
               3.01349070                9.99399101               14.01141816                0.01000000               -0.20827912               -0.02734640                0.09230860                0.20148354                0.09053517               -0.00408822
               4.00961135                9.99670530               14.01150375                0.01140947               -0.32882376                0.06354634                0.10030943                0.16879346                0.16317744               -0.00503559
               5.00691423                9.99789063               14.01227278                0.01000000               -0.24814880                0.05381018                0.10162190                0.04730210                0.20073695                0.00728310
               6.00464838                9.99859402               14.01359781                0.01000001               -0.21912562                0.04407221                0.10701321                0.01121490                0.24300852                0.02090200
               7.00253172                9.99884802               14.01562957                0.01000000               -0.22965700                0.03991092                0.12465277               -0.00958896                0.32434405                0.03106302
               8.00005524                9.99879957               14.01907520                0.01000000               -0.26574378                0.06601565                0.14662003               -0.09834947                0.43333494                0.09174903
               8.99721684                9.99698749               14.02361879                0.99981001               -0.16778209               -0.05275084                0.17417876               -0.07739088                0.23767299                0.00113931
               9.99669959                9.99672401               14.02343170                0.99963099               -0.05172477               -0.05168564                0.17098043                0.00102608                0.00101870               -0.00101895
               0.00122001                0.00173304               15.01227119                1.00000000               -0.02484909               -0.02484068                0.08270862                0.00007001               -0.00380604                0.00355774
               1.00097152                0.00105440               15.01224786                1.00000000               -0.02488580               -0.02491833                0.08296090                0.00003948               -0.00423503               -0.00112593
               2.00072229                0.00037640               15.01221789                0.01011930               -0.02149117               -0.02499683                0.08321352                0.00786522                0.02347320               -0.00177167
               3.00054170               -0.00014440               15.01274974                0.01000000               -0.02134144               -0.02139360                0.09091168                0.00415349                0.06529746               -0.00902096
               4.00029547                0.00012574               15.01351165                0.01000001               -0.03530145               -0.01822714                0.09733367                0.03001045                0.09723886               -0.01449009
               4.99983567                0.00127064               15.01462790                0.01000000               -0.08678491               -0.01606082                0.10479079                0.08398273                0.14349321               -0.02292512
               5.99855977                0.00376891               15.01632316                0.35421675               -0.08078679               -0.03355966                0.11318152                0.08481451                0.08395437               -0.00094483
               6.99821993                0.00456483               15.01677834                1.00000000               -0.03432463               -0.03399337                0.11501463                0.00014184                0.01449395               -0.00345164
               7.99787328                0.00535166               15.01708163                0.99999999               -0.03484326               -0.03433213                0.11610589                0.00019889                0.00808530               -0.00041235
               8.99752307                0.00612840               15.01740714                1.00000000               -0.03521008               -0.03469002                0.11730870                0.00018617                0.00736317                0.00084159
               9.99716907                0.00689482               15.01769521                1.00000000               -0.03539932               -0.03505498                0.11850270                0.00070743                0.00550449                0.00502402
               0.00189935                1.00148464               15.01232259                0.99991887               -0.02491133               -0.02486998                0.08291006                0.00003251                0.00106533                0.00384249
               1.00165024                1.00080522               15.01230056                0.01000000               -0.02494988               -0.02495026                0.08316159                0.00000106                0.00280008               -0.00292635
               2.00140035                1.00012643               15.01231325                0.01000000               -0.04708356               -0.03190906                0.08341247               -0.00906590                0.02747556                0.00322523
               3.00070856                0.99964166               15.01278371                0.01000001               -0.07561503               -0.02138748                0.09117168                0.01613359                0.05438982               -0.01235772
               3.99988805                0.99994346               15.01341213                0.01000000               -0.09273289               -0.01859800                0.09634326                0.06560531                0.07092286               -0.02154486
               4.99885391                1.00111003               15.01429506                0.01000000               -0.10636180               -0.02159799                0.10162553                0.13625985                0.10737598               -0.02932511
               5.99776081                1.00343332               15.01578594                0.01000000               -0.07119658               -0.07591028                0.10986822                0.13012668                0.06586010               -0.03811180
               6.99742997                1.00422490               15.01617179                1.00000000               -0.03336669               -0.03348195                0.11159786               -0.00007437                0.00581370               -0.00358259
               7.99709348                1.00500834               15.01646023                0.99939211               -0.03383134               -0.03384016                0.11278201                0.00002870                0.00115690               -0.00032754
               8.99675335                1.00578150               15.01675255                1.00000000               -0.03418789               -0.03419487                0.11398479                0.00001709                0.00089600                0.00047348
               9.99640972                1.00654427               15.01703618                0.99965762               -0.03436251               -0.03455947                0.11516194                0.00050905                0.00041345                0.00628594
               0.00257949                2.00123564               15.01238112                0.01000001               -0.02497457               -0.02092296                0.08311085               -0.01065882                0.00161860                0.03710302
               1.00232974                2.00055540               15.01231772                0.01000000               -0.04374759               -0.03113085                0.08336320               -0.01340846                0.01439960                0.01932763
               2.00170454                1.99973822               15.01250802                0.01000001               -0.06412035               -0.04457200                0.08774871               -0.00254938                0.02723116                0.00025524
               3.00104734                1.99942785               15.01273239                0.01000000               -0.07826665               -0.03349250                0.09228835                0.05782483                0.03594384               -0.01638487
               4.00013920                1.99975378               15.01316257                0.01000000               -0.09881619               -0.02978697                0.09658867                0.12719807                0.05019456               -0.02702487
               4.99907101                2.00083868               15.01380361                0.01000001               -0.10458873               -0.04148118                0.10018888                0.18295212                0.05394929               -0.03381998
               5.99804743                2.00225071               15.01450469                0.01018274               -0.12137973               -0.08889457                0.10321357                0.20694884                0.06850924               -0.05637996
               6.99664342                2.00389519               15.01556132                0.01000003               -0.08650905               -0.06735077                0.10820425                0.13475517                0.03443224               -0.02560126
               7.99631725                2.00467486               15.01583995                0.05270905               -0.03279710               -0.03302339                0.10944656                0.00217386               -0.00590453                0.00756302
               8.99598748                2.00544450               15.01609066                0.99999999               -0.03317724               -0.03318969                0.11066324                0.00003377               -0.00429327               -0.00184616
               9.99565370                2.00620363               15.01640311                0.99899289               -0.03337721               -0.03357304                0.11183490                0.00052169               -0.00131058                0.00626816
               0.00304666                3.00106618               15.01309736                0.01128954               -0.01671699               -0.01851941                0.06808878               -0.00639097               -0.01200089                0.05391232
               1.00287949                3.00018260               15.01281408                0.01000001               -0.02848715               -0.05798994                0.07692811               -0.00566832               -0.00105714                0.03211163
               2.00247692                2.99923499               15.01256939                0.01000000               -0.05149920               -0.06311491                0.09220489                0.04324268                0.01324823               -0.00395836
               3.00184951                2.99897181               15.01267757                0.01000000               -0.07278667               -0.05715785                0.09427313                0.11424495                0.03277392               -0.01839963
               4.00102118                2.99934773               15.01293153                0.01000001               -0.09167437               -0.05270253                0.09845268                0.17940951                0.04318707               -0.02473544
               5.00001602                3.00028040               15.01334265                0.01000000               -0.10889543               -0.06133506                0.10048372                0.23591515                0.05516528               -0.02776950
               5.99884327                3.00165542               15.01391968                0.01000000               -0.11575462               -0.07271540                0.10153046                0.25347763                0.05376789               -0.01705278
               6.99770093                3.00287788               15.01451407                0.01000000               -0.16278120               -0.08964395                0.10380513                0.27836391                0.05634415               -0.02282014
               7.99558765                3.00434787               15.01537697                0.01000007               -0.12378380               -0.07676643                0.10303672                0.24088097                0.00646609                0.00102320
               8.99522525                3.00511771               15.01539098                0.01000000               -0.03428792               -0.09611755                0.10732783                0.19337629               -0.01851974                0.01206275
               9.99490189                3.00587281               15.01574574                0.19705825               -0.03233577               -0.17912246                0.10850156                0.21996070               -0.00163956                0.00523395
               0.00421881                4.00086525               15.01344014                0.01000000               -0.01712530               -0.03193505                0.08743031                0.02529336               -0.00585775                0.05969467
               1.00404756                3.99939560               15.01303273                0.01000000               -0.02193142               -0.09024406                0.09055235                0.05022456                0.00064643                0.02287930
               2.00378019                3.99847592               15.01273056                0.01000000               -0.04140285               -0.08450901                0.09377676                0.11359111                0.01710388               -0.00518581
               3.00321950                3.99828469               15.01263059                0.01000001               -0.06806923               -0.07631538                0.09713558                0.17272166                0.03552811               -0.02233036
               4.00241880                3.99869973               15.01275319                0.01000000               -0.08689437               -0.07180943                0.09893763                0.22516089                0.05187352               -0.02384470
               5.00148162                3.99961198               15.01308826                0.01000001               -0.09496487               -0.07346436                0.10000398                0.26549206                0.06291335               -0.01388257
               6.00051950                4.00079640               15.01356438                0.01000000               -0.09816848               -0.08757744                0.10229856                0.29791593                0.06759562                0.00395597
               6.99951825                4.00210232               15.01415419                0.01000007               -0.08122283               -0.10058254                0.10465917                0.31330716                0.05852354                0.01930097
               7.99889505                4.00313953               15.01462987                0.01021340               -0.05940920               -0.12251136                0.10693486                0.33983675                0.04191383                0.01574338
               8.99833006                4.00352215               15.01500955                0.01000000               -0.01761724               -0.15431328                0.11002338                0.25339878                0.02068947                0.03902503
               9.99854270                4.00262119               15.01509503                0.01087058                0.02126392               -0.23923684                0.11330940                0.20316314                0.01291059                0.00718830
               0.00649183                5.00042748               15.01411979                0.01000005               -0.02185210               -0.09397601                0.10011220                0.09386200               -0.00395682                0.09856898
               1.00627331                4.99837772               15.01344394                0.01000000               -0.03160926               -0.09500127                0.09717830                0.14833678                0.00193249                0.03055074
               2.00585965                4.99754481               15.01286624                0.01000001               -0.05965892               -0.08476681                0.09477685                0.17905441                0.02212964               -0.01853426
               3.00508013                4.99744550               15.01258519                0.01000000               -0.08312669               -0.08793191                0.09813999                0.22378239                0.04561118               -0.02886129
               4.00419712                4.99791154               15.01264124                0.01000001               -0.09254749               -0.07769537                0.09836630                0.25321238                0.07142108               -0.02514283
               5.00322919                4.99881112               15.01296904                0.01000000               -0.09429312               -0.07809907                0.09924076                0.27167188                0.08869509               -0.00610715
               6.00231125                4.99990388               15.01351653                0.01046635               -0.08026246               -0.08980554                0.09587825                0.27046072                0.09099237                0.01563103
               7.00162394                5.00086623               15.01403333                0.01000001               -0.06733519               -0.11466295                0.11020721                0.27344354                0.08446454                0.04549687
               8.00096455                5.00189765               15.01465323                0.01000000               -0.04061824               -0.13397900                0.11607027                0.23771501                0.08333261                0.06931678
               9.00081157                5.00203144               15.01506841                0.01000000               -0.00987315               -0.14037662                0.11110342                0.15613293                0.05382202                0.08472185
              10.00076709                5.00108808               15.01510738                0.01000000               -0.00444853               -0.10950748                0.11310360                0.08107620                0.03599634                0.06401312
               0.01019556                5.99898573               15.01527910                0.87154280               -0.02985988               -0.08768337                0.10257630                0.11044869               -0.00355159                0.05538561
               1.00989696                5.99749558               15.01402013                0.01000000               -0.09510319               -0.05892831                0.09724664                0.14480292                0.00578369                0.01071989
               2.00829349                5.99678059               15.01294922                0.01018727               -0.12842657               -0.09086749                0.09521510                0.21269457                0.02246964               -0.03301257
               3.00732843                5.99652605               15.01248857                0.01000000               -0.10880301               -0.07573308                0.09579805                0.23660311                0.06874685               -0.04051272
               4.00611743                5.99714582               15.01256114                0.01000000               -0.12028566               -0.07234986                0.09832354                0.26143454                0.10492401               -0.03134717
               5.00492271                5.99804999               15.01299191                0.01046801               -0.11219158               -0.06730445                0.09437244                0.25063662                0.12357976               -0.00910295
               6.00387360                5.99900029               15.01354586                0.01000001               -0.09646841               -0.08319790                0.10639274                0.22560987                0.12908860                0.01946342
               7.00299335                5.99980906               15.01432842                0.01000000               -0.06947312               -0.10073592                0.11700151                0.18035021                0.14122807                0.07555034
               8.00248414                6.00045995               15.01530333                0.01000000               -0.03655273               -0.13349646                0.11840988                0.14097236                0.12708440                0.12167375
               9.00226229                6.00071462               15.01589908                0.01000001               -0.02165941               -0.12153603                0.11571747                0.07854933                0.07461197                0.15106021
              10.00205095                6.00043104               15.01581926                0.01000001               -0.02113398               -0.04481623                0.11192488                0.03643199                0.04065264                0.14201740
               0.01168113                6.99867381               15.01566473                0.99999999               -0.03066057               -0.03154724                0.10501875                0.00025957               -0.00263962                0.01940228
               1.01137452                6.99719916               15.01430763                1.00000000               -0.02990312               -0.02997314                0.09967093               -0.00025416               -0.00551212               -0.00081169
               2.01108306                6.99572746               15.01289520                0.01000000               -0.09637780               -0.06694202                0.09467066                0.14902067                0.03840258               -0.03004213
               3.00944696                6.99593084               15.01242209                0.01000000               -0.15906000               -0.06365042                0.09178077                0.21586704                0.09643555               -0.04911246
               4.00790186                6.99646454               15.01250241                0.01000007               -0.15297588               -0.06533789                0.09748533                0.25400724                0.14554680               -0.04897361
               5.00638745                6.99746503               15.01300282                0.01000001               -0.14187381               -0.05202278                0.10297636                0.23848446                0.16791358               -0.02104978
               6.00506439                6.99823992               15.01379825                0.01000000               -0.13080853               -0.05241763                0.11510733                0.16397813                0.18614509                0.03729255
               7.00377128                6.99885151               15.01516254                0.01000000               -0.10929771               -0.07062679                0.11882071                0.08816977                0.20117326                0.09909527
               8.00287843                6.99922772               15.01650781                0.01000000               -0.06799014               -0.10569697                0.12351124                0.01440755                0.17336417                0.17405636
               9.00241147                6.99960072               15.01746329                0.01000000               -0.04077710               -0.11309105                0.12795689               -0.01736803                0.10282156                0.23584020
              10.00206289                7.00019175               15.01743875                0.01000001               -0.03485821               -0.03139399                0.12853523               -0.02338645                0.05130112                0.27765613
               0.01315005                7.99835479               15.01610428                0.99999999               -0.03118303               -0.03216028                0.10687876                0.00019057               -0.00067540                0.02226435
               1.01283822                7.99689611               15.01465777                1.00000000               -0.03039141               -0.03052881                0.10149599               -0.00010674               -0.00027691                0.00273734
               2.01254222                7.99544175               15.01322059                0.01000000               -0.09647644               -0.02881692                0.09612742                0.06292146                0.03623401               -0.01506892
               3.01090869                7.99525304               15.01250883                0.01000007               -0.14394158               -0.11068105                0.09468224                0.23252485                0.13288121               -0.11544610
               4.00966339                7.99583906               15.01233694                0.01022521               -0.14958335               -0.03417695                0.09074416                0.24592359                0.16365822               -0.04408390
               5.00791703                7.99700954               15.01299437                0.01000000               -0.19483565               -0.01210567                0.10974927                0.21068204                0.20494796               -0.01222256
               6.00576668                7.99795194               15.01431936                0.01000000               -0.20740420               -0.00176931                0.11359319                0.11229199                0.24144592                0.04063191
               7.00376894                7.99839652               15.01605696                0.01000003               -0.18717962               -0.01315403                0.12177403               -0.00093306                0.27117974                0.09256857
               8.00202309                7.99834601               15.01836163                0.01000002               -0.14090222               -0.04485914                0.13438693               -0.11496794                0.26029753                0.18399855
               9.00095090                7.99845280               15.02016177                0.01005926               -0.08109646               -0.09240528                0.14531895               -0.19042970                0.17219600                0.42710941
              10.00040116                7.99980316               15.02085872                0.01000000               -0.05497399               -0.13663545                0.14861191               -0.13711848                0.11341025                0.42688470
               0.01460229                8.99803060               15.01654735                1.00000000               -0.03168617               -0.03261892                0.10838954                0.00020754                0.00231957                0.01777454
               1.01428543                8.99658858               15.01502007                0.99999999               -0.03088649               -0.03093980                0.10297099               -0.00004709                0.00131030                0.00197622
               2.01398456                8.99515112               15.01347303                1.00000000               -0.02926418               -0.02928595                0.09749732               -0.00009681               -0.00469844               -0.01112836
               3.01370015                8.99371722               15.01182912                0.01000000               -0.14603606               -0.09066457                0.09193191                0.24218815                0.10210929               -0.06362017
               4.01106384                8.99578100               15.01242503                0.01000000               -0.26059672                0.03503650                0.09199320                0.23431837                0.22481845               -0.03867178
               5.00848821                8.99722292               15.01311426                0.01000000               -0.25702978                0.04132981                0.09829584                0.12507332                0.23407798               -0.00034048
               6.00592325                8.99820453               15.01463110                0.01000001               -0.25648369                0.03899682                0.11278050                0.05676466                0.27639119                0.02322108
               7.00335854                8.99858843               15.01679064                0.01000002               -0.27002241                0.03416197                0.12697690               -0.02728034                0.32747099                0.05858207
               8.00052280                8.99833054               15.01985219                0.01000001               -0.31064013                0.03697753                0.14310814               -0.12204413                0.48445191                0.12901790
               8.99714574                8.99775261               15.02559927                0.99999998               -0.19514958               -0.06133104                0.17646095               -0.21955402                0.29711474                0.28483423
               9.99661981                8.99745904               15.02538344                0.99945097               -0.05259303               -0.14310223                0.17390799               -0.20377161               -0.00091203                0.23725017
               0.01603825                9.99770241               15.01689648                1.00000000               -0.03214883               -0.03281912                0.10987763                0.00108587                0.01240925                0.01316213
               1.01571676                9.99627732               15.01535771                1.00000000               -0.03132990               -0.03112642                0.10445763                0.00081342                0.01565726                0.00066386
               2.01541165                9.99485603               15.01388331                1.00000000               -0.02970887               -0.02950984                0.09901328                0.00083028                0.01570120               -0.00347000
               3.01512258                9.99343975               15.01234778                0.01000001               -0.22837913               -0.02774684                0.09357152                0.22643148                0.09898705               -0.00409708
               4.01084406                9.99653979               15.01254460                0.01125225               -0.35638097                0.07587897                0.09126113                0.19784149                0.20737474               -0.02696127
               5.00799496                9.99783613               15.01324531                0.01000000               -0.26538060                0.06132194                0.09884167                0.06027889                0.22458281                0.01194792
               6.00553645                9.99873187               15.01467434                0.01000001               -0.24488146                0.05273404                0.11040038                0.02350201                0.27233957                0.01937033
               7.00309733                9.99907976               15.01691408                0.01033127               -0.25592144                0.04913256                0.12833250               -0.00843621                0.35291606                0.03685500
               8.00041802                9.99908556               15.02052722                0.01000001               -0.28330113                0.07550276                0.14594312               -0.10315645                0.46151358                0.09803938
               8.99743131                9.99722618               15.02536076                0.99946596               -0.17525791               -0.05264367                0.17421503               -0.07866532                0.25360810                0.00113973
               9.99691287                9.99694111               15.02514492                0.99976091               -0.05184426               -0.05179319                0.17166209                0.00079944                0.00101992               -0.00101966
               0.00120402                0.00171621               16.01310023                1.00000000               -0.02494589               -0.02491245                0.08310242               -0.00000290               -0.00380543                0.00356354
               1.00095457                0.00098944               16.01307863                1.00000000               -0.02495970               -0.02494161                0.08319435                0.00001439               -0.00423434               -0.00112269
               2.00070483                0.00026232               16.01305039                0.01003285               -0.02029277               -0.02497045                0.08328592                0.01006642                0.02657103               -0.00177323
               3.00054871               -0.00026414               16.01364591                0.01000000               -0.01950468               -0.02094958                0.08976742                0.00594930                0.07170833               -0.00775919
               4.00031474                0.00007698               16.01448042                0.01000001               -0.03787054               -0.01684360                0.09724583                0.03489930                0.10348416               -0.01453508
               4.99979130                0.00141322               16.01570179                0.01000000               -0.09982814               -0.01253385                0.10840793                0.09886353                0.14336566               -0.02092131
               5.99831817                0.00431322               16.01745343                0.33920093               -0.09057784               -0.03351565                0.11286321                0.10270246                0.08644133               -0.00093823
               6.99797974                0.00515347               16.01792705                1.00000000               -0.03421650               -0.03392543                0.11469951                0.00014174                0.01474086               -0.00356344
               7.99763384                0.00598556               16.01824172                0.99999999               -0.03478424               -0.03430142                0.11591291                0.00022045                0.00803835               -0.00038190
               8.99728406                0.00680808               16.01857958                1.00000000               -0.03518402               -0.03469240                0.11722851                0.00020756                0.00737463                0.00090455
               9.99693016                0.00762086               16.01888007                0.99999999               -0.03538943               -0.03509595                0.11854065                0.00069886                0.00550612                0.00505257
               0.00193076                1.00146709               16.01315213                1.00000000               -0.02491090               -0.02489558                0.08298997               -0.00001709                0.00106335                0.00384715
               1.00168165                1.00074003               16.01313181                0.01000000               -0.02492395               -0.02492578                0.08308266                0.00000057                0.00279837               -0.00292169
               2.00143228                1.00001262               16.01314618                0.01000000               -0.04903904               -0.03262492                0.08317682               -0.00754004                0.03084801                0.00521744
               3.00070087                0.99952637               16.01368583                0.01000001               -0.08036162               -0.02073452                0.08999910                0.02116105                0.05939619               -0.01073602
               3.99982505                0.99990854               16.01436751                0.01000000               -0.10195299               -0.01706820                0.09549601                0.07742547                0.07363190               -0.01947405
               4.99866181                1.00128788               16.01531990                0.01000000               -0.11749901               -0.02133347                0.10314917                0.16137395                0.10677966               -0.02594219
               5.99747507                1.00397806               16.01688408                0.01000001               -0.07584132               -0.08465867                0.10973137                0.15378656                0.06911747               -0.03947698
               6.99714499                1.00481421               16.01728709                1.00000000               -0.03331660               -0.03343742                0.11145175               -0.00006097                0.00604755               -0.00367208
               7.99680874                1.00564255               16.01758826                0.99999995               -0.03382503               -0.03383445                0.11276120                0.00003365                0.00117466               -0.00029670
               8.99646849                1.00646116               16.01789313                1.00000000               -0.03421799               -0.03422530                0.11408727                0.00002144                0.00088871                0.00052181
               9.99612438                1.00726990               16.01818866                0.99999998               -0.03441066               -0.03463062                0.11538982                0.00048263                0.00036991                0.00630704
               0.00265780                2.00121830               16.01321115                0.01162939               -0.02487549               -0.02806793                0.08287846               -0.00926768                0.00161797                0.01060559
               1.00240905                2.00049093               16.01314947                0.01000000               -0.04450565               -0.03548607                0.08296985               -0.01113749                0.01638971                0.00569767
               2.00176769                1.99960982               16.01338126                0.01000001               -0.06665218               -0.04610701                0.08787442                0.00255246                0.03172452                0.00779869
               3.00107600                1.99932117               16.01365277                0.01000000               -0.08329776               -0.03430380                0.09128170                0.07081118                0.03937033               -0.01384837
               4.00010173                1.99973561               16.01412190                0.01000000               -0.10633731               -0.02988167                0.09569369                0.14857716                0.05282666               -0.02305786
               4.99894926                2.00098655               16.01480026                0.01000001               -0.11170830               -0.04799500                0.10008751                0.21769814                0.05765556               -0.03213540
               5.99786757                2.00262005               16.01554299                0.01000003               -0.13176108               -0.10209420                0.10460647                0.24352158                0.07301664               -0.05886955
               6.99631404                2.00448472               16.01664340                0.01000000               -0.09399990               -0.07263671                0.10822464                0.15394576                0.03603278               -0.02597205
               7.99598757                2.00530887               16.01693581                0.05714515               -0.03284484               -0.03304585                0.10959782                0.00178184               -0.00583763                0.00734627
               8.99565714                2.00612358               16.01719913                0.99999999               -0.03326132               -0.03327430                0.11095040                0.00003960               -0.00429830               -0.00184040
               9.99532234                2.00692824               16.01752337                0.99985096               -0.03347955               -0.03370144                0.11225038                0.00049511               -0.00135517                0.00628989
               0.00320016                3.00090573               16.01339783                0.01016038               -0.01327726               -0.01869823                0.06209047                0.00858535                0.01500462                0.04786977
               1.00306738                3.00003031               16.01337359                0.01000001               -0.02735330               -0.06342084                0.07525420                0.00823781                0.01578199                0.02185910
               2.00265309                2.99909048               16.01353262                0.01000000               -0.05380391               -0.06746311                0.09222963                0.05908870                0.02562295               -0.00076304
               3.00199130                2.99884029               16.01361037                0.01000000               -0.07609346               -0.06038899                0.09339576                0.13552943                0.03291455               -0.01517304
               4.00113122                2.99931091               16.01391542                0.01072408               -0.09299796               -0.05649099                0.09645222                0.20529666                0.04636304               -0.02124073
               5.00013135                3.00032798               16.01433855                0.01000000               -0.11419449               -0.06677297                0.09829714                0.26978780                0.06060164               -0.02874740
               5.99884733                3.00193618               16.01493436                0.01000000               -0.12981357               -0.07881601                0.10255918                0.29143728                0.05896682               -0.01708826
               6.99753507                3.00336148               16.01555691                0.01000000               -0.18209059               -0.09669956                0.10533818                0.31516549                0.05795805               -0.02234480
               7.99520552                3.00498163               16.01643539                0.01000000               -0.13425820               -0.08198853                0.10534931                0.26634082                0.00672705                0.00367161
               8.99484991                3.00579567               16.01646647                0.01000002               -0.03402830               -0.09852718                0.10779064                0.21109049               -0.01825769                0.01550238
               9.99452495                3.00659587               16.01683367                0.21133866               -0.03249576               -0.19560214                0.10908942                0.24205167               -0.00161442                0.00931172
               0.00458036                4.00084434               16.01428937                0.01000000               -0.01912990               -0.02432433                0.08969749                0.03643551                0.00215342                0.08359414
               1.00438906                3.99922251               16.01394180                0.01000000               -0.02204386               -0.09618594                0.09137834                0.06624798                0.00366592                0.03007476
               2.00413948                3.99826056               16.01366262                0.01000000               -0.04114488               -0.09236612                0.09331448                0.13766584                0.01813394               -0.00901765
               3.00356616                3.99811339               16.01360258                0.01072488               -0.07097493               -0.07866228                0.09538793                0.19875350                0.03768154               -0.01872926
               4.00271998                3.99860579               16.01374179                0.01000000               -0.09232074               -0.07773425                0.09680638                0.25673549                0.05274898               -0.02229573
               5.00171974                3.99965109               16.01408660                0.01000000               -0.10285842               -0.07666169                0.09875850                0.29990441                0.06479058               -0.01342657
               6.00066281                4.00104373               16.01458830                0.01000000               -0.10739261               -0.09344775                0.10283389                0.33696153                0.06974690                0.00408107
               6.99957189                4.00255073               16.01519965                0.01000001               -0.08913098               -0.10569572                0.10536977                0.35026515                0.06101203                0.02557902
               7.99888019                4.00366910               16.01570883                0.01000000               -0.06535889               -0.13924640                0.10856403                0.38811566                0.04436519                0.02429956
               8.99826471                4.00415304               16.01612143                0.01000000               -0.01586005               -0.16581313                0.11054271                0.28333117                0.01998899                0.04855608
               9.99856299                4.00301620               16.01623193                0.01072071                0.02982767               -0.25983462                0.11540248                0.21504018                0.01084741                0.01228828
               0.00717252                5.00041924               16.01514588                0.01000000               -0.01963973               -0.10423369                0.10055102                0.11203559               -0.00194079                0.09832369
               1.00697612                4.99810659               16.01441850                0.01000000               -0.03284952               -0.10295562                0.09713957                0.17902987                0.00502105                0.02425823
               2.00651552                4.99724315               16.01381495                0.01000001               -0.06774891               -0.09170291                0.09583741                0.21595453                0.02428889               -0.01873694
               3.00562114                4.99726704               16.01357070                0.01000000               -0.08936452               -0.09399027                0.09765552                0.25781204                0.04498975               -0.02443577
               4.00472823                4.99775622               16.01362619                0.01000000               -0.09648185               -0.08612347                0.09766137                0.28712376                0.07254087               -0.02412389
               5.00369150                4.99879474               16.01396501                0.01000000               -0.10206574               -0.08660208                0.10074597                0.31402700                0.09017779               -0.00699596
               6.00268692                5.00006722               16.01450716                0.01000007               -0.08882519               -0.09950220                0.10256435                0.31534361                0.09780087                0.02091940
               7.00191500                5.00124757               16.01516942                0.01036572               -0.06606968               -0.12705817                0.11233886                0.30778575                0.09317968                0.05443489
               8.00136553                5.00219670               16.01580735                0.01000000               -0.03727810               -0.14545344                0.11364497                0.26787500                0.08549829                0.07539466
               9.00116944                5.00247941               16.01620989                0.01000000               -0.01330505               -0.15308182                0.11354088                0.18604914                0.05319911                0.09645644
              10.00109942                5.00139918               16.01622939                0.01000000               -0.00700122               -0.11129316                0.11160658                0.09202855                0.03382937                0.07286579
               0.01144638                5.99875966               16.01630425                0.85106752               -0.03006354               -0.09860815                0.10297176                0.13369276               -0.00342043                0.05525436
               1.01114574                5.99716340               16.01499481                0.01000000               -0.10741337               -0.06212095                0.09819413                0.17106377                0.00766117                0.01059003
               2.00929811                5.99642650               16.01391359                0.01000003               -0.14682069               -0.09799654                0.09756133                0.24952947                0.02632654               -0.03380440
               3.00820933                5.99623359               16.01346878                0.01000000               -0.11816775               -0.09600307                0.09941735                0.27082271                0.07244369               -0.03968084
               4.00693476                5.99688333               16.01354957                0.01000000               -0.12600222               -0.08722163                0.10057468                0.30552178                0.10746553               -0.03140187
               5.00568928                5.99791905               16.01396569                0.01000007               -0.12089470               -0.07800378                0.10112832                0.29684681                0.13128537               -0.00681370
               6.00451686                5.99905368               16.01467597                0.01063817               -0.10455793               -0.08977715                0.11216047                0.26408449                0.14030623                0.03073816
               7.00359813                6.00000957               16.01553039                0.01000000               -0.07555082               -0.11173195                0.11804662                0.21394786                0.14571656                0.07944112
               8.00300585                6.00076004               16.01646897                0.01000000               -0.04074498               -0.13704343                0.11646333                0.16051956                0.12775299                0.12983800
               9.00278323                6.00109140               16.01706896                0.01000001               -0.02209050               -0.13057390                0.11808495                0.09355468                0.07800528                0.16748940
              10.00256404                6.00079034               16.01699604                0.01000001               -0.02191908               -0.04303819                0.11875593                0.04735497                0.04513433                0.16389728
               0.01303890                6.99844708               16.01671510                0.99999999               -0.03083442               -0.03158528                0.10531773                0.00022749               -0.00256356                0.02008600
               1.01273055                6.99686417               16.01530738                1.00000000               -0.03014858               -0.03021284                0.10046318               -0.00027990               -0.00536782               -0.00015820
               2.01243593                6.99528322               16.01384815                0.01000000               -0.10748915               -0.07163081                0.09596918                0.15951403                0.04062154               -0.03144755
               3.01058077                6.99534698               16.01336713                0.01000000               -0.16413576               -0.11931047                0.10203560                0.28641527                0.10027147               -0.05588132
               4.00915321                6.99601179               16.01348297                0.01000001               -0.15613438               -0.07245859                0.09985865                0.30635744                0.15315551               -0.05277629
               5.00745808                6.99723467               16.01405337                0.01037171               -0.16375604               -0.05426318                0.10713385                0.27738438                0.17824375               -0.01282732
               6.00587809                6.99827168               16.01499420                0.01000000               -0.14852399               -0.05479161                0.11776459                0.19864915                0.19186258                0.04174963
               7.00448760                6.99901293               16.01632634                0.01000000               -0.11920028               -0.07398528                0.11722798                0.10382025                0.20646865                0.10473720
               8.00349408                6.99945584               16.01775693                0.01000000               -0.07386872               -0.11132623                0.12557596                0.02251640                0.18393532                0.18681164
               9.00301023                6.99986793               16.01877715                0.01000000               -0.04227187               -0.12117035                0.13133825               -0.01297769                0.11283942                0.25635103
              10.00264865                7.00053841               16.01881877                0.01000001               -0.03615816               -0.03352000                0.13570659               -0.01823873                0.06375600                0.30096290
               0.01461675                7.99812796               16.01717296                0.99999998               -0.03127495               -0.03214115                0.10689386                0.00016207               -0.00066560                0.02238386
               1.01430400                7.99655914               16.01567531                1.00000000               -0.03055875               -0.03069142                0.10204619               -0.00009690               -0.00030498                0.00281258
               2.01400558                7.99499389               16.01418712                0.01000000               -0.05474680               -0.02914644                0.09720589                0.02061770                0.03210956               -0.01529040
               3.01320907                7.99384738               16.01334292                0.01000000               -0.14156780               -0.10969340                0.06651541                0.25658739                0.14904492               -0.12500521
               4.01117422                7.99543415               16.01326891                0.01000000               -0.21159912               -0.04615245                0.10418051                0.34588261                0.18289152               -0.05182957
               5.00897708                7.99683378               16.01412696                0.01000000               -0.22313166               -0.00699431                0.11265662                0.24633349                0.21762214               -0.01298578
               6.00671159                7.99795785               16.01543929                0.01000000               -0.22433534               -0.00044719                0.11429471                0.13421726                0.25126858                0.04126155
               7.00449038                7.99852986               16.01730017                0.01000003               -0.20552101               -0.01247436                0.12514773                0.00733861                0.28676953                0.10145791
               8.00260117                7.99853351               16.01971179                0.01000002               -0.15246394               -0.04508248                0.13574700               -0.11835404                0.27432064                0.19693666
               9.00144110                7.99866799               16.02161064                0.01008360               -0.08714302               -0.09276201                0.14531829               -0.20298977                0.18170245                0.45296657
              10.00085831                8.00011994               16.02232828                0.01000000               -0.05827910               -0.14193758                0.14813275               -0.14527454                0.11957623                0.44936205
               0.01617977                8.99780426               16.01763024                1.00000000               -0.03170825               -0.03254342                0.10819406                0.00017615                0.00230741                0.01770789
               1.01586269                8.99625034               16.01605145                0.99999999               -0.03098622               -0.03103599                0.10330261               -0.00004284                0.00126464                0.00187532
               2.01556004                8.99470029               16.01445232                1.00000000               -0.02952180               -0.02954698                0.09835568               -0.00009573               -0.00481793               -0.01130405
               3.01527225                8.99315312               16.01275538                0.01223635               -0.12377932               -0.04878191                0.09331999                0.19942675                0.09980123               -0.05981024
               4.01308446                8.99508874               16.01325531                0.01000000               -0.27055966                0.02463917                0.08429456                0.28143822                0.25771785               -0.05915723
               5.00986106                8.99709478               16.01414744                0.01000000               -0.31090500                0.05168519                0.10929364                0.17365309                0.26094677               -0.00608351
               6.00686636                8.99826274               16.01577742                0.01000000               -0.29011713                0.04685494                0.11657853                0.06917345                0.29192268                0.02588248
               7.00405871                8.99876344               16.01806747                0.01000002               -0.29387428                0.04041979                0.12849041               -0.02308839                0.34646094                0.06410159
               8.00098887                8.99855419               16.02128941                0.01000001               -0.33473539                0.04383972                0.14442060               -0.12565427                0.51231173                0.13809512
               8.99736401                8.99801269               16.02736049                0.99999998               -0.20748037               -0.05903349                0.17578464               -0.23121625                0.31442910                0.30139714
               9.99683926                8.99769966               16.02712235                0.99999999               -0.05247417               -0.14696390                0.17387136               -0.21663552               -0.00091394                0.25165933
               0.01772811                9.99747709               16.01799338                0.99999999               -0.03210006               -0.03271685                0.10946600                0.00096734                0.01239822                0.01311008
               1.01740711                9.99593842               16.01640307                0.99999998               -0.03136111               -0.03119178                0.10457061                0.00073505                0.01566158                0.00059279
               2.01710089                9.99440295               16.01487686                1.00000000               -0.02989777               -0.02973479                0.09965257                0.00075003                0.01571432               -0.00355170
               3.01680915                9.99287174               16.01328959                0.01000001               -0.21197839               -0.02813765                0.09473968                0.22988976                0.09373989               -0.00410768
               4.01286132                9.99592694               16.01332897                0.01113920               -0.37665004                0.08381945                0.08124270                0.22747338                0.23014912               -0.04912274
               5.00927615                9.99786749               16.01424961                0.01000000               -0.32174596                0.07727040                0.10411058                0.08990998                0.24720550                0.01236575
               6.00642640                9.99889495               16.01580582                0.01000001               -0.27694958                0.06322114                0.11544933                0.02954258                0.28654002                0.02080464
               7.00373716                9.99933826               16.01819622                0.01000000               -0.27937856                0.05748163                0.12871316               -0.00638767                0.37418001                0.04046924
               8.00083883                9.99941030               16.02199407                0.01157951               -0.30329299                0.08561185                0.14748697               -0.10755118                0.48855614                0.10451160
               8.99767130                9.99748732               16.02710309                0.99999999               -0.18435815               -0.05253719                0.17425295               -0.08075298                0.26849902                0.00114046
               9.99715166                9.99718066               16.02686494                0.99992237               -0.05196352               -0.05190004                0.17233963                0.00057370                0.00102095               -0.00102078
               0.00118710                0.00170051               17.01393324                1.00000000               -0.02504259               -0.02498501                0.08349582               -0.00007538               -0.00380851                0.00355755
               1.00093668                0.00092560               17.01391175                1.00000000               -0.02503341               -0.02496475                0.08342644               -0.00001089               -0.00423760               -0.00112798
               2.00068644                0.00014935               17.01388360                0.01000000               -0.01954252               -0.02494417                0.08335633                0.01243481                0.02986076               -0.00177097
               3.00054583               -0.00037942               17.01454509                0.01000000               -0.01885846               -0.02004952                0.09014233                0.00850816                0.07777957               -0.00748581
               4.00030927                0.00006085               17.01545657                0.01000001               -0.04079247               -0.01483454                0.09630440                0.04150668                0.11024935               -0.01472331
               4.99972998                0.00161601               17.01679606                0.01000001               -0.11229655               -0.01232842                0.11046628                0.11569571                0.14917312               -0.01932204
               5.99806334                0.00488885               17.01858042                0.32444961               -0.10017598               -0.03346380                0.11252013                0.11913839                0.08760007               -0.00094161
               6.99772646                0.00577350               17.01907233                0.99999734               -0.03409097               -0.03383863                0.11432951                0.00013330                0.01491614               -0.00365486
               7.99738152                0.00665094               17.01939988                0.99999999               -0.03471253               -0.03426233                0.11570065                0.00023679                0.00800800               -0.00040259
               8.99703221                0.00751940               17.01975171                1.00000000               -0.03516476               -0.03470128                0.11718527                0.00023904                0.00739319                0.00089600
               9.99667822                0.00837869               17.02006602                0.99999999               -0.03539873               -0.03515820                0.11865833                0.00071318                0.00550951                0.00508391
               0.00196126                1.00145066               17.01398239                0.99988708               -0.02491124               -0.02492256                0.08307302               -0.00006601                0.00106824                0.00384206
               1.00171215                1.00067595               17.01396221                0.01073310               -0.02489864               -0.02490150                0.08300638               -0.00000074                0.00280312               -0.00292941
               2.00146329                0.99989990               17.01397678                0.01000000               -0.05184980               -0.03207944                0.08294305               -0.00532846                0.03420747                0.00803238
               3.00067516                0.99942009               17.01458369                0.01000001               -0.08683361               -0.01971211                0.08994062                0.02804411                0.06426562               -0.00941177
               3.99972662                0.99991251               17.01532205                0.01000000               -0.11011093               -0.01580716                0.09528599                0.09058096                0.07659317               -0.01787563
               4.99847294                1.00149272               17.01635804                0.01000000               -0.12753232               -0.02193455                0.10523968                0.18573776                0.10726488               -0.02203139
               5.99717597                1.00455421               17.01798057                0.01000001               -0.08130968               -0.09329073                0.10954538                0.17718370                0.07148991               -0.04007099
               6.99684674                1.00543511               17.01840082                1.00000000               -0.03325197               -0.03337829                0.11125844               -0.00005439                0.00619124               -0.00373867
               7.99651093                1.00630832               17.01871546                1.00000000               -0.03380110               -0.03381417                0.11269232                0.00002609                0.00116605               -0.00031779
               8.99617072                1.00717239               17.01903429                1.00000000               -0.03424387               -0.03425226                0.11417721                0.00002656                0.00091619                0.00052641
               9.99582606                1.00802711               17.01934398                1.00000000               -0.03446656               -0.03471345                0.11567091                0.00046758                0.00040005                0.00632972
               0.00273521                2.00120206               17.01403869                0.01000000               -0.02477866               -0.02526585                0.08265355               -0.00575178                0.00162096                0.01642329
               1.00248742                2.00042757               17.01397711                0.01000000               -0.04497385               -0.04242469                0.08258303               -0.01730607                0.01921037                0.01171889
               2.00183573                1.99950776               17.01426551                0.01000001               -0.06966567               -0.04807653                0.08657688                0.00440395                0.03548049                0.01120722
               3.00109411                1.99922634               17.01455803                0.01000000               -0.08937415               -0.03507741                0.09073521                0.08433927                0.04191502               -0.01097106
               4.00004825                1.99974471               17.01507644                0.01000000               -0.11455386               -0.03047440                0.09545582                0.17223105                0.05579844               -0.02052135
               4.99880303                2.00117732               17.01580536                0.01000001               -0.11918141               -0.05368074                0.10025510                0.25072504                0.06122316               -0.03022542
               5.99766462                2.00302303               17.01659681                0.01000000               -0.14158848               -0.11429294                0.10527879                0.27784476                0.07414190               -0.05805516
               6.99597126                2.00510593               17.01772581                0.01000000               -0.10099274               -0.07801896                0.10820836                0.17319712                0.03675573               -0.02537080
               7.99564476                2.00597466               17.01803190                0.06158342               -0.03286579               -0.03300157                0.10967374                0.00150577               -0.00581078                0.00650032
               8.99531395                2.00683435               17.01830966                0.99999999               -0.03333230               -0.03334639                0.11119813                0.00004298               -0.00424175               -0.00179940
               9.99497812                2.00768442               17.01864811                1.00000000               -0.03358265               -0.03383107                0.11269582                0.00046465               -0.00131396                0.00629331
               0.00339522                3.00094535               17.01433917                0.01000000               -0.03348812               -0.02064877                0.10355697               -0.00069759                0.01447043                0.06338810
               1.00306034                2.99982746               17.01431916                0.01000001               -0.03213081               -0.07376870                0.09751153                0.01266186                0.01126145                0.02822230
               2.00275260                2.99893837               17.01441399                0.01000000               -0.04676723               -0.07472618                0.08856569                0.07687173                0.02440551                0.00126029
               3.00212499                2.99871854               17.01454549                0.01000000               -0.07661684               -0.06382817                0.09256469                0.15822507                0.03580307               -0.01268309
               4.00122026                2.99930302               17.01486057                0.01055702               -0.09579380               -0.06008290                0.09445879                0.23210387                0.04679864               -0.01965064
               5.00020911                3.00041911               17.01530859                0.01000000               -0.12080057               -0.07301676                0.09813842                0.30466092                0.05838266               -0.02262903
               5.99880425                3.00226835               17.01597086                0.01000000               -0.14250270               -0.08589040                0.10374626                0.32961986                0.05876143               -0.01322573
               6.99735906                3.00387473               17.01662084                0.01000000               -0.19958112               -0.10522740                0.10651182                0.35133201                0.05731611               -0.02030177
               7.99481263                3.00564829               17.01748395                0.01000001               -0.14486228               -0.08605487                0.10428281                0.29232684                0.00646116                0.00658989
               8.99446181                3.00650546               17.01754680                0.01000000               -0.03387121               -0.10422519                0.10825523                0.22974988               -0.01735196                0.01801176
               9.99413521                3.00735049               17.01792752                0.22591823               -0.03266094               -0.21065969                0.10969991                0.26252957               -0.00162417                0.01470114
               0.00495703                4.00078909               17.01523409                0.01000000               -0.02094036               -0.02831384                0.09652243                0.04193904                0.00075371                0.08918066
               1.00474763                3.99895219               17.01486029                0.01000000               -0.02374746               -0.10087913                0.09352557                0.09342344                0.00542453                0.03112840
               2.00448208                3.99801323               17.01459685                0.01000000               -0.04268326               -0.10096318                0.09338575                0.17191031                0.02030085               -0.00563283
               3.00389397                3.99794978               17.01453835                0.01055778               -0.07461652               -0.08139771                0.09348161                0.22867626                0.03897023               -0.01723120
               4.00298975                3.99854305               17.01468932                0.01000000               -0.09815238               -0.08408674                0.09532985                0.29002807                0.05473300               -0.01905212
               5.00193092                3.99971698               17.01506343                0.01000000               -0.10941813               -0.08134991                0.09853579                0.33524143                0.06802011               -0.00732811
               6.00080139                4.00130522               17.01562105                0.01000000               -0.11564765               -0.10168774                0.10393624                0.37715080                0.07358972                0.00784846
               6.99961796                4.00300139               17.01626158                0.01000001               -0.09704071               -0.11252689                0.10788182                0.38883067                0.06296364                0.03024872
               7.99886058                4.00425356               17.01680115                0.01000001               -0.07056125               -0.15014448                0.10932036                0.42849371                0.04292550                0.03218907
               8.99820674                4.00474985               17.01722041                0.01000000               -0.01609667               -0.17462114                0.10963113                0.31046854                0.00890561                0.07074094
               9.99853864                4.00347123               17.01740308                0.01061188                0.03319048               -0.27846057                0.11187233                0.23561206                0.00010993                0.03734241
               0.00790778                5.00037907               17.01613081                0.01000001               -0.02031253               -0.11337454                0.09819145                0.13253055                0.00013740                0.10307617
               1.00770466                4.99780987               17.01538673                0.01000000               -0.03572786               -0.10668496                0.09655947                0.21166307                0.00751396                0.02727760
               2.00719322                4.99691911               17.01478299                0.01000001               -0.07679787               -0.09709639                0.09681736                0.25723397                0.02825409               -0.01654060
               3.00616870                4.99709058               17.01453830                0.01000000               -0.09698028               -0.10068855                0.09666333                0.29747643                0.05165442               -0.02484882
               4.00525362                4.99762128               17.01459447                0.01000000               -0.10084650               -0.09410257                0.09783492                0.32408035                0.07656708               -0.01822399
               5.00415177                4.99879211               17.01498396                0.01000000               -0.10953776               -0.09458089                0.10258115                0.35522064                0.09480566               -0.00060146
               6.00306286                5.00023460               17.01556782                0.01000001               -0.09822158               -0.10886101                0.10719105                0.35728620                0.10204356                0.02787155
               7.00218734                5.00162420               17.01628011                0.01000000               -0.07144120               -0.13802152                0.11078764                0.34537587                0.09702726                0.05967533
               8.00163404                5.00264540               17.01692613                0.01000000               -0.03669112               -0.15732143                0.11326004                0.30144445                0.07576738                0.09431197
               9.00145352                5.00301303               17.01733923                0.01000000               -0.01146785               -0.16263514                0.11282744                0.21122329                0.04604325                0.11263948
              10.00140468                5.00178128               17.01733951                0.01000000               -0.00488323               -0.11758161                0.11236023                0.10486591                0.03105449                0.08359754
               0.01274603                5.99852160               17.01733854                0.82881926               -0.03051841               -0.10861242                0.10399339                0.15656627               -0.00338077                0.05774957
               1.01244085                5.99681849               17.01598401                0.01000000               -0.11999896               -0.06471906                0.09973445                0.19895876                0.00975939                0.01153990
               2.01034606                5.99607131               17.01490045                0.01000000               -0.16497649               -0.10470641                0.09874886                0.28800144                0.03225661               -0.03401640
               3.00914132                5.99593600               17.01447692                0.01000000               -0.12881102               -0.10757527                0.10132244                0.31192837                0.07880618               -0.03302366
               4.00776983                5.99666100               17.01457264                0.01000000               -0.13596512               -0.09658058                0.10286843                0.34572370                0.11057296               -0.02345720
               5.00642202                5.99782536               17.01501448                0.01000001               -0.13274021               -0.08724481                0.10634848                0.33781604                0.13343969                0.00195827
               6.00511503                5.99912800               17.01578907                0.01006051               -0.11536691               -0.09615028                0.11105341                0.29906968                0.14555944                0.04012281
               7.00411468                6.00024095               17.01668935                0.01000000               -0.08072012               -0.12238598                0.11668321                0.24648576                0.14446902                0.09004805
               8.00350063                6.00110713               17.01763259                0.01000000               -0.04096782               -0.14621354                0.11781911                0.18642400                0.12864261                0.14367695
               9.00329532                6.00149715               17.01826078                0.01000000               -0.02005771               -0.14134857                0.11990568                0.10826864                0.07956261                0.18123150
              10.00309947                6.00111960               17.01819437                0.01000001               -0.01958499               -0.04512505                0.12072705                0.05474994                0.04719993                0.17608627
               0.01444531                6.99820682               17.01777108                0.99999999               -0.03111874               -0.03171326                0.10594974                0.00016750               -0.00262893                0.02070097
               1.01413412                6.99651549               17.01631689                1.00000000               -0.03047825               -0.03051014                0.10151200               -0.00023609               -0.00531728                0.00037842
               2.01383574                6.99482498               17.01481458                0.01000000               -0.11582738               -0.07697690                0.09738896                0.17971690                0.04940873               -0.03314185
               3.01181757                6.99493908               17.01446280                0.01000000               -0.17785046               -0.12856603                0.10517515                0.32655834                0.10855843               -0.06374038
               4.01027873                6.99568967               17.01449959                0.01000001               -0.16882443               -0.08154344                0.10506845                0.34377413                0.14367431               -0.03303032
               5.00844108                6.99704721               17.01514550                0.01000000               -0.18250341               -0.05848067                0.10961646                0.31494926                0.17963999               -0.00152355
               6.00662867                6.99831159               17.01615355                0.01000000               -0.16515798               -0.05670245                0.11593798                0.23165355                0.19963341                0.04567267
               7.00513793                6.99917648               17.01750710                0.01000000               -0.12611689               -0.07782008                0.12096872                0.12633439                0.21121791                0.11318841
               8.00410633                6.99972113               17.01901933                0.01000000               -0.07657519               -0.11774318                0.12599127                0.03539961                0.19140026                0.20109190
               9.00360642                7.00018606               17.02009006                0.01000002               -0.04257758               -0.12841785                0.13149206               -0.00846036                0.11770929                0.27387373
              10.00325478                7.00087878               17.02015288                0.01000001               -0.03516444               -0.03163885                0.13301347               -0.01783190                0.06788111                0.31657860
               0.01613204                7.99788733               17.01824215                1.00000000               -0.03140722               -0.03212397                0.10700006                0.00013184               -0.00064483                0.02245965
               1.01581797                7.99620829               17.01669869                1.00000000               -0.03076156               -0.03085805                0.10267059               -0.00005180               -0.00031212                0.00286777
               2.01551681                7.99453177               17.01516471                0.01000000               -0.05050846               -0.02948399                0.09833739                0.02524590                0.01030142               -0.01547387
               3.01480780                7.99336468               17.01383913                0.01000001               -0.14898133               -0.11823665                0.07413836                0.27869849                0.10425837               -0.07478017
               4.01253718                7.99503013               17.01442055                0.01000001               -0.23543561               -0.05759395                0.11208195                0.39192363                0.20048275               -0.05356226
               5.01009909                7.99665575               17.01524750                0.01000000               -0.24591710               -0.00343110                0.11250835                0.28538892                0.22351570               -0.00766742
               6.00761884                7.99799396               17.01660525                0.01000000               -0.24336273                0.00220328                0.11768683                0.16209051                0.25767843                0.04619394
               7.00523183                7.99868455               17.01855992                0.01000000               -0.22099031               -0.01010279                0.12576962                0.01980775                0.29818831                0.11062084
               8.00319903                7.99875227               17.02107657                0.01000002               -0.16316830               -0.04554804                0.13702309               -0.11930431                0.28612496                0.20971439
               9.00196846                7.99892879               17.02306813                0.01008214               -0.09208135               -0.09489811                0.14579018               -0.21352444                0.19115515                0.47842154
              10.00135741                8.00048682               17.02382137                0.01000000               -0.06110588               -0.14616060                0.14929960               -0.15304454                0.12677866                0.47256159
               0.01780602                8.99756434               17.01871123                1.00000000               -0.03173747               -0.03245007                0.10801014                0.00013903                0.00229701                0.01768435
               1.01748865                8.99589833               17.01708612                0.99999999               -0.03108763               -0.03111790                0.10363110               -0.00002467                0.00122512                0.00180062
               2.01718427                8.99423530               17.01544014                1.00000000               -0.02977331               -0.02979309                0.09920606               -0.00006914               -0.00492368               -0.01145885
               3.01689318                8.99257435               17.01369552                0.01196738               -0.11790643               -0.05377496                0.09470477                0.20199777                0.09781733               -0.03828005
               4.01482614                8.99453779               17.01411092                0.01000000               -0.28540716                0.01899349                0.09287615                0.31770448                0.23700709               -0.05397487
               5.01118504                8.99697859               17.01530013                0.01000000               -0.34922339                0.06116768                0.11429987                0.20905008                0.26603350               -0.00467899
               6.00784167                8.99835566               17.01696267                0.01000000               -0.32046354                0.05486013                0.11900722                0.08488194                0.29925839                0.03051389
               7.00477577                8.99897442               17.01936045                0.01000002               -0.31828335                0.04735450                0.13006013               -0.01923180                0.36085043                0.06960078
               8.00147601                8.99881017               17.02274060                0.01000001               -0.35871940                0.05071030                0.14553572               -0.13015407                0.53691474                0.14707626
               8.99760138                8.99828810               17.02911497                0.99999998               -0.21990925               -0.05825026                0.17511252               -0.24463243                0.33038884                0.31683564
               9.99707782                8.99795557               17.02886087                0.99999999               -0.05235579               -0.15256574                0.17383318               -0.23064417               -0.00091607                0.26451640
               0.01946684                9.99723833               17.01908580                0.99999999               -0.03203253               -0.03260119                0.10898665                0.00084202                0.01239643                0.01307732
               1.01914651                9.99558593               17.01744912                1.00000000               -0.03137127               -0.03123980                0.10460189                0.00066532                0.01566938                0.00053566
               2.01883941                9.99393591               17.01587636                0.99999999               -0.03006247               -0.02993961                0.10020828                0.00067678                0.01573806               -0.00361945
               3.01854526                9.99228918               17.01424257                0.01100363               -0.21761939               -0.02851604                0.09581739                0.23891283                0.09048951               -0.00412034
               4.01448702                9.99541000               17.01416946                0.01106685               -0.40415190                0.08722072                0.08596169                0.24558425                0.20052954               -0.02973063
               5.01046222                9.99787910               17.01532752                0.01000000               -0.35831873                0.09005116                0.10780525                0.11177656                0.25313180                0.00524440
               6.00732065                9.99909116               17.01698332                0.01000001               -0.30347701                0.07355026                0.11841224                0.03552462                0.29515200                0.02298451
               7.00439268                9.99963164               17.01948834                0.01000000               -0.30191893                0.06572229                0.13002748               -0.00454246                0.39024897                0.04392574
               8.00128227                9.99976647               17.02347696                0.01076739               -0.32311343                0.09563086                0.14892075               -0.11276648                0.51288567                0.11056081
               8.99793042                9.99776378               17.02884582                0.99999999               -0.19363392               -0.05243169                0.17429245               -0.08364470                0.28228882                0.00114121
               9.99740959                9.99743551               17.02859171                1.00000000               -0.05208234               -0.05200591                0.17301309                0.00034940                0.00102215               -0.00102192
               0.00117084                0.00168907               18.01477015                1.00000000               -0.02513852               -0.02505890                0.08388543               -0.00014661               -0.00381123                0.00355828
               1.00091945                0.00086596               18.01474716                1.00000000               -0.02510646               -0.02498802                0.08365462               -0.00003903               -0.00423968               -0.00112910
               2.00066871                0.00004054               18.01471751                0.01000000               -0.01940549               -0.02491784                0.08342370                0.01477510                0.03342176               -0.00177056
               3.00053134               -0.00049105               18.01544876                0.01000000               -0.01999759               -0.01837568                0.09028136                0.01150853                0.08327283               -0.00724954
               4.00026875                0.00005155               18.01640651                0.01000001               -0.04402181               -0.01203953                0.09624821                0.05107319                0.11867648               -0.01451751
               4.99965090                0.00190280               18.01791112                0.01118143               -0.12374245               -0.00648599                0.10272300                0.12189541                0.15037449               -0.02257461
               5.99779391                0.00549409               18.01970383                0.31014788               -0.10961508               -0.03338382                0.11210837                0.13284700                0.08735710               -0.00094986
               6.99745860                0.00642338               18.02021364                0.99985559               -0.03396411               -0.03374210                0.11393149                0.00014647                0.01498759               -0.00373733
               7.99711462                0.00734637               18.02055573                0.99999999               -0.03464101               -0.03421949                0.11546871                0.00026966                0.00797334               -0.00040725
               8.99676578                0.00826083               18.02092329                1.00000000               -0.03514504               -0.03471009                0.11712823                0.00026393                0.00741664                0.00089676
               9.99641172                0.00916663               18.02125323                1.00000000               -0.03540598               -0.03522293                0.11878973                0.00070925                0.00552880                0.00509947
               0.00199248                1.00143848               18.01481359                0.99976223               -0.02491570               -0.02495418                0.08316908               -0.00011288                0.00107148                0.00384329
               1.00174332                1.00061608               18.01479194                0.01052899               -0.02487594               -0.02488005                0.08293920               -0.00000610                0.00280516               -0.00293162
               2.00149496                0.99979136               18.01480504                0.01000000               -0.05511998               -0.03218888                0.08271062               -0.00316022                0.03791804                0.00926701
               3.00064092                0.99932519               18.01548464                0.01000001               -0.09562007               -0.01844996                0.09013468                0.03559076                0.07027329               -0.00843583
               3.99958256                0.99993115               18.01627323                0.01000000               -0.12461675               -0.01324430                0.09647905                0.11071817                0.08340025               -0.01641979
               4.99814859                1.00183794               18.01742469                0.01000000               -0.13602350               -0.02356557                0.10245291                0.21157717                0.10953360               -0.02448065
               5.99686209                1.00516025               18.01907498                0.01000001               -0.08073301               -0.10127185                0.10928296                0.19420319                0.07216646               -0.04073154
               6.99653393                1.00608596               18.01951226                1.00000000               -0.03317484               -0.03330428                0.11101795               -0.00003093                0.00624876               -0.00380292
               7.99619859                1.00700417               18.01984210                1.00000000               -0.03378181               -0.03379923                0.11263204                0.00003272                0.00116481               -0.00032183
               8.99585829                1.00791373               18.02017667                1.00000000               -0.03427871               -0.03428718                0.11429512                0.00002694                0.00093924                0.00054087
               9.99551302                1.00881440               18.02050208                1.00000000               -0.03452733               -0.03480347                0.11596063                0.00043909                0.00042052                0.00635019
               0.00281338                2.00118998               18.01486422                0.01000000               -0.02469377               -0.02301921                0.08245464               -0.00530766                0.00162373                0.03191895
               1.00256644                2.00036836               18.01480113                0.01000000               -0.04584978               -0.04522519                0.08222199               -0.01593719                0.02044776                0.02103103
               2.00189639                1.99939676               18.01511280                0.01000001               -0.07315381               -0.05035127                0.08601711                0.00957552                0.03908352                0.01331951
               3.00110337                1.99913995               18.01546747                0.01000000               -0.09630091               -0.03594448                0.09080912                0.10048768                0.04698397               -0.00969201
               3.99997037                1.99978666               18.01603102                0.01000000               -0.12250087               -0.03130642                0.09540213                0.20065369                0.05954919               -0.01938774
               4.99865335                2.00143149               18.01680536                0.01000001               -0.12702045               -0.06103084                0.10082201                0.28610563                0.06539533               -0.03060353
               5.99742996                2.00346865               18.01764857                0.01000000               -0.15196442               -0.12564124                0.10448558                0.30870102                0.07596255               -0.05751174
               6.99561406                2.00575729               18.01880757                0.01000000               -0.10712278               -0.08331405                0.10812674                0.19180551                0.03748595               -0.02470078
               7.99528750                2.00667038               18.01912928                0.06558678               -0.03289830               -0.03299960                0.10978471                0.00139945               -0.00577213                0.00493998
               8.99495610                2.00757509               18.01942309                0.99999999               -0.03341675               -0.03342817                0.11148656                0.00005917               -0.00419852               -0.00176302
               9.99461917                2.00847056               18.01977729                1.00000000               -0.03369278               -0.03397395                0.11315668                0.00044673               -0.00129103                0.00631023
               0.00352958                3.00097809               18.01546896                0.01000003               -0.03117835               -0.01768375                0.10727782               -0.00016988                0.00140228                0.07235284
               1.00321780                2.99971157               18.01532382                0.01000001               -0.03073527               -0.07954205                0.09755772                0.01872950                0.00969065                0.04048061
               2.00291488                2.99878434               18.01530393                0.01000000               -0.04785094               -0.08089319                0.08944709                0.09328908                0.02500681                0.00555354
               3.00226078                2.99860630               18.01546166                0.01000000               -0.08053925               -0.06819997                0.09172457                0.18352083                0.03943762               -0.01112731
               4.00130409                2.99930502               18.01580460                0.01044236               -0.10360344               -0.06479018                0.09502591                0.26651081                0.05010951               -0.01845289
               5.00018871                3.00061733               18.01630132                0.01000000               -0.12968900               -0.08011674                0.09950299                0.34187309                0.05849458               -0.01726920
               5.99871031                3.00264743               18.01700929                0.01000001               -0.15102023               -0.09324568                0.10346600                0.36544236                0.05955945               -0.00969927
               6.99716831                3.00441967               18.01768714                0.01000000               -0.21507635               -0.11304305                0.10591255                0.38668800                0.05576664               -0.01685206
               7.99440878                3.00634418               18.01852104                0.01000001               -0.15545033               -0.08998357                0.10381464                0.31589344                0.00606920                0.00926467
               8.99405930                3.00724517               18.01863157                0.01199333               -0.03388870               -0.08998347                0.10870685                0.23377706               -0.01573040                0.01993747
               9.99373101                3.00813492               18.01902767                0.24117130               -0.03282889               -0.20597500                0.11034667                0.26800881               -0.00162638                0.01445960
               0.00534303                4.00083631               18.01621982                0.01000000               -0.02082365               -0.03008883                0.09915672                0.05081327               -0.00133858                0.08936097
               1.00513479                3.99877751               18.01581231                0.01000000               -0.02377947               -0.10915767                0.09574389                0.10995077                0.00611525                0.03590345
               2.00486744                3.99777890               18.01553034                0.01000000               -0.04408456               -0.10877969                0.09332450                0.20062958                0.02359178               -0.00030541
               3.00425310                3.99777595               18.01547221                0.01044306               -0.07889382               -0.08874000                0.09381803                0.26469640                0.04310959               -0.01520361
               4.00328956                3.99849086               18.01564839                0.01000000               -0.10523441               -0.08983002                0.09644080                0.32815196                0.05969437               -0.01561824
               5.00214841                3.99982916               18.01605732                0.01000000               -0.11765508               -0.08928298                0.10018975                0.37692178                0.07275421               -0.00156144
               6.00093646                4.00160374               18.01666703                0.01000000               -0.12486721               -0.10953929                0.10464913                0.41942992                0.07884627                0.01332823
               6.99965107                4.00349643               18.01735729                0.01000001               -0.10782898               -0.12031867                0.10947272                0.42979532                0.06789236                0.03668378
               7.99877988                4.00487071               18.01789523                0.01000001               -0.09050841               -0.15463385                0.11063149                0.48459796                0.04773918                0.03662348
               8.99784090                4.00577542               18.01831405                0.01000000               -0.02900205               -0.17766696                0.10755069                0.35489813                0.00085532                0.08669266
               9.99819984                4.00435106               18.01846938                0.01053893                0.03589402               -0.29275434                0.10546164                0.25701094               -0.01394117                0.05660407
               0.00866343                5.00037632               18.01710971                0.01000001               -0.01892126               -0.12809606                0.09836613                0.15244977                0.00065598                0.10972458
               1.00847422                4.99752842               18.01634968                0.01000000               -0.03672014               -0.11567406                0.09667770                0.24383310                0.01076472                0.03205182
               2.00792903                4.99660874               18.01575130                0.01000001               -0.08157358               -0.10321582                0.09659971                0.29429935                0.03327610               -0.01278072
               3.00684275                4.99683150               18.01550396                0.01000000               -0.10575536               -0.10636678                0.09666084                0.33799222                0.05968677               -0.02358541
               4.00581392                4.99750842               18.01558288                0.01000000               -0.11142420               -0.09908975                0.09934634                0.36596288                0.08265758               -0.01222824
               5.00461427                4.99883167               18.01601663                0.01000000               -0.11911433               -0.10162430                0.10386813                0.39707275                0.10053683                0.00785961
               6.00343164                5.00045664               18.01665098                0.01000001               -0.10585139               -0.11666629                0.10905754                0.39991772                0.10570768                0.03496861
               7.00249724                5.00201330               18.01738517                0.01000001               -0.08049413               -0.14564481                0.11201766                0.38938911                0.09743534                0.07077888
               8.00182175                5.00325150               18.01807255                0.01000000               -0.04101617               -0.16651731                0.11394186                0.34529607                0.07049547                0.11005910
               9.00167691                5.00369183               18.01846644                0.01000000               -0.00509037               -0.19051091                0.11483067                0.25000650                0.04200618                0.12535353
              10.00171995                5.00227983               18.01847659                0.01000000                0.00430330               -0.14261803                0.11540203                0.13085094                0.03204922                0.09612209
               0.01408782                5.99827439               18.01838412                0.80609921               -0.03087928               -0.12094163                0.10496328                0.18052779               -0.00339031                0.06121356
               1.01377902                5.99646403               18.01698950                0.01000000               -0.13187390               -0.06856812                0.10120996                0.22733419                0.01093148                0.01366042
               2.01145034                5.99571458               18.01588856                0.01000000               -0.18328804               -0.11263083                0.09880262                0.32668708                0.03735605               -0.03329353
               3.01011326                5.99564862               18.01549523                0.01000001               -0.14208428               -0.10607713                0.10049507                0.35093305                0.08434483               -0.02914586
               4.00860865                5.99650906               18.01560694                0.01000000               -0.14858075               -0.10025756                0.10309604                0.38390677                0.11408209               -0.01277378
               5.00714165                5.99779667               18.01609266                0.01000001               -0.14277370               -0.09302452                0.10855757                0.37720047                0.13609526                0.01109188
               6.00575318                5.99927041               18.01689704                0.01000000               -0.12488325               -0.10438446                0.11268781                0.34321880                0.15158009                0.04889159
               7.00464398                6.00058353               18.01786405                0.01000000               -0.08729532               -0.13035844                0.11760192                0.28094444                0.14998092                0.10289533
               8.00400727                6.00154037               18.01882535                0.01000000               -0.04156427               -0.16089038                0.11989918                0.21495236                0.13196331                0.15519816
               9.00381270                6.00196520               18.01946707                0.01000000               -0.01832137               -0.15768859                0.12191845                0.12561448                0.08196768                0.19431556
              10.00364084                6.00149870               18.01941058                0.01000001               -0.01718523               -0.05184237                0.12282840                0.06138401                0.04890511                0.18805405
               0.01589470                6.99795748               18.01883410                0.99999999               -0.03139884               -0.03186934                0.10662346                0.00010526               -0.00279730                0.02122475
               1.01558071                6.99615706               18.01733762                1.00000000               -0.03082530               -0.03083826                0.10264182               -0.00025866               -0.00534410                0.00081471
               2.01527819                6.99435613               18.01579593                0.01000000               -0.12568881               -0.08278687                0.09895558                0.20868649                0.05278424               -0.03394971
               3.01306693                6.99470996               18.01547063                0.01000000               -0.19670937               -0.12647774                0.10077025                0.35361351                0.11432070               -0.05611857
               4.01134400                6.99550327               18.01558434                0.01000001               -0.18350031               -0.08787449                0.10809660                0.37140357                0.14432614               -0.01761404
               5.00939693                6.99697118               18.01624570                0.01000001               -0.19174257               -0.06354351                0.10999230                0.34933635                0.18648471                0.00470377
               6.00750915                6.99836895               18.01731296                0.01000000               -0.17753765               -0.05989048                0.11644815                0.26172587                0.21112149                0.05337212
               7.00584617                6.99940613               18.01874572                0.01000000               -0.13850081               -0.08473027                0.12313004                0.15017943                0.21996324                0.12241634
               8.00473913                7.00003370               18.02027675                0.01000000               -0.08076507               -0.12669179                0.12661206                0.04700513                0.19805613                0.21412231
               9.00423087                7.00053806               18.02140699                0.01000002               -0.04292523               -0.13768439                0.13240185               -0.00420039                0.12350982                0.28892151
              10.00388063                7.00124299               18.02147904                0.01025510               -0.03502406               -0.03177624                0.13351882               -0.01717925                0.07058829                0.33198409
               0.01769078                7.99763700               18.01931296                0.99999999               -0.03155696               -0.03215954                0.10721307                0.00008841               -0.00062682                0.02249033
               1.01737521                7.99584727               18.01772872                1.00000000               -0.03098066               -0.03105664                0.10336620               -0.00002926               -0.00031498                0.00290338
               2.01707116                7.99405885               18.01615387                0.01000001               -0.06684096               -0.02983330                0.09951027                0.04228892                0.01220155               -0.01561142
               3.01603839                7.99311906               18.01482569                0.01000001               -0.16478281               -0.13629437                0.10779382                0.30918053                0.08501907               -0.05901045
               4.01377551                7.99475157               18.01551055                0.01000001               -0.23878461               -0.06214669                0.10864859                0.41413622                0.19537631               -0.04303016
               5.01126270                7.99652580               18.01637713                0.01000000               -0.26113833               -0.00249974                0.10987159                0.31270419                0.23436615               -0.00373908
               6.00855274                7.99807260               18.01779303                0.01000000               -0.26399355                0.00629957                0.11874671                0.18225890                0.26625182                0.05278327
               7.00598282                7.99888893               18.01981556                0.01000000               -0.23686451               -0.00895512                0.12602635                0.02927738                0.30900616                0.11867625
               8.00381545                7.99900653               18.02245226                0.01000002               -0.17317127               -0.04691861                0.13798432               -0.12219497                0.29788444                0.22269767
               9.00251940                7.99921151               18.02452644                0.01005979               -0.09640252               -0.09831679                0.14592492               -0.22613571                0.19922045                0.50172674
              10.00188740                8.00086317               18.02531427                0.01000000               -0.06319992               -0.15116712                0.14945450               -0.16240867                0.13274320                0.49396373
               0.01947593                8.99731429               18.01979044                1.00000000               -0.03176514               -0.03237559                0.10784386                0.00009430                0.00228775                0.01769570
               1.01915828                8.99553592               18.01812407                0.99999999               -0.03118759               -0.03120663                0.10395601               -0.00000513                0.00119476                0.00175745
               2.01885218                8.99375946               18.01643644                1.00000000               -0.03002303               -0.03003633                0.10004581               -0.00004105               -0.00500231               -0.01157192
               3.01855782                8.99198407               18.01464948                0.01175444               -0.13160948               -0.07119230                0.09609248                0.23941673                0.10221433               -0.04040426
               4.01621999                8.99426034               18.01511283                0.01000000               -0.31139181                0.02318417                0.10286290                0.34742818                0.22618551               -0.04340216
               5.01232998                8.99692118               18.01643344                0.01000000               -0.37143918                0.06958942                0.10983264                0.22484136                0.26898782               -0.00313977
               6.00879120                8.99849494               18.01815756                0.01000000               -0.34160936                0.06203639                0.11961533                0.09608627                0.30593681                0.03549036
               7.00549779                8.99922703               18.02066867                0.01000002               -0.34092756                0.05360321                0.13120322               -0.01669676                0.37410990                0.07586106
               8.00197265                8.99909532               18.02420012                0.01000001               -0.38231396                0.05711402                0.14629461               -0.13658474                0.55960224                0.15545815
               8.99785151                8.99857172               18.03086274                0.99999998               -0.23217586               -0.05815324                0.17444479               -0.25963806                0.34528173                0.33154314
               9.99732913                8.99821964               18.03059901                0.99999999               -0.05223788               -0.15823188                0.17379333               -0.24556210               -0.00091835                0.27700859
               0.02124940                9.99698949               18.02017312                1.00000000               -0.03194653               -0.03248057                0.10845600                0.00071226                0.01240696                0.01307437
               1.02092994                9.99522314               18.01849511                1.00000000               -0.03136046               -0.03127883                0.10457540                0.00059769                0.01569483                0.00050328
               2.02062219                9.99345812               18.01688102                1.00000000               -0.03020457               -0.03013416                0.10070257                0.00060571                0.01577941               -0.00366366
               3.02032585                9.99169521               18.01520594                0.01000000               -0.24176155               -0.02888586                0.09683058                0.26465986                0.08838502               -0.00413820
               4.01578696                9.99521526               18.01504821                0.01102992               -0.44004631                0.09549183                0.09281681                0.26781635                0.19202925               -0.01980078
               5.01152492                9.99791759               18.01640572                0.01000000               -0.38091716                0.09964077                0.10786353                0.12439772                0.26031412                0.00350449
               6.00816862                9.99931333               18.01817406                0.01000001               -0.32382062                0.08183887                0.11885158                0.03991176                0.30324712                0.02570785
               7.00504851                9.99996099               18.02079677                0.01001345               -0.32147769                0.07339628                0.13152317               -0.00315450                0.40531162                0.04702781
               8.00173906               10.00014881               18.02497248                0.01003538               -0.34230942                0.10534864                0.15013706               -0.11898588                0.53562784                0.11623195
               8.99820232                9.99804845               18.03058894                0.99999999               -0.20293765               -0.05232730                0.17433369               -0.08743314                0.29515169                0.00114213
               9.99768031                9.99769854               18.03032520                1.00000000               -0.05220067               -0.05211075                0.17368220                0.00012665                0.00102334               -0.00102323
               0.00115686                0.00168479               19.01561095                1.00000000               -0.02523372               -0.02513318                0.08427450               -0.00021715               -0.00381203                0.00356086
               1.00090452                0.00081347               19.01558484                1.00000000               -0.02517916               -0.02501162                0.08388204               -0.00006716               -0.00424029               -0.00113010
               2.00065327               -0.00006112               19.01555208                0.01000000               -0.01911159               -0.02489191                0.08349036                0.01708567                0.03694824               -0.00177108
               3.00052229               -0.00059617               19.01635072                0.01000000               -0.02164196               -0.01711700                0.08995914                0.01392348                0.09121276               -0.00671915
               4.00022043                0.00003706               19.01738153                0.01000001               -0.05410681               -0.00774503                0.09659331                0.06009159                0.12379480               -0.01342974
               4.99944015                0.00213738               19.01885052                0.01000001               -0.13562401               -0.00285036                0.09516137                0.14669504                0.16567237               -0.02684039
               5.99750795                0.00612754               19.02082259                0.29635430               -0.11329207               -0.03327013                0.11160955                0.15058599                0.09550190               -0.00095160
               6.99717431                0.00710153               19.02135096                0.99971514               -0.03383062               -0.03363974                0.11350744                0.00015432                0.01498413               -0.00382339
               7.99683134                0.00807005               19.02170926                0.99999999               -0.03456367               -0.03417159                0.11523217                0.00029909                0.00792319               -0.00041962
               8.99648304                0.00903056               19.02209427                1.00000000               -0.03512210               -0.03471681                0.11707523                0.00029752                0.00743677                0.00089335
               9.99612890                0.00998300               19.02244182                1.00000000               -0.03541369               -0.03529359                0.11893738                0.00071902                0.00555345                0.00511421
               0.00202601                1.00143346               19.01564577                0.99963693               -0.02492046               -0.02498608                0.08326649               -0.00016057                0.00107112                0.00384586
               1.00177680                1.00056335               19.01562100                0.01041956               -0.02485302               -0.02485826                0.08287232               -0.00001138                0.00280772               -0.00293328
               2.00152895                0.99968996               19.01563100                0.01000000               -0.05821865               -0.03318085                0.08248127               -0.00164521                0.04186390                0.01205102
               3.00061243                0.99923266               19.01638638                0.01000001               -0.10371868               -0.01741753                0.09000440                0.04314676                0.07887347               -0.00807902
               3.99945457                0.99995960               19.01725163                0.01000000               -0.13752859               -0.01057340                0.09641148                0.12785630                0.09181159               -0.01808617
               4.99786186                1.00210887               19.01840710                0.01000000               -0.14614192               -0.02243788                0.09824188                0.24442328                0.12818112               -0.03057491
               5.99653174                1.00579484               19.02016623                0.01000001               -0.08286306               -0.10945212                0.10894574                0.21649841                0.07675421               -0.04199262
               6.99620460                1.00676513               19.02062118                1.00000000               -0.03309609               -0.03322497                0.11076115               -0.00002738                0.00623918               -0.00386557
               7.99586981                1.00772833               19.02096810                0.99999999               -0.03375319               -0.03377628                0.11254320                0.00003589                0.00115270               -0.00033852
               8.99552953                1.00868339               19.02132020                0.99999999               -0.03430804               -0.03431863                0.11439625                0.00003326                0.00096698                0.00054869
               9.99518365                1.00963006               19.02166319                1.00000000               -0.03458807               -0.03489783                0.11628021                0.00041722                0.00044834                0.00637482
               0.00289386                2.00118507               19.01568779                0.01000001               -0.02460693               -0.01983297                0.08226181               -0.00250005                0.00162392                0.04196183
               1.00264779                2.00031630               19.01562155                0.01000000               -0.04714009               -0.04687304                0.08186081               -0.01337173                0.02323573                0.02776407
               2.00195106                1.99927526               19.01598585                0.01000001               -0.07661099               -0.05290236                0.08723592                0.01625629                0.04403126                0.01676493
               3.00111557                1.99905548               19.01637421                0.01000000               -0.10248582               -0.03707030                0.09059003                0.11754866                0.05188648               -0.00888850
               3.99990134                1.99982559               19.01698449                0.01000000               -0.13110943               -0.03215088                0.09509630                0.22806831                0.06635915               -0.02188154
               4.99849338                2.00168862               19.01782180                0.01000001               -0.13598410               -0.06435551                0.10052454                0.32126849                0.06779918               -0.03081110
               5.99718166                2.00393850               19.01868653                0.01000000               -0.16265581               -0.13694653                0.10347399                0.34131446                0.07818086               -0.05814484
               6.99524027                2.00643703               19.01988835                0.01000000               -0.11339333               -0.08885817                0.10803584                0.21070313                0.03874943               -0.02478964
               7.99491380                2.00739452               19.02022760                0.06911064               -0.03291499               -0.03303508                0.10984870                0.00134649               -0.00574027                0.00336836
               8.99458197                2.00834419               19.02053940                0.99999999               -0.03349434               -0.03350721                0.11175901                0.00007856               -0.00414168               -0.00171838
               9.99424391                2.00928504               19.02091125                1.00000000               -0.03380599               -0.03412340                0.11366040                0.00042703               -0.00125655                0.00634092
               0.00371354                3.00103680               19.01648473                0.01046324               -0.02943645               -0.01247518                0.09656970                0.00148027               -0.00241355                0.08335347
               1.00341918                2.99962589               19.01627032                0.01000001               -0.02993232               -0.08359490                0.09201322                0.02533685                0.00771891                0.04731873
               2.00311490                2.99863191               19.01620293                0.01000000               -0.05030522               -0.08577506                0.08985492                0.11041613                0.02607251                0.00910606
               3.00241308                2.99849125               19.01637998                0.01000000               -0.08660496               -0.07260376                0.09212051                0.21036055                0.04358472               -0.00956806
               4.00138280                2.99931659               19.01676109                0.01036413               -0.11193773               -0.06865923                0.09560367                0.30138497                0.05393380               -0.01717892
               5.00017432                3.00082176               19.01729865                0.01000000               -0.13865922               -0.08590918                0.09957368                0.38066486                0.06252648               -0.01713240
               5.99860961                3.00305591               19.01804018                0.01000001               -0.16058422               -0.10041995                0.10273726                0.40314454                0.06121630               -0.00752043
               6.99696264                3.00498797               19.01873909                0.01000000               -0.23100152               -0.11999981                0.10505951                0.42595301                0.05493406               -0.01473766
               7.99398958                3.00706763               19.01956025                0.01000001               -0.16610261               -0.09799984                0.10423987                0.34850445                0.00629354                0.01298896
               8.99364058                3.00801325               19.01972093                0.01181673               -0.03395457               -0.08476782                0.10918224                0.24738506               -0.01408933                0.01973623
               9.99331049                3.00894759               19.02013446                0.25707411               -0.03300919               -0.20653278                0.11104128                0.27869729               -0.00163464                0.01264609
               0.00574529                4.00093556               19.01721722                0.01000000               -0.01858686               -0.03137690                0.09592948                0.05725372               -0.00404290                0.09177472
               1.00555942                3.99864440               19.01677517                0.01000000               -0.02256342               -0.11760847                0.09422573                0.12416837                0.00584956                0.04054322
               2.00529402                3.99755976               19.01646334                0.01000000               -0.04606572               -0.11633195                0.09334299                0.22742842                0.02548828                0.00353171
               3.00463811                3.99760340               19.01641471                0.01036471               -0.08477439               -0.09476985                0.09443498                0.30052115                0.04668956               -0.01240891
               4.00359853                3.99845240               19.01661813                0.01000000               -0.11353711               -0.09492080                0.09706753                0.36891678                0.06378135               -0.01254030
               5.00236736                3.99997043               19.01706723                0.01000001               -0.12600927               -0.09539010                0.10086098                0.41988923                0.07687687                0.00279626
               6.00107835                4.00193010               19.01771404                0.01000000               -0.13098784               -0.11759753                0.10413456                0.46327330                0.08297256                0.01876218
               6.99974761                4.00403703               19.01845104                0.01066039               -0.11098723               -0.12274792                0.10705131                0.46281314                0.07237933                0.04079344
               7.99885860                4.00543452               19.01901378                0.01065603               -0.10489513               -0.15755835                0.11021736                0.52924475                0.05393351                0.03648584
               8.99764970                4.00664883               19.01937142                0.01000000               -0.04547174               -0.18230854                0.10900261                0.39844377                0.01856821                0.06725842
               9.99794917                4.00515439               19.01951232                0.01049855                0.02994636               -0.30925409                0.10519467                0.28629883                0.00370773                0.04172929
               0.00944094                5.00040926               19.01809814                0.01000001               -0.01625891               -0.14570452                0.10009227                0.17255490                0.00088242                0.11508806
               1.00927835                4.99727372               19.01732028                0.01000000               -0.03682384               -0.12703155                0.09781512                0.27458135                0.01229754                0.03632703
               2.00870447                4.99630527               19.01671498                0.01000001               -0.08737511               -0.10994728                0.09653598                0.33077807                0.03590241               -0.00962319
               3.00753085                4.99659585               19.01647152                0.01000000               -0.11551832               -0.11084904                0.09669623                0.37923204                0.06258891               -0.01974602
               4.00639410                4.99741817               19.01658140                0.01000001               -0.12182206               -0.10241658                0.09964750                0.40868099                0.08781892               -0.00766399
               5.00509441                4.99891396               19.01706132                0.01000000               -0.12928095               -0.10761484                0.10372254                0.43861205                0.10671159                0.01509224
               6.00380848                5.00070396               19.01774897                0.01000002               -0.11899693               -0.12431233                0.11045229                0.44579719                0.11294276                0.04285616
               7.00271447                5.00253301               19.01852046                0.01000001               -0.09229016               -0.15493590                0.11399174                0.43254431                0.10370282                0.07437633
               8.00196268                5.00391646               19.01920496                0.01000000               -0.04124379               -0.17138164                0.11130495                0.37561701                0.07892196                0.10692697
               9.00188960                5.00436708               19.01963584                0.01000000                0.00313435               -0.21029648                0.11557685                0.27728962                0.04618111                0.12646952
              10.00202537                5.00276251               19.01964755                0.01000000                0.01357684               -0.16380769                0.11724499                0.15161272                0.03198349                0.10069391
               0.01546747                5.99802147               19.01943781                0.78117058               -0.03124323               -0.13533933                0.10595041                0.20529877               -0.00334508                0.06492182
               1.01515504                5.99610377               19.01800821                0.01000000               -0.14400119               -0.07405775                0.10271236                0.25631969                0.01113697                0.01635565
               2.01258745                5.99536081               19.01687650                0.01000000               -0.20225966               -0.12122914                0.09921853                0.36682981                0.03852811               -0.03156773
               3.01110984                5.99538642               19.01648682                0.01000001               -0.15667003               -0.10548015                0.09899967                0.39139920                0.08772315               -0.02651110
               4.00945405                5.99640407               19.01663456                0.01000000               -0.16280122               -0.09921964                0.10181068                0.42139041                0.11969549               -0.00646109
               5.00785382                5.99781814               19.01718563                0.01000002               -0.15394024               -0.10285682                0.10935263                0.41937594                0.14238688                0.01936304
               6.00637524                5.99944385               19.01804282                0.01000001               -0.13339167               -0.11104564                0.11515343                0.38313867                0.15762424                0.05682955
               7.00518599                6.00093832               19.01904139                0.01000000               -0.09191841               -0.14298590                0.11662636                0.32109835                0.15884116                0.10789572
               8.00453687                6.00200689               19.02003058                0.01000000               -0.04182710               -0.17698963                0.12027292                0.24740415                0.13754829                0.16218309
               9.00434944                6.00244290               19.02069915                0.01000001               -0.01731582               -0.17309766                0.12422908                0.14280387                0.08518936                0.20058214
              10.00419056                6.00187823               19.02065094                0.01000001               -0.01588884               -0.05738679                0.12455409                0.06838706                0.05032306                0.19511808
               0.01738233                6.99770247               19.01990355                0.99999999               -0.03169143               -0.03203411                0.10733455                0.00003454               -0.00296127                0.02184640
               1.01706541                6.99579256               19.01836973                0.99990003               -0.03119559               -0.03119330                0.10384863               -0.00030295               -0.00537890                0.00135279
               2.01675841                6.99388069               19.01679369                0.01000000               -0.13749172               -0.08908915                0.10065885                0.23850589                0.05509659               -0.03369427
               3.01431558                6.99448625               19.01647821                0.01000000               -0.21841113               -0.11903966                0.10088092                0.37973710                0.11855737               -0.04782467
               4.01239019                6.99543378               19.01666152                0.01066505               -0.19367130               -0.08815184                0.10524199                0.39048969                0.14347463               -0.00952314
               5.01044215                6.99685682               19.01734534                0.01000001               -0.20195569               -0.07124554                0.11074576                0.38496860                0.18580973                0.01132514
               6.00835108                6.99848304               19.01848251                0.01000000               -0.19343758               -0.06194128                0.11523482                0.29733332                0.21683836                0.06265072
               7.00657340                6.99967329               19.01996970                0.01000000               -0.14724523               -0.09015957                0.12046838                0.17301835                0.22869694                0.13015478
               8.00540617                7.00037667               19.02155158                0.01000000               -0.08495333               -0.13620175                0.12859807                0.05704030                0.20533588                0.22405596
               9.00487433                7.00090513               19.02273809                0.01000002               -0.04418607               -0.14676647                0.13355638               -0.00102370                0.12808487                0.30047396
              10.00452245                7.00161478               19.02282325                0.01000000               -0.03518815               -0.03160527                0.13512341               -0.01673192                0.07269424                0.34461744
               0.01928798                7.99738079               19.02038642                1.00000000               -0.03172152               -0.03221852                0.10748625                0.00002107               -0.00063100                0.02251747
               1.01897077                7.99547990               19.01876602                1.00000000               -0.03120521               -0.03127322                0.10411123               -0.00003131               -0.00033474                0.00294472
               2.01866388                7.99357903               19.01715491                0.01000001               -0.09096355               -0.03019913                0.10072097                0.06630620                0.02236759               -0.01570780
               3.01715149                7.99300563               19.01599501                0.01000001               -0.18853051               -0.15501213                0.11967945                0.35037522                0.07915048               -0.05164693
               4.01489327                7.99464103               19.01659352                0.01066729               -0.23237835               -0.06508436                0.10698377                0.42816503                0.17817247               -0.03532007
               5.01250393                7.99639323               19.01744493                0.01000000               -0.26939139                0.00151908                0.10596364                0.33209511                0.23072374                0.00274472
               6.00950544                7.99820502               19.01898019                0.01000000               -0.28756002                0.01006927                0.11728729                0.20579989                0.27698189                0.05806752
               7.00675273                7.99913512               19.02108044                0.01000000               -0.25297973               -0.00814267                0.12746671                0.03599181                0.31920534                0.12590502
               8.00444584                7.99928286               19.02383626                0.01000002               -0.18309326               -0.04887826                0.13864060               -0.12798724                0.30840596                0.23336706
               9.00309086                7.99950758               19.02598663                0.01001974               -0.10046133               -0.10243319                0.14641009               -0.24014681                0.20598828                0.52277097
              10.00243662                8.00124613               19.02681046                0.01000000               -0.06542448               -0.15649863                0.15024525               -0.17292133                0.13743671                0.51402889
               0.02118452                8.99705810               19.02086811                1.00000000               -0.03179724               -0.03231600                0.10770415                0.00005027                0.00227881                0.01771422
               1.02086655                8.99516710               19.01916524                0.99999999               -0.03128527               -0.03129879                0.10428107                0.00001671                0.00117500                0.00172759
               2.02055882                8.99327670               19.01744106                1.00000000               -0.03027364               -0.03027854                0.10087423               -0.00004000               -0.00505831               -0.01164821
               3.02026108                8.99138601               19.01561737                0.01158881               -0.14964620               -0.09560628                0.09751063                0.29248361                0.10834096               -0.05077437
               4.01756589                8.99413209               19.01616818                0.01000000               -0.33705065                0.02510966                0.10809536                0.38678796                0.22752188               -0.03893159
               5.01352006                8.99688721               19.01749678                0.01000000               -0.39203569                0.08057025                0.10640279                0.22955295                0.27541576                0.00101402
               6.00972518                8.99868443               19.01935498                0.01000000               -0.36523291                0.06836412                0.12007905                0.10561689                0.31601186                0.03830911
               7.00621540                8.99951044               19.02198452                0.01000002               -0.36256004                0.05904398                0.13167244               -0.01687765                0.38694171                0.08063434
               8.00247398                8.99939910               19.02566649                0.01000001               -0.40536396                0.06317680                0.14684293               -0.14485842                0.58096158                0.16249502
               8.99810813                8.99885646               19.03260386                0.99999998               -0.24435277               -0.05866741                0.17378190               -0.27622158                0.35918687                0.34547097
               9.99758692                8.99848480               19.03233674                0.99999999               -0.05212036               -0.16417348                0.17375162               -0.26111968               -0.00092074                0.28896153
               0.02307099                9.99673447               19.02125492                1.00000000               -0.03184954               -0.03236316                0.10788397                0.00059307                0.01243628                0.01308693
               1.02275250                9.99485393               19.01954063                1.00000000               -0.03134133               -0.03131703                0.10452903                0.00054433                0.01573741                0.00048859
               2.02244417                9.99297346               19.01789041                0.99894441               -0.03033595               -0.03032468                0.10117682                0.00051384                0.01583075               -0.00369122
               3.02214578                9.99109350               19.01617919                0.01000000               -0.26581696               -0.02925069                0.09778641                0.29695890                0.09046835               -0.00415757
               4.01712783                9.99514323               19.01602579                0.01102545               -0.48015649                0.10111359                0.10144246                0.30175024                0.20112431               -0.01920690
               5.01254265                9.99800463               19.01748479                0.01000000               -0.40666427                0.11174268                0.10851933                0.12371271                0.27052476                0.00909599
               6.00899454                9.99957231               19.01936036                0.01000001               -0.34210754                0.08878789                0.11888705                0.04250513                0.31464410                0.02700825
               7.00570050               10.00031600               19.02211880                0.01017769               -0.33959458                0.08055652                0.13271103               -0.00278630                0.42095715                0.04909367
               8.00220265               10.00054639               19.02647970                0.01000000               -0.36098848                0.11472883                0.15109925               -0.12622139                0.55711445                0.12109698
               8.99848073                9.99833423               19.03233249                0.99999999               -0.21225552               -0.05222358                0.17437683               -0.09192629                0.30713848                0.00114265
               9.99795754                9.99796266               19.03206536                1.00000000               -0.05231883               -0.05221469                0.17434660               -0.00009502                0.00102511               -0.00102434
               0.00114681                0.00169064               20.01645564                1.00000000               -0.02532926               -0.02520820                0.08465696               -0.00029586               -0.00381946                0.00356370
               1.00089352                0.00077104               20.01642480                1.00000000               -0.02525059               -0.02503433                0.08410823               -0.00009438               -0.00423498               -0.00113407
               2.00064180               -0.00015272               20.01638732                0.01000001               -0.01836858               -0.02486688                0.08356487                0.01911552                0.04028961               -0.00176535
               3.00052615               -0.00069676               20.01724794                0.01000000               -0.01984741               -0.01631186                0.08920923                0.01693510                0.09799591               -0.00610656
               4.00024485                0.00004275               20.01833838                0.01000001               -0.05014265               -0.00762816                0.09439954                0.06280163                0.12980814               -0.01407407
               4.99952329                0.00225283               20.01981435                0.01004476               -0.15206723                0.00023315                0.09933696                0.16468266                0.17972940               -0.02581115
               5.99720351                0.00678777               20.02193602                0.28314950               -0.13258379               -0.03313132                0.11102159                0.17564008                0.10200740               -0.00095097
               6.99687162                0.00780646               20.02248379                0.99958919               -0.03368661               -0.03352015                0.11301912                0.00014912                0.01493007               -0.00388999
               7.99652977                0.00882030               20.02286037                0.99999999               -0.03448287               -0.03412362                0.11498930                0.00030596                0.00787462               -0.00044614
               8.99618196                0.00982685               20.02326479                1.00000000               -0.03510357               -0.03472700                0.11704534                0.00035177                0.00744619                0.00087972
               9.99582770                0.01082617               20.02363198                1.00000000               -0.03542578               -0.03537059                0.11908900                0.00076216                0.00556870                0.00513895
               0.00206345                1.00143856               20.01647892                0.99951600               -0.02491964               -0.02501900                0.08336833               -0.00021015                0.00107724                0.00385637
               1.00181425                1.00052070               20.01644938                0.01038054               -0.02482962               -0.02483637                0.08280309               -0.00001828                0.00280318               -0.00294234
               2.00156686                0.99959861               20.01645467                0.01000000               -0.06082457               -0.03435764                0.08225205                0.00009872                0.04583864                0.01503209
               3.00059776                0.99914012               20.01728473                0.01000001               -0.10843927               -0.01673276                0.08930382                0.04920856                0.08602946               -0.00736104
               3.99939807                0.99996647               20.01820146                0.01000000               -0.14000761               -0.01015936                0.09378835                0.13600735                0.09789411               -0.01931564
               4.99779761                1.00225516               20.01938953                0.01000000               -0.16074893               -0.01645525                0.09856492                0.26369945                0.13666704               -0.02939929
               5.99618309                1.00645646               20.02125390                0.01000001               -0.09703817               -0.11779858                0.10854701                0.24698109                0.08100744               -0.04348257
               6.99585685                1.00747125               20.02172748                1.00000000               -0.03302287               -0.03314311                0.11049648               -0.00005184                0.00618712               -0.00390642
               7.99552263                1.00847906               20.02209297                0.99999999               -0.03371525               -0.03373487                0.11242516                0.00001015                0.00113620               -0.00036119
               8.99518254                1.00947958               20.02246460                0.99999999               -0.03433165               -0.03434333                0.11447983                0.00005287                0.00099207                0.00055434
               9.99483600                1.01047247               20.02282768                1.00000000               -0.03465385               -0.03500324                0.11665300                0.00042017                0.00048194                0.00641042
               0.00297832                2.00119026               20.01650946                0.01007083               -0.02452279               -0.01614179                0.08207808                0.00073968                0.00162403                0.04724726
               1.00273310                2.00027432               20.01643835                0.01000000               -0.04769854               -0.05081855                0.08148956               -0.00952030                0.02622900                0.03218455
               2.00202435                1.99916013               20.01685752                0.01000001               -0.07953188               -0.05548238                0.08688685                0.02270379                0.04839490                0.02094884
               3.00114246                1.99896858               20.01727927                0.01000000               -0.10871987               -0.03828402                0.09020303                0.13279929                0.05624454               -0.00736617
               3.99984996                1.99983957               20.01793294                0.01000000               -0.14175829               -0.03193369                0.09439400                0.25105836                0.07103146               -0.02193741
               4.99830729                2.00192372               20.01881585                0.01000001               -0.14614618               -0.06129526                0.09870208                0.34773885                0.07122277               -0.03033804
               5.99692703                2.00443180               20.01971805                0.01000000               -0.17296575               -0.14934768                0.10317137                0.37654882                0.08135414               -0.05970641
               6.99484798                2.00714359               20.02096828                0.01000000               -0.12026918               -0.09545111                0.10799074                0.23019387                0.04024299               -0.02502588
               7.99452165                2.00814560               20.02132626                0.07214125               -0.03291824               -0.03306434                0.10985793                0.00132840               -0.00569056                0.00197393
               8.99418961                2.00913998               20.02165827                0.99999999               -0.03356572               -0.03358566                0.11200855                0.00006329               -0.00407892               -0.00167256
               9.99385033                2.01012611               20.02205050                1.00000000               -0.03392787               -0.03428462                0.11423318                0.00037550               -0.00121226                0.00637836
               0.00391013                3.00111572               20.01740036                0.01136786               -0.02561548               -0.00659331                0.08269254               -0.00274185               -0.00429460                0.08483893
               1.00365398                2.99950433               20.01716409                0.01000001               -0.02917331               -0.08679509                0.08645415                0.03229063                0.00678293                0.05214422
               2.00332667                2.99848897               20.01710103                0.01000000               -0.05398334               -0.09113261                0.09012284                0.12917072                0.02781913                0.01261316
               3.00257431                2.99837444               20.01730407                0.01000000               -0.09312843               -0.07661758                0.09233646                0.23642348                0.04674740               -0.00735251
               4.00146410                2.99932780               20.01771667                0.01031109               -0.12070802               -0.07099095                0.09536683                0.33587655                0.05752388               -0.01590477
               5.00016015                3.00102925               20.01829279                0.01000000               -0.14849494               -0.09006552                0.09910812                0.42122296                0.06562342               -0.01630015
               5.99849420                3.00346951               20.01906403                0.01000001               -0.17066131               -0.10808045                0.10226408                0.44090232                0.06270141               -0.00668418
               6.99674692                3.00556223               20.01978833                0.01000001               -0.24706933               -0.13063350                0.10522192                0.46495980                0.05487516               -0.01524662
               7.99355281                3.00781778               20.02060584                0.01000001               -0.17718117               -0.10949450                0.10502742                0.38310762                0.00664220                0.01486222
               8.99320330                3.00880787               20.02081522                0.01168321               -0.03407730               -0.09671541                0.10972742                0.27465568               -0.01265295                0.02244646
               9.99287127                3.00978677               20.02124849                0.27364079               -0.03320345               -0.22267790                0.11176508                0.30498397               -0.00164892                0.01127721
               0.00614628                4.00105839               20.01813841                0.01000000               -0.01406098               -0.03291129                0.08709620                0.06433484               -0.00198405                0.09168365
               1.00600567                3.99853841               20.01769682                0.01000000               -0.02043084               -0.12412056                0.08996838                0.13642151                0.00718574                0.04214412
               2.00573766                3.99733748               20.01739720                0.01000000               -0.04867847               -0.12429235                0.09365234                0.25334955                0.02730078                0.00696837
               3.00503210                3.99743623               20.01736091                0.01031163               -0.09124936               -0.10049808                0.09463694                0.33680380                0.04911106               -0.01011438
               4.00391267                3.99841975               20.01758974                0.01000000               -0.12210266               -0.09945407                0.09704723                0.41012944                0.06699772               -0.01039274
               5.00259004                4.00012241               20.01807454                0.01000001               -0.13502849               -0.10070728                0.10036764                0.46356096                0.08003115                0.00494887
               6.00121210                4.00227019               20.01874972                0.01000001               -0.13955691               -0.12422666                0.10332160                0.50728303                0.08414820                0.02337869
               6.99979890                4.00453092               20.01949832                0.01048488               -0.11369682               -0.13258796                0.10509948                0.50269479                0.07139882                0.04254336
               7.99893816                4.00595571               20.02009958                0.01048390               -0.10425881               -0.17222628                0.10890206                0.57033780                0.05242387                0.04271663
               8.99771373                4.00720568               20.02049410                0.01000000               -0.04729819               -0.19571885                0.11228579                0.43357415                0.02403287                0.06153813
               9.99799220                4.00567255               20.02057327                0.01049055                0.02784727               -0.33158442                0.11028502                0.31993380                0.01155522                0.02955500
               0.01023679                5.00045750               20.01911155                0.01000001               -0.01334655               -0.16454927                0.10310797                0.19313332                0.00104467                0.12055396
               1.01010332                4.99702192               20.01830599                0.01000000               -0.03704746               -0.13983570                0.09916892                0.30515125                0.01150467                0.04116542
               2.00949584                4.99600312               20.01768202                0.01000001               -0.09376037               -0.11664784                0.09674036                0.36735967                0.03611737               -0.00721696
               3.00822812                4.99636448               20.01743789                0.01000000               -0.12576683               -0.11622615                0.09685848                0.42065843                0.06447193               -0.01763143
               4.00698050                4.99733872               20.01757583                0.01000001               -0.13235968               -0.10600155                0.09917949                0.45208551                0.09129617               -0.00582709
               5.00558092                4.99901511               20.01809108                0.01000001               -0.13745778               -0.11112515                0.10228062                0.48186663                0.11237469                0.01949841
               6.00423135                5.00098497               20.01886002                0.01064454               -0.12328110               -0.12983643                0.10898431                0.48665833                0.11970871                0.04911008
               7.00311530                5.00291047               20.01966500                0.01066321               -0.09732667               -0.16193575                0.11247462                0.47112130                0.11433126                0.06627905
               8.00228481                5.00437325               20.02029865                0.01000000               -0.04786778               -0.17591479                0.11136884                0.40726675                0.09357233                0.09817352
               9.00215795                5.00489349               20.02077798                0.01000000                0.00256902               -0.21655422                0.11525768                0.29821126                0.05797195                0.12545634
              10.00233620                5.00315509               20.02082149                0.01000000                0.01782498               -0.17235940                0.11692768                0.16373534                0.03813233                0.10384391
               0.01688010                5.99776741               20.02050313                0.75524692               -0.03170323               -0.15058479                0.10709774                0.23074529               -0.00332031                0.06818178
               1.01656307                5.99574170               20.01904375                0.01000000               -0.15689041               -0.07978053                0.10438855                0.28583876                0.01066505                0.01933208
               2.01374229                5.99500452               20.01787294                0.01000000               -0.22267006               -0.12996448                0.10034789                0.40729047                0.03778049               -0.02975048
               3.01210967                5.99511171               20.01747522                0.01000001               -0.17192717               -0.10596000                0.09914784                0.43186651                0.08892707               -0.02576465
               4.01030375                5.99629972               20.01764315                0.01000001               -0.17642743               -0.09924364                0.10079093                0.45770293                0.12458727               -0.00620712
               5.00858112                5.99789991               20.01827971                0.01064603               -0.16269227               -0.10383647                0.10736531                0.45424784                0.14789265                0.02545223
               6.00704990                5.99967347               20.01920011                0.01075467               -0.13740322               -0.11501855                0.11306605                0.41912535                0.15647022                0.05814057
               7.00583305                6.00129221               20.02019658                0.01000000               -0.09747111               -0.14701477                0.11322860                0.34998471                0.15871012                0.10421851
               8.00510048                6.00243742               20.02123081                0.01000000               -0.04684678               -0.18320572                0.11854118                0.26875155                0.14049231                0.16664594
               9.00489612                6.00287459               20.02195166                0.01000001               -0.01783816               -0.18167180                0.12476938                0.15754450                0.08788194                0.20678884
              10.00474372                6.00222536               20.02190167                0.01000001               -0.01524000               -0.05896344                0.12517902                0.07647710                0.05099896                0.20199572
               0.01890311                6.99744580               20.02098079                0.99999999               -0.03201261               -0.03223092                0.10812808               -0.00000679               -0.00316281                0.02244767
               1.01858299                6.99542631               20.01941459                1.00000000               -0.03157354               -0.03155254                0.10508792               -0.00025119               -0.00544599                0.00184187
               2.01827164                6.99340383               20.01780910                0.01000000               -0.15063681               -0.09535989                0.10231411                0.26830995                0.05638645               -0.03285421
               3.01557025                6.99424528               20.01748825                0.01000001               -0.24626413               -0.10823716                0.10170268                0.40115666                0.12033762               -0.03898192
               4.01334636                6.99535384               20.01768918                0.01048944               -0.21390599               -0.08806035                0.10290059                0.41391934                0.14640957               -0.01136915
               5.01129213                6.99693838               20.01846061                0.01066814               -0.20624017               -0.07353264                0.11063930                0.41200736                0.17348728                0.02143117
               6.00922156                6.99868460               20.01961766                0.01000000               -0.19705435               -0.06559906                0.11152619                0.32193814                0.21143648                0.06440051
               7.00735104                6.99997018               20.02115508                0.01000000               -0.15720473               -0.09499956                0.11828535                0.18511703                0.23354938                0.13442415
               8.00607746                7.00070914               20.02284872                0.01000000               -0.09150773               -0.14392316                0.12951408                0.06333895                0.21154373                0.23078461
               9.00552089                7.00126006               20.02407812                0.01000002               -0.04566321               -0.15367139                0.13392848                0.00177612                0.13059272                0.30922739
              10.00516420                7.00197582               20.02418151                0.01000000               -0.03566918               -0.02975472                0.13587874               -0.01618615                0.07417404                0.35622276
               0.02091895                7.99712279               20.02146269                1.00000000               -0.03189373               -0.03228664                0.10774174               -0.00000798               -0.00068174                0.02252539
               1.02060002                7.99511065               20.01981095                0.99756960               -0.03147159               -0.03152220                0.10496736                0.00001848               -0.00039859                0.00294136
               2.02028952                7.99309732               20.01816828                0.01048297               -0.12086153               -0.03064176                0.10216909                0.09317785                0.03439474               -0.01585809
               3.01818279                7.99294696               20.01721928                0.01000001               -0.22002442               -0.17304337                0.11983942                0.39342234                0.08938199               -0.05803783
               4.01588903                7.99453851               20.01765022                0.01049491               -0.23461395               -0.06522048                0.10435445                0.45134699                0.17679105               -0.03799886
               5.01349051                7.99642926               20.01849640                0.01000000               -0.27160824               -0.00183877                0.10821855                0.35911707                0.21841728                0.01327939
               6.01045687                7.99836148               20.02013878                0.01000000               -0.29898226                0.00981752                0.11475957                0.21825543                0.28355640                0.06095916
               7.00751086                7.99939222               20.02236490                0.01000000               -0.26897430               -0.00844111                0.12812887                0.03857673                0.32847048                0.13108690
               8.00507738                7.99955895               20.02522507                0.01000002               -0.19229508               -0.05036766                0.13862628               -0.13479897                0.31667757                0.24066207
               9.00366496                7.99980116               20.02745464                0.01000007               -0.10444557               -0.10623878                0.14701485               -0.25422851                0.21135516                0.54127880
              10.00298847                8.00163027               20.02831917                0.01000000               -0.06764886               -0.16159198                0.15136467               -0.18305118                0.14103225                0.53225391
               0.02292724                8.99680007               20.02194453                1.00000000               -0.03184120               -0.03225984                0.10753348               -0.00003236                0.00220572                0.01774384
               1.02260882                8.99479586               20.02020969                0.99999999               -0.03141759               -0.03142587                0.10472110                0.00000525                0.00112045                0.00173623
               2.02229888                8.99279099               20.01845392                1.00000000               -0.03056565               -0.03058682                0.10185904               -0.00003627               -0.00505764               -0.01165774
               3.02199751                8.99078441               20.01659969                0.01146459               -0.17039389               -0.12292711                0.09889526                0.35377426                0.11612926               -0.06294240
               4.01889101                8.99404943               20.01727474                0.01000000               -0.36730067                0.02886920                0.10965686                0.43660016                0.24108817               -0.04314635
               5.01465150                8.99690160               20.01856149                0.01000000               -0.41336511                0.08471167                0.10877330                0.24709318                0.27871360                0.00935313
               6.01062370                8.99888095               20.02055914                0.01000000               -0.38631943                0.07406267                0.12010444                0.11351851                0.32723385                0.03973189
               7.00692511                8.99980136               20.02330212                0.01000002               -0.38255847                0.06410365                0.13159329               -0.01708620                0.39943703                0.08239575
               8.00297254                8.99970178               20.02713698                0.01000001               -0.42800522                0.06926947                0.14690917               -0.15378955                0.60136757                0.16785259
               8.99836501                8.99913528               20.03433838                0.99999998               -0.25637837               -0.05935586                0.17312295               -0.29316689                0.37224631                0.35832191
               9.99784497                8.99874398               20.03407404                0.99932328               -0.05200370               -0.17047281                0.17370832               -0.27679987               -0.00092358                0.29991530
               0.02492672                9.99647759               20.02233079                1.00000000               -0.03175220               -0.03224748                0.10729860                0.00040192                0.01250549                0.01308305
               1.02460920                9.99448213               20.02058569                1.00000000               -0.03132337               -0.03137312                0.10443446                0.00043675                0.01580437                0.00054968
               2.02430025                9.99248559               20.01890456                1.00000000               -0.03046823               -0.03054079                0.10158249                0.00045105                0.01585674               -0.00360931
               3.02399983                9.99048842               20.01716167                0.01005109               -0.28982040               -0.02959875                0.09871908                0.33174730                0.09548047               -0.00421572
               4.01850384                9.99511589               20.01707706                0.01105396               -0.51994898                0.10664589                0.10781103                0.34303694                0.20768723               -0.02442064
               5.01360085                9.99812349               20.01857611                0.01000000               -0.43381772                0.12218863                0.11058833                0.13127752                0.28102063                0.01555082
               6.00982749                9.99984274               20.02055181                0.01000001               -0.36262716                0.09617838                0.11992249                0.04791829                0.32826300                0.02673145
               7.00634831               10.00067429               20.02345099                0.01034006               -0.35799102                0.08729350                0.13338778               -0.00259988                0.43731688                0.05022554
               8.00266767               10.00094434               20.02799447                0.01034105               -0.37944403                0.12425594                0.15149905               -0.13349897                0.57771739                0.12492626
               8.99875943                9.99861405               20.03407648                0.99935359               -0.22162946               -0.05212325                0.17442201               -0.09673431                0.31846232                0.00114568
               9.99823508                9.99822081               20.03381213                0.99999999               -0.05243495               -0.05231664                0.17500653               -0.00031259                0.00102429               -0.00102686
               0.00114214                0.00170950               21.01730409                1.00000000               -0.02540056               -0.02527270                0.08505609               -0.00033806               -0.00382436                0.00359410
               1.00088814                0.00074162               21.01726701                1.00000000               -0.02531085               -0.02506643                0.08432089               -0.00013268               -0.00425189               -0.00116544
               2.00063592               -0.00023113               21.01722338                0.01000000               -0.01784938               -0.02484740                0.08362368                0.02077006                0.04318698               -0.00176110
               3.00053115               -0.00079188               21.01813490                0.01000000               -0.01928677               -0.01540156                0.08848331                0.01853413                0.10249214               -0.00541664
               4.00025019                0.00002940               21.01926952                0.01000001               -0.05470261               -0.00506740                0.09363637                0.06888038                0.13416603               -0.01447202
               4.99943710                0.00247079               21.02083726                0.01000000               -0.16857669                0.00485919                0.10166991                0.18273483                0.17987927               -0.02302155
               5.99687866                0.00747276               21.02304302                0.27058854               -0.14442698               -0.03296043                0.11030443                0.19680606                0.10506677               -0.00097901
               6.99654856                0.00853636               21.02361134                0.99948751               -0.03354101               -0.03338453                0.11248098                0.00022994                0.01485138               -0.00391771
               7.99620784                0.00959593               21.02400904                0.99999999               -0.03441034               -0.03407073                0.11467668                0.00036797                0.00785837               -0.00056477
               8.99586035                0.01064855               21.02443518                1.00000000               -0.03509734               -0.03475480                0.11696339                0.00035377                0.00743478                0.00075172
               9.99550589                0.01169438               21.02482360                1.00000000               -0.03544612               -0.03546221                0.11925768                0.00070648                0.00553092                0.00521525
               0.00210664                1.00145677               21.01731314                0.99937424               -0.02495138               -0.02504593                0.08344896               -0.00026007                0.00104018                0.00388579
               1.00185712                1.00049096               21.01727706                0.01000000               -0.02481299               -0.02481686                0.08273381               -0.00000999                0.00283308               -0.00297712
               2.00161038                0.99952040               21.01727604                0.01000000               -0.06354478               -0.03604999                0.08206805                0.00026284                0.04942375                0.01800964
               3.00058623                0.99905411               21.01817246                0.01000001               -0.11513589               -0.01596568                0.08849985                0.05461110                0.09104200               -0.00582809
               3.99930766                0.99997873               21.01912740                0.01000000               -0.15217302               -0.00788859                0.09295372                0.15002424                0.09988073               -0.01762318
               4.99754277                1.00251939               21.02037840                0.01000000               -0.17468617               -0.01460995                0.09909513                0.29300325                0.13508346               -0.02488923
               5.99581393                1.00714316               21.02233717                0.01000001               -0.10267473               -0.12692620                0.10807128                0.27303910                0.08456509               -0.04485803
               6.99548927                1.00820251               21.02283111                1.00000000               -0.03292565               -0.03303505                0.11015881                0.00002166                0.00606285               -0.00391501
               7.99515542                1.00925522               21.02321660                0.99621235               -0.03373035               -0.03374015                0.11244686                0.00003219                0.00106898               -0.00047855
               8.99481466                1.01030100               21.02360979                0.99999999               -0.03441498               -0.03442144                0.11474147                0.00001664                0.00105993                0.00048573
               9.99446712                1.01133976               21.02399625                1.00000000               -0.03475421               -0.03512898                0.11701056                0.00034227                0.00062523                0.00647227
               0.00306856                2.00120858               21.01732935                0.01000000               -0.02442555               -0.01760742                0.08192970                0.00334871                0.00165067                0.04392802
               1.00282431                2.00024528               21.01725134                0.01000000               -0.04952649               -0.05403320                0.08109536               -0.00818302                0.02923269                0.03395802
               2.00207803                1.99904787               21.01772358                0.01000001               -0.08296326               -0.05879516                0.08723668                0.02822225                0.05342358                0.02780005
               3.00116504                1.99888881               21.01817827                0.01000000               -0.11463189               -0.03957723                0.08964300                0.14849559                0.05967093               -0.00480404
               3.99978540                1.99987163               21.01887237                0.01000000               -0.15161545               -0.03185161                0.09386622                0.27633435                0.07374106               -0.01900688
               4.99813273                2.00217859               21.01979585                0.01000001               -0.15645425               -0.06411586                0.09819633                0.38296369                0.07517297               -0.02837336
               5.99665631                2.00493424               21.02074995                0.01000000               -0.18479055               -0.16263013                0.10317580                0.41256140                0.08456719               -0.06139403
               6.99443692                2.00787566               21.02204816                0.01000000               -0.12731582               -0.10247551                0.10783934                0.25079763                0.04147565               -0.02504576
               7.99410999                2.00892113               21.02242476                0.07471197               -0.03303862               -0.03318381                0.11020604                0.00122916               -0.00574550                0.00089317
               8.99377615                2.00996012               21.02277957                0.99999999               -0.03373878               -0.03373234                0.11250853                0.00004412               -0.00392552               -0.00157223
               9.99343522                2.01099180               21.02319591                0.99999999               -0.03409313               -0.03446958                0.11477265                0.00036041               -0.00100919                0.00637036
               0.00410019                3.00110462               21.01813858                0.01000001               -0.02460283               -0.00752658                0.08203852                0.00657838                0.00563609                0.08571639
               1.00385417                2.99941029               21.01799940                0.01000001               -0.02844487               -0.09499495                0.08625697                0.04299581                0.01143060                0.06077892
               2.00353130                2.99834449               21.01800539                0.01000000               -0.05608924               -0.09648689                0.08980291                0.14750928                0.03089708                0.01666444
               3.00273238                2.99826256               21.01822671                0.01000000               -0.09933692               -0.08107557                0.09237689                0.26299709                0.04886117               -0.00419032
               4.00154456                2.99934169               21.01866843                0.01027544               -0.12964743               -0.07431203                0.09516641                0.37069842                0.06040210               -0.01389728
               5.00013943                3.00123707               21.01928081                0.01000000               -0.15882294               -0.09537385                0.09871170                0.46120661                0.06852045               -0.01495762
               5.99836810                3.00389055               21.02008546                0.01000001               -0.18105508               -0.11662789                0.10223404                0.47985789                0.06506406               -0.00564148
               6.99651833                3.00615300               21.02084353                0.01000001               -0.26362778               -0.14322140                0.10582369                0.50448969                0.05517599               -0.01439317
               7.99309554                3.00859155               21.02166079                0.01000001               -0.18867281               -0.11625402                0.10595793                0.41373247                0.00679106                0.01686775
               8.99274487                3.00962635               21.02191548                0.01158915               -0.03422884               -0.10216408                0.11025240                0.29696705               -0.01151941                0.02486076
               9.99241097                3.01065037               21.02236976                0.29091524               -0.03339076               -0.24096569                0.11252694                0.33173722               -0.00173018                0.01358675
               0.00658878                4.00105805               21.01895915                0.01000000               -0.01444347               -0.03244993                0.09219845                0.07737261                0.00622598                0.10512465
               1.00644435                3.99834539               21.01857454                0.01000000               -0.02064166               -0.13300953                0.09203975                0.15719506                0.01317125                0.04580962
               2.00617595                3.99711813               21.01833639                0.01000000               -0.05082823               -0.13296504                0.09390030                0.28427639                0.03116095                0.00993577
               3.00542778                3.99726730               21.01830745                0.01027594               -0.09755466               -0.10668256                0.09490646                0.37306760                0.05058959               -0.00770166
               4.00422486                3.99838539               21.01855908                0.01000000               -0.13098886               -0.10467374                0.09694794                0.45130451                0.06944377               -0.00871529
               5.00280801                4.00027112               21.01907458                0.01000001               -0.14436617               -0.10691575                0.09980777                0.50672861                0.08262882                0.00604033
               6.00133753                4.00260168               21.01978047                0.01000001               -0.14911430               -0.13273925                0.10304945                0.55003740                0.08623020                0.02572631
               6.99982572                4.00501123               21.02055303                0.01035438               -0.12131197               -0.14963379                0.10636906                0.55192561                0.07312377                0.04688858
               7.99891129                4.00659605               21.02119182                0.01034870               -0.10845243               -0.19214225                0.11022583                0.62656076                0.04968323                0.05485539
               8.99765667                4.00791684               21.02161714                0.01000000               -0.04446791               -0.21038500                0.11276866                0.46788786                0.01856550                0.07332056
               9.99802194                4.00617249               21.02171802                0.01051462                0.03652635               -0.35696857                0.11528208                0.34006582                0.01068376                0.03230991
               0.01107297                5.00045562               21.02016030                0.01000000               -0.01349881               -0.17710867                0.10253421                0.21600037                0.00273055                0.13023851
               1.01093798                4.99675010               21.01930366                0.01000000               -0.03890266               -0.14817876                0.10018428                0.33918791                0.01390803                0.04332234
               2.01029491                4.99568519               21.01864979                0.01000001               -0.10057494               -0.12397069                0.09759886                0.40572187                0.03620036               -0.00387138
               3.00892648                4.99612891               21.01840869                0.01000000               -0.13640426               -0.12232653                0.09745832                0.46267059                0.06576775               -0.01569742
               4.00756683                4.99724822               21.01856499                0.01000001               -0.14343820               -0.11094009                0.09885518                0.49431438                0.09383484               -0.00517623
               5.00605772                4.99909875               21.01910693                0.01000001               -0.14690460               -0.11567311                0.10141413                0.52171277                0.11622983                0.02074878
               6.00462874                5.00123577               21.01992866                0.01047568               -0.12476209               -0.13763263                0.10509444                0.51559096                0.12276539                0.05124255
               7.00356247                5.00316033               21.02076996                0.01047831               -0.09537918               -0.17393108                0.10900628                0.50083507                0.11350344                0.07206419
               8.00272115                5.00474870               21.02143234                0.01000000               -0.05181399               -0.19031525                0.11440214                0.44693369                0.09511944                0.10686452
               9.00252619                5.00541865               21.02194100                0.01000000               -0.00100837               -0.23191492                0.11779334                0.32709233                0.06304313                0.13188040
              10.00270098                5.00351099               21.02198611                0.01000000                0.01747913               -0.18071776                0.11802435                0.17366314                0.04093037                0.10810358
               0.01831983                5.99751587               21.02157976                0.72833760               -0.03212936               -0.16318760                0.10822697                0.25551897               -0.00329541                0.07047745
               1.01799853                5.99538181               21.02009598                0.01000001               -0.17041240               -0.08439511                0.10602511                0.31565242                0.00984921                0.02272624
               2.01491158                5.99463872               21.01888346                0.01000000               -0.24401820               -0.13784703                0.10159194                0.44782631                0.03631284               -0.02711719
               3.01311817                5.99482077               21.01846978                0.01000001               -0.18851393               -0.10831744                0.09991428                0.47218216                0.09036706               -0.02471392
               4.01114130                5.99616659               21.01865038                0.01000001               -0.19317279               -0.10244491                0.10092907                0.49580405                0.12864424               -0.00679863
               5.00925471                5.99795766               21.01933294                0.01047733               -0.17767611               -0.10149960                0.10381596                0.48040678                0.15335497                0.02595957
               6.00758778                5.99984902               21.02030415                0.01054877               -0.14626134               -0.12016907                0.10804525                0.44157763                0.15797543                0.05698034
               7.00632949                6.00153261               21.02130596                0.01000000               -0.09980680               -0.14834348                0.11153891                0.36957879                0.15819831                0.10551675
               8.00559164                6.00278974               21.02240140                0.01000000               -0.04466301               -0.18752997                0.11800235                0.28693935                0.14629242                0.17191831
               9.00543623                6.00327854               21.02319454                0.01000001               -0.01405640               -0.19159823                0.12401198                0.16977952                0.09239119                0.21423528
              10.00531052                6.00255813               21.02315452                0.01000001               -0.01257122               -0.05946341                0.12564809                0.08286802                0.05295965                0.21061059
               0.02045147                6.99719187               21.02206611                0.99999999               -0.03232912               -0.03241546                0.10891160               -0.00006701               -0.00349971                0.02303219
               1.02012818                6.99506220               21.02047149                1.00000000               -0.03194931               -0.03190906                0.10631539               -0.00024761               -0.00565376                0.00237459
               2.01981248                6.99292825               21.01883997                0.01000000               -0.16429608               -0.10108364                0.10396918                0.29661130                0.05724968               -0.03155558
               3.01684226                6.99396256               21.01851226                0.01000001               -0.27332314               -0.10436689                0.10280697                0.43050461                0.12340630               -0.03437538
               4.01434602                6.99519932               21.01871953                0.01035879               -0.24294221               -0.09355448                0.10399599                0.45584308                0.15806278               -0.01607209
               5.01198341                6.99706876               21.01955813                0.01048312               -0.22303419               -0.06998611                0.10734320                0.43810364                0.18410648                0.01787961
               6.00988534                6.99883239               21.02071303                0.01000000               -0.19850403               -0.06831490                0.10993441                0.34224928                0.21256355                0.06238236
               7.00801333                7.00019346               21.02233541                0.01000000               -0.15856635               -0.09613902                0.11868374                0.20360368                0.23834535                0.13878844
               8.00671401                7.00099810               21.02414186                0.01000000               -0.09299680               -0.14909545                0.12801806                0.07456186                0.21748079                0.23872536
               9.00615340                7.00158669               21.02541666                0.01000002               -0.04574245               -0.16028231                0.13375921                0.00556282                0.13326862                0.31865596
              10.00579916                7.00232173               21.02554083                0.01010397               -0.03542357               -0.02797298                0.13587897               -0.01561174                0.07607217                0.36812423
               0.02257783                7.99686756               21.02254125                1.00000000               -0.03206271               -0.03234973                0.10800904               -0.00005172               -0.00057150                0.02247085
               1.02225720                7.99474363               21.02086536                0.99907135               -0.03171901               -0.03175570                0.10576623                0.00004346               -0.00029328                0.00303594
               2.02194345                7.99261705               21.01919829                0.01000000               -0.14000019               -0.03104901                0.10348402                0.11224907                0.04289187               -0.01580960
               3.01945719                7.99273343               21.01839180                0.01000001               -0.23957410               -0.18888958                0.11359780                0.42995194                0.11055002               -0.07391138
               4.01715196                7.99429550               21.01868061                0.01035958               -0.25367359               -0.06784945                0.10432246                0.49521686                0.19245774               -0.04373013
               5.01438372                7.99655793               21.01960930                0.01000000               -0.29219471               -0.00370991                0.11131700                0.40068738                0.23238071                0.01020198
               6.01130807                7.99848273               21.02127538                0.01000000               -0.30739390                0.01168249                0.11481012                0.23478944                0.28864589                0.06514907
               7.00823584                7.99960983               21.02364302                0.01000000               -0.28092092               -0.00605964                0.12648925                0.04690409                0.33942330                0.13503239
               8.00568965                7.99980783               21.02660878                0.01000002               -0.20059917               -0.05056731                0.13801540               -0.13929396                0.32523209                0.24705001
               9.00422386                8.00007289               21.02892693                0.01000007               -0.10807233               -0.10928110                0.14709399               -0.26732843                0.21691921                0.55850084
              10.00352820                8.00199867               21.02983775                0.01000000               -0.06956571               -0.16657880                0.15186772               -0.19252362                0.14471445                0.54938733
               0.02469830                8.99654487               21.02301878                1.00000000               -0.03187404               -0.03219836                0.10736523               -0.00010410                0.00234613                0.01783260
               1.02437956                8.99442709               21.02125966                0.99999999               -0.03153191               -0.03153475                0.10510193                0.00000101                0.00120545                0.00168422
               2.02406766                8.99230727               21.01947824                1.00000000               -0.03083579               -0.03085278                0.10277353               -0.00002192               -0.00514801               -0.01181884
               3.02376285                8.99018477               21.01759527                0.01137596               -0.18209058               -0.14240960                0.10027181                0.39803792                0.12189918               -0.07153206
               4.02042585                8.99384233               21.01836132                0.01000000               -0.39764583                0.03773382                0.10844160                0.47624825                0.25879376               -0.04836379
               5.01580993                8.99699456               21.01967225                0.01000000               -0.44483109                0.08642463                0.11312547                0.27641477                0.28749895                0.01179059
               6.01152923                8.99906604               21.02175707                0.01000001               -0.40918113                0.08194404                0.11978457                0.12272767                0.33947757                0.04291904
               7.00762631                9.00007226               21.02461638                0.01000002               -0.40320826                0.07064742                0.13128728               -0.01554742                0.41313075                0.08361470
               8.00346507                8.99998676               21.02860468                0.01000002               -0.45051588                0.07610543                0.14642303               -0.16146710                0.62163620                0.17260319
               8.99861599                8.99940107               21.03606632                0.99999998               -0.26839683               -0.05959739                0.17247457               -0.30940794                0.38481420                0.37029675
               9.99809713                8.99899015               21.03581090                0.99948198               -0.05188604               -0.17663676                0.17366090               -0.29216586               -0.00092444                0.31000021
               0.02681132                9.99622360               21.02340090                1.00000000               -0.03164996               -0.03212789                0.10670939                0.00023554                0.01249082                0.01318492
               1.02649482                9.99411293               21.02162932                1.00000000               -0.03129982               -0.03141526                0.10433880                0.00034563                0.01581132                0.00042100
               2.02618532                9.99199999               21.01992206                1.00000000               -0.03059632               -0.03072808                0.10198824                0.00038104                0.01591795               -0.00380571
               3.02588289                9.98988524               21.01815357                0.01000000               -0.31590942               -0.02995331                0.09964542                0.36451378                0.10250650               -0.00414806
               4.01986713                9.99505017               21.01818201                0.01111537               -0.55972897                0.12078408                0.11079552                0.36418768                0.21614628               -0.02733207
               5.01468831                9.99828643               21.01969656                0.01000000               -0.45911069                0.12918628                0.11370028                0.14141019                0.28913772                0.01817350
               6.01068492               10.00012161               21.02175881                0.01000001               -0.38420694                0.10555718                0.12156427                0.05238651                0.34136387                0.02794761
               7.00700418               10.00102278               21.02478656                0.01057552               -0.37767066                0.09505114                0.13359874               -0.00179646                0.45395270                0.05154873
               8.00313151               10.00132994               21.02950968                0.01000002               -0.39859331                0.13431853                0.15137531               -0.14044738                0.59818202                0.12841928
               8.99903231                9.99888094               21.03582093                0.99952485               -0.23123946               -0.05201214                0.17446897               -0.10156832                0.32947327                0.00113533
               9.99850672                9.99846594               21.03556549                0.99999999               -0.05255907               -0.05242136                0.17565935               -0.00054187                0.00103788               -0.00102326
               0.00114449                0.00174443               22.01815676                1.00000000               -0.02552931               -0.02534089                0.08539258               -0.00048743               -0.00388483                0.00348315
               1.00088919                0.00072763               22.01811122                1.00000000               -0.02534212               -0.02508087                0.08455263               -0.00000231               -0.00409277               -0.00118522
               2.00063764               -0.00029326               22.01805979                0.01000000               -0.01796745               -0.02481387                0.08367055                0.02183711                0.04600285               -0.00158733
               3.00052984               -0.00088021               22.01901761                0.01000000               -0.02059147               -0.01396047                0.08852020                0.02028117                0.10723080               -0.00444786
               4.00022581                0.00003756               22.02021110                0.01000001               -0.05912336               -0.00263990                0.09386891                0.07590874                0.13885748               -0.01377117
               4.99934738                0.00271011               22.02184775                0.01000000               -0.18475281                0.00886755                0.10083565                0.20132926                0.18643397               -0.02292048
               5.99653076                0.00817990               22.02414211                0.25866529               -0.15723779               -0.03275272                0.10948492                0.21801440                0.10818135               -0.00097959
               6.99620262                0.00928855               22.02473341                0.99941554               -0.03338285               -0.03324223                0.11190312                0.00030509                0.01470884               -0.00408053
               7.99586310                0.01039389               22.02515391                0.99999999               -0.03432597               -0.03401133                0.11433641                0.00042860                0.00779831               -0.00043679
               8.99551610                0.01149266               22.02560406                1.00000000               -0.03508093               -0.03477501                0.11686767                0.00036310                0.00748934                0.00092538
               9.99516148                0.01258518               22.02601714                1.00000000               -0.03546190               -0.03555776                0.11944063                0.00066322                0.00562050                0.00516185
               0.00215641                1.00149102               22.01814790                0.99929352               -0.02483937               -0.02505234                0.08358303               -0.00027673                0.00110300                0.00404098
               1.00190801                1.00047682               22.01810406                0.01075199               -0.02482372               -0.02482476                0.08266176                0.00009507                0.00258115               -0.00317135
               2.00165993                0.99945860               22.01809603                0.01000000               -0.06703855               -0.03599769                0.08191343                0.00158107                0.05296307                0.02190181
               3.00056724                0.99898019               22.01905472                0.01000001               -0.12350955               -0.01507710                0.08831626                0.06049084                0.09603077               -0.00400101
               3.99918974                1.00001116               22.02006054                0.01000000               -0.16388701               -0.00595830                0.09318153                0.16499932                0.10366815               -0.01600930
               4.99728950                1.00279879               22.02137143                0.01000000               -0.18840308               -0.01281333                0.09926699                0.32134959                0.14103188               -0.02442577
               5.99542168                1.00785237               22.02341532                0.01000001               -0.10954150               -0.13621332                0.10750337                0.29963233                0.08742697               -0.04611488
               6.99509867                1.00895613               22.02393065                1.00000000               -0.03281729               -0.03291446                0.10977195                0.00007390                0.00595089               -0.00405492
               7.99476534                1.01005378               22.02434191                0.99695583               -0.03372912               -0.03373110                0.11241598                0.00005045                0.00114212               -0.00033781
               8.99442409                1.01114491               22.02475943                0.99999999               -0.03448696               -0.03449030                0.11497079               -0.00001666                0.00100434                0.00060022
               9.99407560                1.01222960               22.02516789                1.00000000               -0.03484947               -0.03525869                0.11738656                0.00026815                0.00047187                0.00643476
               0.00316734                2.00124338               22.01814805                0.01000001               -0.02438303               -0.01453838                0.08178551                0.00601566                0.00175327                0.04926854
               1.00292351                2.00023113               22.01806025                0.01000000               -0.05007224               -0.05400539                0.08065969               -0.00744131                0.03341968                0.03869302
               2.00216590                1.99898678               22.01860225                0.01000001               -0.08682085               -0.06245726                0.08560963                0.03222413                0.05786437                0.03324113
               3.00118710                1.99881825               22.01907213                0.01000000               -0.12293482               -0.04093685                0.08997826                0.16264299                0.06207217               -0.00128281
               3.99970720                1.99991840               22.01981027                0.01000000               -0.16269660               -0.03240107                0.09385843                0.30319435                0.07693384               -0.01656285
               4.99793316                2.00245384               22.02077978                0.01000001               -0.16705711               -0.06737101                0.09848174                0.41806264                0.07792418               -0.02690910
               5.99636606                2.00545563               22.02178157                0.01000000               -0.19652384               -0.17631021                0.10314754                0.44937518                0.08729786               -0.06231216
               6.99400269                2.00863026               22.02312507                0.01000000               -0.13453630               -0.10933135                0.10763234                0.27200410                0.04265272               -0.02483247
               7.99367533                2.00971927               22.02353038                0.07682520               -0.03313693               -0.03328577                0.11047328                0.00119657               -0.00560604                0.00001165
               8.99333995                2.01080285               22.02390844                0.99999998               -0.03389354               -0.03386968                0.11297777                0.00002939               -0.00406351               -0.00164625
               9.99299746                2.01188000               22.02434595                0.99999999               -0.03424857               -0.03465976                0.11533237                0.00034050               -0.00123075                0.00639672
               0.00430121                3.00120025               22.01904113                0.01000001               -0.02854263               -0.00521037                0.09051557                0.01328000                0.00471503                0.10154747
               1.00401578                2.99939671               22.01888923                0.01000001               -0.02919549               -0.10403936                0.08914140                0.04887720                0.01183729                0.07245809
               2.00371730                2.99820945               22.01889709                0.01000000               -0.05636468               -0.10474982                0.09011792                0.16134010                0.03232624                0.02095742
               3.00288849                2.99816145               22.01915161                0.01000000               -0.10496324               -0.08590177                0.09256805                0.28938950                0.05112106               -0.00034022
               4.00161804                2.99936314               22.01962000                0.01025174               -0.13874836               -0.07847557                0.09537304                0.40585653                0.06262631               -0.01147315
               5.00011352                3.00145137               22.02026702                0.01000000               -0.16926357               -0.10183725                0.09875834                0.50255429                0.07135586               -0.01359445
               5.99823276                3.00432616               22.02110871                0.01000001               -0.19192051               -0.12570506                0.10244369                0.52051694                0.06766869               -0.00415059
               6.99627511                3.00676950               22.02190481                0.01000001               -0.28080425               -0.15439994                0.10621929                0.54546183                0.05558419               -0.01222276
               7.99261668                3.00938806               22.02272500                0.01000001               -0.20055834               -0.12189983                0.10769313                0.44451978                0.00659968                0.01943570
               8.99226395                3.01046751               22.02302027                0.01152864               -0.03442878               -0.10781403                0.11077370                0.31836189               -0.01060806                0.02723256
               9.99192810                3.01153640               22.02349903                0.30886081               -0.03358426               -0.25888016                0.11330938                0.35722163               -0.00163077                0.01627728
               0.00704002                4.00113917               22.01998238                0.01000000               -0.01481624               -0.03792965                0.09996227                0.08629054               -0.00142587                0.11547130
               1.00689185                3.99815035               22.01953762                0.01000000               -0.02060261               -0.15148966                0.09759299                0.18144101                0.00938130                0.05542881
               2.00662796                3.99689179               22.01927520                0.01000000               -0.05353278               -0.14154163                0.09459983                0.31736923                0.03076465                0.01542097
               3.00582120                3.99710022               22.01925904                0.01025213               -0.10467731               -0.11366229                0.09557599                0.40984425                0.05172254               -0.00476537
               4.00453442                3.99834888               22.01952870                0.01000000               -0.13999847               -0.11096247                0.09716976                0.49289041                0.07132730               -0.00709844
               5.00302123                4.00041710               22.02007069                0.01000001               -0.15380781               -0.11398193                0.09974824                0.55104840                0.08519767                0.00721377
               6.00145826                4.00294153               22.02081071                0.01000001               -0.15856022               -0.14200082                0.10300083                0.59580168                0.08925168                0.02739790
               6.99985002                4.00554227               22.02162570                0.01025729               -0.12952705               -0.15853426                0.10689274                0.59731599                0.07604731                0.05169600
               7.99886772                4.00728127               22.02230410                0.01024221               -0.11455885               -0.20435492                0.11093147                0.67518946                0.05037495                0.06318667
               8.99755885                4.00864657               22.02274947                0.01000000               -0.04318016               -0.22569074                0.11382979                0.50111097                0.01726855                0.07998646
               9.99800412                4.00670240               22.02287891                0.01056992                0.04452698               -0.38278764                0.11696587                0.36240671                0.00929991                0.03840900
               0.01200467                5.00044166               22.02116224                0.01065513               -0.01126810               -0.19340145                0.10028987                0.22961290                0.00295236                0.13392942
               1.01189199                4.99636692               22.02030967                0.01000000               -0.04449262               -0.15609740                0.10048933                0.37507333                0.01395293                0.04884376
               2.01111482                4.99537862               22.01963400                0.01000001               -0.11318557               -0.13098961                0.09974361                0.44940386                0.03522586                0.00109468
               3.00962828                4.99588820               22.01938705                0.01000000               -0.14779291               -0.12931779                0.09810567                0.50470815                0.06626109               -0.01360132
               4.00815896                4.99714389               22.01955294                0.01000001               -0.15432144               -0.11698433                0.09897963                0.53812887                0.09634780               -0.00458013
               5.00654185                4.99917173               22.02011937                0.01000001               -0.15676640               -0.12245972                0.10113408                0.56577378                0.11960026                0.02082111
               6.00502363                5.00148615               22.02096191                0.01035076               -0.13300813               -0.14564155                0.10349910                0.56026090                0.12594321                0.05300758
               7.00388169                5.00359882               22.02184513                0.01033399               -0.10037343               -0.18525886                0.10797718                0.54322803                0.11318240                0.08430602
               8.00301616                5.00530097               22.02258669                0.01000000               -0.05083232               -0.20575043                0.11570033                0.48124593                0.09350961                0.12005844
               9.00286504                5.00595370               22.02313384                0.01000000                0.00242089               -0.24814705                0.11971676                0.35058292                0.06238785                0.13893523
              10.00306458                5.00388065               22.02318198                0.01000000                0.01995409               -0.19097734                0.12094962                0.18663625                0.04019062                0.11405684
               0.01978175                5.99727114               22.02266767                0.70066646               -0.03253909               -0.17483506                0.10930302                0.27661057               -0.00327753                0.07592008
               1.01945636                5.99502840               22.02116425                0.01000001               -0.18434952               -0.08312511                0.10757818                0.34024560                0.00852796                0.02675329
               2.01609476                5.99427199               22.01990477                0.01000000               -0.26531332               -0.14603691                0.10255314                0.48732519                0.03455857               -0.02358520
               3.01415009                5.99451386               22.01947351                0.01000001               -0.20406421               -0.11262286                0.10073982                0.51338729                0.09215338               -0.02369670
               4.01201347                5.99600920               22.01966173                0.01000001               -0.20778199               -0.10708625                0.10074404                0.53784171                0.13367211               -0.00700782
               5.00999445                5.99796791               22.02035603                0.01035223               -0.18885421               -0.10760605                0.10216276                0.52292048                0.16179616                0.02357221
               6.00823639                6.00002870               22.02136101                0.01038830               -0.15473415               -0.12625645                0.10590192                0.47705485                0.16996872                0.05980750
               7.00689977                6.00183709               22.02242736                0.01000000               -0.10493147               -0.15949645                0.11379464                0.39725046                0.16915236                0.11524762
               8.00613776                6.00316627               22.02359086                0.01000000               -0.04544732               -0.20123520                0.12051030                0.30881015                0.15502460                0.18025441
               9.00599082                6.00368363               22.02443190                0.01000001               -0.01274099               -0.20264578                0.12468504                0.18194190                0.09693818                0.22204141
              10.00588294                6.00288285               22.02441463                0.01000001               -0.01078813               -0.06127904                0.12694835                0.08855892                0.05560404                0.21825372
               0.02202237                6.99694496               22.02315902                0.99999999               -0.03263190               -0.03258003                0.10964300               -0.00017623               -0.00382755                0.02363984
               1.02169605                6.99470442               22.02154090                1.00000000               -0.03232533               -0.03226037                0.10751977               -0.00031599               -0.00583301                0.00288515
               2.02137586                6.99245788               22.01988849                0.01000000               -0.17686147               -0.10645643                0.10565314                0.32287493                0.05744148               -0.02979925
               3.01815882                6.99363575               22.01954439                0.01000001               -0.29570568               -0.10640658                0.10261881                0.46528317                0.12816673               -0.03452441
               4.01546175                6.99500217               22.01976910                0.01026172               -0.25890298               -0.09935391                0.10371800                0.49455350                0.16943329               -0.01917967
               5.01298076                6.99701961               22.02060748                0.01033873               -0.23831016               -0.07243635                0.10446268                0.47538783                0.20531459                0.01149878
               6.01069554                6.99896102               22.02181635                0.01000000               -0.21458170               -0.07041326                0.11179579                0.36744832                0.23028715                0.06510956
               7.00868913                7.00040889               22.02352876                0.01000000               -0.16748602               -0.10125970                0.12053735                0.21907004                0.24981866                0.14526458
               8.00734582                7.00127626               22.02540908                0.01000000               -0.09509180               -0.15645664                0.12722526                0.08261270                0.22574282                0.24785263
               9.00678729                7.00190078               22.02675331                0.01000002               -0.04542554               -0.16810534                0.13407915                0.00811804                0.13853039                0.32936708
              10.00643731                7.00265507               22.02689909                0.01034984               -0.03499768               -0.02674579                0.13628494               -0.01566303                0.07887337                0.37995630
               0.02425930                7.99661954               22.02362287                1.00000000               -0.03221880               -0.03239400                0.10828267               -0.00013407               -0.00058300                0.02241518
               1.02393711                7.99438319               22.02192627                0.99999999               -0.03191855               -0.03194123                0.10642347                0.00003728               -0.00031723                0.00306574
               2.02362093                7.99214287               22.02023796                0.01000000               -0.15128204               -0.03135174                0.10451764                0.12434953                0.04690889               -0.01580816
               3.02091147                7.99238573               22.01949123                0.01000001               -0.25501212               -0.20218744                0.10836931                0.46364249                0.12629296               -0.08649473
               4.01852068                7.99402212               22.01973667                0.01025283               -0.26840562               -0.07107059                0.10414606                0.53308036                0.20367443               -0.04630882
               5.01554336                7.99651918               22.02072274                0.01000000               -0.31623061                0.00152774                0.11088097                0.43116404                0.25361701                0.00508608
               6.01219607                7.99862043               22.02243498                0.01000000               -0.32887157                0.01474436                0.11708255                0.25331469                0.30143768                0.06930729
               7.00896592                7.99981189               22.02489468                0.01000000               -0.29489760               -0.00393903                0.12553102                0.05338443                0.35244197                0.14008005
               8.00629812                8.00003713               22.02798538                0.01000002               -0.20957759               -0.05116559                0.13769151               -0.14404382                0.33651805                0.25518369
               9.00477437                8.00032152               22.03039652                0.01000007               -0.11185066               -0.11267866                0.14702943               -0.28107122                0.22382720                0.57566672
              10.00406111                8.00234794               22.03135653                0.01000000               -0.07132667               -0.17194114                0.15189481               -0.20235860                0.14944511                0.56659151
               0.02649239                8.99629708               22.02409183                1.00000000               -0.03189163               -0.03212432                0.10722161               -0.00012849                0.00234821                0.01790337
               1.02617347                8.99406559               22.02231173                0.99999999               -0.03160351               -0.03159747                0.10533827                0.00004598                0.00121724                0.00171065
               2.02586032                8.99183085               22.02050939                1.00000000               -0.03105275               -0.03105196                0.10349101               -0.00000802               -0.00513705               -0.01179343
               3.02555242                8.98959200               22.01860513                0.01131847               -0.19352059               -0.15484303                0.10166350                0.43142248                0.12658903               -0.07557814
               4.02198991                8.99358076               22.01944357                0.01000000               -0.42733432                0.04528704                0.10830040                0.51106286                0.26941753               -0.05064822
               5.01700573                8.99705016               22.02082400                0.01000000               -0.47603917                0.09595808                0.11507416                0.29693043                0.29795920                0.00979886
               6.01246912                8.99925591               22.02295483                0.01000001               -0.43328081                0.08888891                0.12038362                0.13243205                0.35135601                0.04568153
               7.00834011                9.00033011               22.02592786                0.01000002               -0.42569012                0.07765075                0.13141773               -0.01461949                0.42803763                0.08693350
               8.00395532                9.00025295               22.03006544                0.01000002               -0.47425260                0.08327962                0.14608837               -0.16920400                0.64209181                0.17771999
               8.99885506                8.99964721               22.03778787                0.99999998               -0.28090027               -0.05969929                0.17180895               -0.32589955                0.39709304                0.38164634
               9.99833731                8.99921625               22.03754726                0.99966808               -0.05177476               -0.18283793                0.17361601               -0.30781563               -0.00093893                0.31970852
               0.02871969                9.99597706               22.02446498                1.00000000               -0.03154346               -0.03200194                0.10612603                0.00014893                0.01254316                0.01323689
               1.02840426                9.99375124               22.02267246                1.00000000               -0.03126651               -0.03143507                0.10427874                0.00031695                0.01586391                0.00044730
               2.02809436                9.99152183               22.02094433                1.00000000               -0.03071230               -0.03090211                0.10245198                0.00028545                0.01595723               -0.00379847
               3.02779001                9.98928887               22.01915457                0.01000000               -0.34052911               -0.03031318                0.10058219                0.39406100                0.10908363               -0.00416056
               4.02128378                9.99492786               22.01929297                0.01120630               -0.59915975                0.13471048                0.11150235                0.38686082                0.22873748               -0.02967601
               5.01580681                9.99843834               22.02085011                0.01000000               -0.48595068                0.13881778                0.11635226                0.15362587                0.29778705                0.01615321
               6.01156476               10.00039821               22.02298309                0.01000001               -0.40651622                0.11423039                0.12311396                0.05589270                0.35294607                0.02999481
               7.00767649               10.00136491               22.02612296                0.01054323               -0.39839132                0.10348002                0.13396156               -0.00113659                0.47004882                0.05353944
               8.00359694               10.00170273               22.03102197                0.01000002               -0.41917033                0.14497755                0.15122091               -0.14770681                0.61878991                0.13236766
               8.99929308                9.99912754               22.03756586                0.99971949               -0.24151090               -0.05196730                0.17451423               -0.10677516                0.34039811                0.00119912
               9.99876672                9.99869118               22.03732532                0.99912397               -0.05263640               -0.05250686                0.17632208               -0.00069536                0.00097386               -0.00104842
               0.00115553                0.00179688               23.01901194                1.00000000               -0.02522824               -0.02505764                0.08540717               -0.00037837               -0.00368448                0.00380175
               1.00090325                0.00073224               23.01895806                1.00000000               -0.02529677               -0.02537418                0.08472638               -0.00087409               -0.00403406               -0.00124394
               2.00064959               -0.00033535               23.01889679                0.01000000               -0.01893958               -0.02486806                0.08389212                0.02257220                0.04901548               -0.00169857
               3.00052445               -0.00095507               23.01990531                0.01000000               -0.02261966               -0.01253666                0.08884455                0.02131052                0.11417056               -0.00408450
               4.00019720                0.00005511               23.02114690                0.01000001               -0.06448411                0.00042684                0.09364596                0.08271587                0.14456784               -0.01355583
               4.99923477                0.00296502               23.02285397                0.01000000               -0.20202921                0.01338248                0.10040508                0.21996566                0.19200618               -0.02299983
               5.99615662                0.00890673               23.02523272                0.24741912               -0.17019187               -0.03253346                0.10864172                0.23942564                0.11093580               -0.00098822
               6.99583094                0.01006026               23.02584940                1.00000000               -0.03317299               -0.03305063                0.11117570                0.00030022                0.01456715               -0.00421906
               7.99549316                0.01121120               23.02629577                0.99999999               -0.03420137               -0.03391981                0.11395492                0.00043648                0.00775152               -0.00044142
               8.99514691                0.01235632               23.02677253                1.00000000               -0.03505063               -0.03477031                0.11680511                0.00043096                0.00750846                0.00095638
               9.99479214                0.01349610               23.02721241                1.00000000               -0.03547642               -0.03564635                0.11963410                0.00072627                0.00565016                0.00516593
               0.00221638                1.00154630               23.01898480                0.99893532               -0.02557665               -0.02480778                0.08357205               -0.00059566                0.00128666                0.00424049
               1.00196062                1.00047850               23.01893030                0.01000000               -0.02487062               -0.02491314                0.08266713                0.00024620                0.00323315               -0.00317002
               2.00171897                0.99941597               23.01891431                0.01000000               -0.07091416               -0.03765100                0.08203412                0.00074575                0.05710688                0.02337658
               3.00054233                0.99891956               23.01993878                0.01000001               -0.13273273               -0.01393310                0.08811917                0.06587108                0.10379371               -0.00116535
               3.99906432                1.00005938               23.02099103                0.01000000               -0.17668580               -0.00371009                0.09326932                0.17992527                0.10840644               -0.01430838
               4.99700862                1.00309884               23.02236374                0.01000000               -0.20305335               -0.01100987                0.09912281                0.35035838                0.14571429               -0.02368256
               5.99500325                1.00858140               23.02448724                0.01000001               -0.11634550               -0.14560648                0.10685147                0.32656366                0.08985565               -0.04719656
               6.99468171                1.00972976               23.02502655                0.99997014               -0.03268779               -0.03277040                0.10930738                0.00004140                0.00577175               -0.00416553
               7.99434949                1.01087200               23.02546492                0.99765606               -0.03364713               -0.03364637                0.11215468                0.00001010                0.00114198               -0.00033362
               8.99400876                1.01200862               23.02590921                0.99999999               -0.03449344               -0.03449837                0.11499878                0.00000198                0.00100531                0.00062560
               9.99365962                1.01313964               23.02634398                1.00000000               -0.03491400               -0.03537528                0.11780699                0.00027466                0.00046408                0.00642645
               0.00327922                2.00130072               23.01896506                0.01080234               -0.02407260               -0.01225309                0.08158182                0.00742136                0.00181427                0.05486035
               1.00303850                2.00023398               23.01886454                0.01000000               -0.05278894               -0.05482039                0.08046637               -0.00573749                0.03542482                0.04406977
               2.00222344                1.99891163               23.01943578                0.01000001               -0.09200112               -0.06626404                0.08623639                0.03643804                0.06122147                0.03743663
               3.00119847                1.99876627               23.01997784                0.01000000               -0.13035075               -0.04253568                0.09021935                0.17794150                0.06591476                0.00272600
               3.99961643                1.99998091               23.02074953                0.01000000               -0.17392772               -0.03327894                0.09416552                0.32979530                0.07976459               -0.01362544
               4.99771992                2.00274482               23.02176548                0.01000001               -0.17797273               -0.07122905                0.09867130                0.45414602                0.08099929               -0.02552457
               5.99605697                2.00599460               23.02281290                0.01000000               -0.20893764               -0.19015011                0.10316254                0.48702394                0.08979435               -0.06293579
               6.99354117                2.00940486               23.02420081                0.01000000               -0.14212370               -0.11609187                0.10743722                0.29378423                0.04351093               -0.02454971
               7.99321450                2.01053827               23.02463422                0.07924456               -0.03309296               -0.03327288                0.11033672                0.00120416               -0.00556959                0.00029226
               8.99287931                2.01166635               23.02503912                0.99999998               -0.03394527               -0.03393222                0.11317394                0.00001232               -0.00406350               -0.00164849
               9.99253559                2.01278860               23.02550256                0.99968522               -0.03437131               -0.03483449                0.11595997                0.00028436               -0.00125767                0.00637507
               0.00449830                3.00130124               23.01994889                0.01000001               -0.02633473               -0.00271773                0.08533856                0.01661359                0.00315051                0.10724964
               1.00423495                2.99938209               23.01978223                0.01000001               -0.02914295               -0.11002293                0.08808994                0.05450565                0.01327044                0.07995177
               2.00391544                2.99809069               23.01980774                0.01000000               -0.06015306               -0.11109951                0.09100717                0.17665708                0.03399619                0.02898305
               3.00303189                2.99806885               23.02007807                0.01000000               -0.11168846               -0.09148612                0.09309159                0.31566864                0.05223651                0.00338275
               4.00168167                2.99939380               23.02057589                0.01023618               -0.14770248               -0.08352117                0.09591134                0.44143652                0.06468750               -0.00877764
               5.00007784                3.00167426               23.02125598                0.01000000               -0.17989899               -0.10908843                0.09923218                0.54473158                0.07376375               -0.01205778
               5.99808369                3.00477840               23.02213434                0.01000001               -0.20320561               -0.13490851                0.10280626                0.56221260                0.06979780               -0.00271278
               6.99601373                3.00740792               23.02296791                0.01000001               -0.29858057               -0.16500148                0.10656792                0.58701274                0.05644860               -0.01056779
               7.99211208                3.01020654               23.02381466                0.01000001               -0.21275227               -0.12700903                0.10931656                0.47512850                0.00620069                0.02161841
               8.99175868                3.01132997               23.02413095                0.01149655               -0.03456279               -0.11316831                0.11130360                0.33921664               -0.01085231                0.02989773
               9.99142082                3.01244295               23.02463595                0.32743146               -0.03378591               -0.27654400                0.11409556                0.38197105               -0.00161526                0.01930808
               0.00744979                4.00124637               23.02095839                0.01000000               -0.01106384               -0.04261581                0.09734034                0.09565719               -0.00151552                0.12293505
               1.00733915                3.99803352               23.02052640                0.01000000               -0.01899834               -0.16408710                0.09746961                0.19768008                0.00667419                0.06711167
               2.00706982                3.99668964               23.02022838                0.01000000               -0.05652060               -0.15065878                0.09572819                0.34548181                0.02709943                0.02289895
               3.00620874                3.99693654               23.02021897                0.01023661               -0.11150383               -0.12132180                0.09636272                0.44608562                0.05198813               -0.00151432
               4.00483975                3.99831048               23.02050247                0.01000000               -0.14893942               -0.11851075                0.09790192                0.53531532                0.07274453               -0.00543097
               5.00322995                4.00056305               23.02106955                0.01000001               -0.16360913               -0.12222113                0.10042323                0.59744275                0.08741302                0.00829494
               6.00156756                4.00329643               23.02184048                0.01000001               -0.16883367               -0.15163922                0.10349496                0.64399614                0.09119896                0.02902127
               6.99985328                4.00610483               23.02269088                0.01018530               -0.13862742               -0.16815669                0.10626464                0.64446339                0.07724142                0.05559930
               7.99879502                4.00799809               23.02341045                0.01015941               -0.12130239               -0.21717143                0.11104731                0.72443558                0.05200145                0.06791856
               8.99742723                4.00940299               23.02389373                0.01000000               -0.04229771               -0.24075185                0.11526682                0.53398052                0.01663059                0.08754478
               9.99794906                4.00725772               23.02405733                0.01065588                0.05218316               -0.40932677                0.11885378                0.38485836                0.00814026                0.04521672
               0.01283714                5.00044892               23.02216609                0.01000000               -0.00918660               -0.21044386                0.09912094                0.25570884               -0.00790442                0.14953939
               1.01274527                4.99610035               23.02131345                0.01000000               -0.04575457               -0.16739326                0.10090319                0.41107176                0.00313250                0.06764276
               2.01192205                4.99507752               23.02064466                0.01000001               -0.12062553               -0.13885578                0.10081432                0.48828675                0.03234143                0.00492673
               3.01033276                4.99564241               23.02037080                0.01000000               -0.15802882               -0.13735230                0.09892388                0.54708032                0.06526959               -0.01171288
               4.00876147                4.99702358               23.02054458                0.01000001               -0.16460088               -0.12501064                0.09958846                0.58399488                0.09861749               -0.00490940
               5.00704074                4.99922984               23.02112961                0.01000001               -0.16698172               -0.13110294                0.10176480                0.61417166                0.12296962                0.02036652
               6.00542184                5.00174561               23.02199864                0.01025797               -0.14197012               -0.15528477                0.10459023                0.60816066                0.12979898                0.05483295
               7.00420134                5.00404479               23.02292950                0.01022406               -0.10596034               -0.19754466                0.10939622                0.58734558                0.11872950                0.08977576
               8.00330263                5.00586311               23.02374635                0.01000000               -0.05113394               -0.22128213                0.11594361                0.51813657                0.09745187                0.12780890
               9.00317866                5.00651494               23.02433533                0.01000000                0.00529496               -0.26515406                0.12114206                0.37586462                0.06274089                0.14709920
              10.00340853                5.00425641               23.02440510                0.01000000                0.02298659               -0.20258101                0.12361609                0.19955129                0.03994294                0.11975194
               0.02126112                5.99703749               23.02376582                0.67230080               -0.03291259               -0.18697273                0.11024963                0.30351768               -0.00325495                0.08202184
               1.02093199                5.99468565               23.02224755                0.01000001               -0.19838119               -0.08712329                0.10901343                0.37059101                0.00665345                0.03187819
               2.01729349                5.99391253               23.02093452                0.01000000               -0.28638552               -0.15392204                0.10348017                0.52698099                0.03240953               -0.02023401
               3.01520428                5.99418950               23.02048457                0.01000001               -0.21806359               -0.11940305                0.10057065                0.55449807                0.09317446               -0.02461964
               4.01293222                5.99581027               23.02066526                0.01000001               -0.22064622               -0.11413991                0.10058483                0.58308097                0.13794871               -0.00979275
               5.01079136                5.99794099               23.02137619                0.01025955               -0.20081959               -0.11489033                0.10264031                0.56910870                0.16945049                0.02122795
               6.00891583                6.00019074               23.02242218                0.01026720               -0.16543319               -0.13425000                0.10750423                0.51804511                0.17937516                0.06298331
               7.00748269                6.00215393               23.02358186                0.01000000               -0.11141152               -0.17066808                0.11672363                0.42986700                0.17835794                0.12264647
               8.00668760                6.00357245               23.02481161                0.01000000               -0.04657356               -0.21512374                0.12344362                0.33238300                0.16069934                0.18828292
               9.00655122                6.00409991               23.02568824                0.01000001               -0.01152332               -0.21527669                0.12713796                0.19444907                0.10027405                0.23019817
              10.00645713                6.00320610               23.02569349                0.01000001               -0.00940887               -0.06387305                0.12954657                0.09444590                0.05793579                0.22525065
               0.02361117                6.99670947               23.02425897                0.99999999               -0.03291136               -0.03272156                0.11029762               -0.00024653               -0.00417477                0.02427052
               1.02328205                6.99435788               23.02262188                1.00000000               -0.03266727               -0.03257709                0.10862984               -0.00033106               -0.00602591                0.00341298
               2.02295782                6.99199908               23.02095304                0.01000000               -0.18785354               -0.11162751                0.10721123                0.34598219                0.05601634               -0.02742172
               3.01952498                6.99325435               23.02056464                0.01000001               -0.31431111               -0.11233516                0.10264035                0.50108870                0.12945672               -0.03701656
               4.01667160                6.99474079               23.02079389                0.01018969               -0.27412651               -0.10577118                0.10054212                0.53697009                0.18083508               -0.02672302
               5.01404245                6.99693203               23.02164738                0.01022883               -0.25509005               -0.07489315                0.10438368                0.51431153                0.21733367                0.01154242
               6.01156980                6.99906061               23.02294895                0.01000000               -0.23127373               -0.07301752                0.11422352                0.39742227                0.24479090                0.06857088
               7.00941698                7.00063142               23.02474616                0.01000000               -0.17827397               -0.10708050                0.12319365                0.23758086                0.26114575                0.15068028
               8.00800432                7.00156064               23.02668636                0.01000001               -0.09914915               -0.16586505                0.12917119                0.09042753                0.23435639                0.25598385
               9.00743399                7.00220940               23.02809825                0.01000002               -0.04596266               -0.17741230                0.13566326                0.00981748                0.14430484                0.33961405
              10.00708506                7.00297895               23.02826653                0.01000001               -0.03489288               -0.02618840                0.13791292               -0.01604661                0.08209371                0.39098282
               0.02595936                7.99638306               23.02470690                1.00000000               -0.03235988               -0.03243185                0.10848873               -0.00017972               -0.00062378                0.02233714
               1.02563576                7.99403411               23.02299383                1.00000000               -0.03213462               -0.03213850                0.10711181                0.00006075               -0.00036579                0.00307607
               2.02531666                7.99167998               23.02128865                0.01027042               -0.15757067               -0.03170167                0.10569215                0.13111960                0.04852410               -0.01578965
               3.02248434                7.99194280               23.02055918                0.01000001               -0.26613607               -0.21222438                0.10507559                0.49251692                0.14798053               -0.10731698
               4.01999394                7.99369485               23.02076353                0.01016989               -0.28632931               -0.07338556                0.10242132                0.57120307                0.21332419               -0.04626116
               5.01675776                7.99644313               23.02182692                0.01000000               -0.34145319                0.00655699                0.10862243                0.46254693                0.26921401                0.00560722
               6.01316488                7.99873039               23.02361703                0.01000000               -0.35117365                0.01854702                0.11913541                0.27259441                0.31612263                0.07098947
               7.00973429                8.00001232               23.02615364                0.01000001               -0.31233540               -0.00243845                0.12719801                0.05921155                0.36569087                0.14462012
               8.00691817                8.00025514               23.02936261                0.01000002               -0.22025158               -0.05280384                0.13852231               -0.15090442                0.34828862                0.26329762
               9.00532925                8.00055166               23.03186751                0.01000007               -0.11605367               -0.11723726                0.14757854               -0.29653892                0.23133635                0.59214048
              10.00459710                8.00268233               23.03287565                0.01000000               -0.07321560               -0.17817128                0.15226429               -0.21320749                0.15469461                0.58335580
               0.02830547                8.99606083               23.02516321                1.00000000               -0.03191205               -0.03205134                0.10703921               -0.00017867                0.00232626                0.01797367
               1.02798635                8.99371511               23.02336643                0.99999999               -0.03169696               -0.03168468                0.10564555                0.00006054                0.00122437                0.00175621
               2.02767153                8.99136504               23.02154806                1.00000000               -0.03129472               -0.03129117                0.10430585                0.00002224               -0.00508674               -0.01172421
               3.02736045                8.98900986               23.01962854                0.01129137               -0.20380996               -0.16198323                0.10301967                0.45698055                0.13044317               -0.07719309
               4.02359533                8.99327307               23.02052733                0.01000000               -0.45513009                0.05315034                0.10861393                0.54028556                0.27954428               -0.05115307
               5.01825785                8.99706317               23.02197373                0.01000000               -0.50714184                0.10570737                0.11456928                0.31773261                0.31057098                0.00870842
               6.01345249                8.99943155               23.02416474                0.01000001               -0.45906983                0.09672994                0.12183418                0.14127983                0.36405952                0.04716586
               7.00907645                9.00058266               23.02724474                0.01000002               -0.45027988                0.08455222                0.13255198               -0.01475049                0.44277937                0.09062240
               8.00444689                9.00050456               23.03152644                0.01000002               -0.50002108                0.09045426                0.14659675               -0.17858805                0.66192794                0.18299641
               8.99907603                8.99986466               23.03950250                0.99999998               -0.29436584               -0.06013528                0.17134056               -0.34406816                0.40912462                0.39195813
               9.99855958                8.99941553               23.03928323                0.99987220               -0.05164546               -0.18967415                0.17360389               -0.32440427               -0.00060367                0.32933919
               0.03064722                9.99574203               23.02552342                1.00000000               -0.03144668               -0.03187994                0.10557035                0.00001419                0.01261787                0.01328767
               1.03033275                9.99340042               23.02371489                1.00000000               -0.03124328               -0.03146944                0.10421670                0.00024722                0.01594453                0.00050794
               2.03002236                9.99105416               23.02197110                1.00000000               -0.03084150               -0.03108881                0.10290921                0.00021866                0.01601299               -0.00373818
               3.02971592                9.98870313               23.02016521                0.01013293               -0.36380037               -0.03067333                0.10156260                0.42073235                0.11532751               -0.00419134
               4.02274635                9.99475785               23.02041206                0.01132291               -0.63809965                0.14847801                0.11249836                0.40780934                0.24222983               -0.03183966
               5.01695393                9.99855728               23.02202360                0.01000000               -0.51376789                0.14941052                0.11769773                0.16496491                0.30678767                0.01472546
               6.01247099               10.00066499               23.02422109                0.01000001               -0.42938309                0.12334339                0.12447858                0.05915460                0.36400924                0.03187512
               7.00836627               10.00170337               23.02746579                0.01052261               -0.42032906                0.11207116                0.13502017               -0.00105617                0.48542780                0.05581542
               8.00406441               10.00206423               23.03253410                0.01000002               -0.44146730                0.15596696                0.15160148               -0.15596905                0.63899012                0.13643528
               8.99953692                9.99934895               23.03931121                0.99992675               -0.25285686               -0.05157031                0.17452918               -0.11267989                0.35050703                0.00068749
               9.99900727                9.99888885               23.03909193                0.99929988               -0.05296516               -0.05266812                0.17678419               -0.00124119                0.00064800               -0.00064776
               0.00117856                0.00187475               24.01986490                1.00000000               -0.02548918               -0.02520354                0.08492935               -0.00038755               -0.00348737                0.00409832
               1.00092367                0.00075828               24.01980575                1.00000000               -0.02539250               -0.02513379                0.08471288                0.00009934               -0.00397746               -0.00131194
               2.00067071               -0.00036227               24.01973764                0.01080264               -0.01802613               -0.02505864                0.08445245                0.02293088                0.05174720               -0.00180593
               3.00056314               -0.00102885               24.02079450                0.01000002               -0.02511010               -0.00867975                0.08500134                0.02234854                0.11573190               -0.00418574
               4.00016851                0.00007819               24.02208402                0.01000001               -0.07307322                0.00441702                0.09424791                0.08941212                0.14815822               -0.01268085
               4.99910168                0.00323057               24.02385585                0.01000000               -0.22072317                0.01830505                0.09949692                0.23923496                0.19730406               -0.02312450
               5.99575404                0.00965109               24.02631494                0.23687757               -0.18353842               -0.03228415                0.10771836                0.26115872                0.11324715               -0.00103523
               6.99543091                0.01084987               24.02695693                1.00000000               -0.03295207               -0.03284576                0.11040917                0.00033545                0.01434139               -0.00423225
               7.99509500                0.01204677               24.02743300                0.99999999               -0.03406389               -0.03381138                0.11352083                0.00047984                0.00777524               -0.00041648
               8.99474963                0.01323843               24.02794016                1.00000000               -0.03501357               -0.03476035                0.11670342                0.00047974                0.00754067                0.00096393
               9.99439473                0.01442536               24.02840982                0.99983134               -0.03549032               -0.03573773                0.11984968                0.00075304                0.00565462                0.00517760
               0.00229115                1.00162271               24.01981934                0.99999999               -0.02479782               -0.02491263                0.08314405               -0.00027130                0.00148735                0.00442798
               1.00204317                1.00050694               24.01975740                0.01000000               -0.02487820               -0.02488427                0.08285479                0.00010265                0.00389012               -0.00318028
               2.00179358                0.99938714               24.01973671                0.01000000               -0.07383860               -0.03978238                0.08272129               -0.00081357                0.06061091                0.02751724
               3.00056640                0.99888435               24.02081711                0.01000001               -0.14303349               -0.01188320                0.08743186                0.06818548                0.10808572                0.00058968
               3.99893291                1.00012236               24.02192592                0.01000000               -0.19294103               -0.00085828                0.09353833                0.19378091                0.11223839               -0.01277211
               4.99670758                1.00341363               24.02335389                0.01000000               -0.21884662               -0.00897301                0.09860112                0.37969961                0.15030608               -0.02284120
               5.99455598                1.00932825               24.02555235                0.01000001               -0.12355751               -0.15506401                0.10609193                0.35401823                0.09185360               -0.04800215
               6.99423643                1.01052141               24.02611680                1.00000000               -0.03252314               -0.03259807                0.10875012                0.00005409                0.00553975               -0.00417777
               7.99390552                1.01170866               24.02658500                0.99833774               -0.03356448               -0.03356962                0.11188615                0.00000217                0.00116266               -0.00030916
               8.99356514                1.01289083               24.02705940                0.99999999               -0.03450914               -0.03451488                0.11505163                0.00000166                0.00101632                0.00063644
               9.99321534                1.01406798               24.02752403                1.00000000               -0.03498010               -0.03549108                0.11820099                0.00025046                0.00046085                0.00642915
               0.00340467                2.00137649               24.01977969                0.01000000               -0.02433772               -0.01354025                0.08136480                0.00873002                0.00189574                0.05510534
               1.00316129                2.00026060               24.01966958                0.01000000               -0.05638187               -0.05865272                0.08087339               -0.00776219                0.04009240                0.04817458
               2.00227703                1.99884208               24.02032698                0.01000001               -0.09848282               -0.06953159                0.08853506                0.03903442                0.06642405                0.04405844
               3.00119163                1.99873348               24.02087652                0.01000000               -0.13810903               -0.04481902                0.09051784                0.19088112                0.06816067                0.00688890
               3.99951485                2.00006102               24.02169358                0.01000000               -0.18509271               -0.03438542                0.09437808                0.35592967                0.08307309               -0.01076694
               4.99748978                2.00305111               24.02275320                0.01000001               -0.18941152               -0.07537401                0.09895751                0.49057809                0.08370294               -0.02369132
               5.99572662                2.00654981               24.02384482                0.01000000               -0.22190960               -0.20419618                0.10330302                0.52538000                0.09191040               -0.06300769
               6.99305159                2.01019791               24.02527381                0.01000000               -0.15004950               -0.12266688                0.10709888                0.31564521                0.04408886               -0.02390917
               7.99272563                2.01137538               24.02573711                0.08206921               -0.03306222               -0.03322279                0.11024757                0.00111790               -0.00554820                0.00084861
               8.99239034                2.01254814               24.02617192                0.99999998               -0.03400953               -0.03399852                0.11340590                0.00003149               -0.00406664               -0.00164904
               9.99204544                2.01371554               24.02666515                1.00000000               -0.03449050               -0.03500951                0.11655003                0.00026388               -0.00126701                0.00636239
               0.00469754                3.00135191               24.02074790                0.01000001               -0.02752035                0.00020888                0.08706147                0.02164977                0.01031937                0.11950847
               1.00442234                2.99933389               24.02065103                0.01000001               -0.02980799               -0.11496164                0.08864827                0.06193304                0.01753150                0.09050308
               2.00410138                2.99799651               24.02071723                0.01000000               -0.06286328               -0.11646166                0.09095389                0.19272143                0.03635461                0.03422252
               3.00316508                2.99798797               24.02101344                0.01000000               -0.11837538               -0.09781449                0.09391051                0.34166903                0.05402812                0.00826419
               4.00173388                2.99943465               24.02153823                0.01022632               -0.15673626               -0.08947237                0.09676815                0.47710295                0.06663569               -0.00558542
               5.00003035                3.00190615               24.02225167                0.01000000               -0.19085452               -0.11708757                0.10018117                0.58756865                0.07586881               -0.00992114
               5.99791679                3.00524433               24.02316484                0.01000001               -0.21532920               -0.14460804                0.10359824                0.60481088                0.07131279               -0.00109235
               6.99572377                3.00806808               24.02403617                0.01000001               -0.31695674               -0.17526227                0.10726940                0.62865840                0.05737254               -0.00915808
               7.99157765                3.01104420               24.02491133                0.01000002               -0.22490782               -0.13337113                0.10956432                0.50610262                0.00568147                0.02394453
               8.99122561                3.01221086               24.02524634                0.01149159               -0.03459191               -0.11775230                0.11175955                0.35889121               -0.01139929                0.03305707
               9.99088581                3.01336779               24.02578094                0.34663684               -0.03397963               -0.29389772                0.11489235                0.40540708               -0.00161047                0.02284812
               0.00787370                4.00138067               24.02192919                0.01000000               -0.01183485               -0.03634437                0.09495604                0.10078560               -0.00355844                0.13472758
               1.00775535                3.99796136               24.02148701                0.01000000               -0.01981596               -0.16676307                0.09524000                0.20929514                0.00431538                0.07663745
               2.00747738                3.99651285               24.02118977                0.01000000               -0.05842386               -0.16127450                0.09637219                0.37093681                0.02596832                0.02907795
               3.00658687                3.99677719               24.02118629                0.01022646               -0.11693223               -0.12998114                0.09734658                0.48137054                0.05215940                0.00209175
               4.00513873                3.99827158               24.02148674                0.01000000               -0.15776976               -0.12758663                0.09928679                0.57853963                0.07411821               -0.00333832
               5.00343148                4.00070936               24.02207916                0.01000001               -0.17389139               -0.13168671                0.10201674                0.64514533                0.08930532                0.00994881
               6.00166091                4.00365765               24.02288061                0.01000001               -0.18032966               -0.16216108                0.10521568                0.69431200                0.09198655                0.03101225
               6.99982488                4.00669266               24.02375099                0.01013128               -0.14780036               -0.17823586                0.10721830                0.69175527                0.07625154                0.05845942
               7.99870490                4.00870796               24.02452504                0.01009488               -0.12901522               -0.22941049                0.11147873                0.77410710                0.04338776                0.08356318
               8.99724458                4.01019309               24.02505481                0.01000000               -0.04325898               -0.25548403                0.11552868                0.56825602                0.01148001                0.09412280
               9.99783972                4.00783758               24.02525599                0.01077201                0.05951400               -0.43641281                0.11993100                0.40635371                0.00522445                0.05296357
               0.01355187                5.00062502               24.02314465                0.01000002               -0.00758041               -0.22809848                0.10126965                0.28133580               -0.00558148                0.16099436
               1.01347607                4.99599863               24.02232774                0.01000000               -0.04237916               -0.18019170                0.10172946                0.44056880                0.00336920                0.07637350
               2.01270429                4.99477102               24.02165029                0.01000001               -0.12211568               -0.14769523                0.10073261                0.52091309                0.03029336                0.00951657
               3.01103376                4.99538835               24.02136553                0.01000000               -0.16658948               -0.14747801                0.10026013                0.59039350                0.06469358               -0.01082975
               4.00937250                4.99688292               24.02154471                0.01000001               -0.17432871               -0.13537734                0.10126623                0.63130775                0.10055078               -0.00547573
               5.00754718                4.99927241               24.02215466                0.01000001               -0.17763877               -0.14173338                0.10396037                0.66566219                0.12628328                0.02012486
               6.00581972                5.00200111               24.02305372                0.01018900               -0.15193065               -0.16597996                0.10730317                0.65941355                0.13331515                0.05690206
               7.00450857                5.00450336               24.02403305                0.01013794               -0.11301781               -0.21096523                0.11209759                0.63537524                0.12131637                0.09812286
               8.00355937                5.00645599               24.02490556                0.01000000               -0.05237319               -0.23580235                0.11738907                0.55691431                0.10130274                0.13911870
               9.00346110                5.00710118               24.02555669                0.01000000                0.00822676               -0.28342056                0.12344171                0.40266904                0.06444795                0.15561182
              10.00372390                5.00463953               24.02565430                0.01000000                0.02627995               -0.21555711                0.12595244                0.21340703                0.03958272                0.12594786
               0.02275320                5.99681870               24.02487266                0.64328147               -0.03324703               -0.20678679                0.11103883                0.33694164               -0.00322704                0.09004329
               1.02242072                5.99435753               24.02334452                0.01000001               -0.21236374               -0.09861183                0.11031471                0.40728182                0.00436005                0.03737310
               2.01850592                5.99355894               24.02197438                0.01000000               -0.30689419               -0.16078477                0.10445241                0.56596243                0.02820296               -0.01619175
               3.01628284                5.99382763               24.02148492                0.01000001               -0.23125479               -0.12837709                0.10123502                0.59392169                0.09257675               -0.02724502
               4.01388082                5.99556403               24.02167343                0.01000001               -0.23281542               -0.12567436                0.10161678                0.63351333                0.14297758               -0.01607317
               5.01162653                5.99787470               24.02240884                0.01019049               -0.21312982               -0.12363424                0.10525284                0.61996097                0.17679559                0.01865174
               6.00961823                6.00033805               24.02351110                0.01017334               -0.17745146               -0.14317577                0.11091364                0.56357633                0.18873534                0.06651031
               7.00807750                6.00247336               24.02476183                0.01000000               -0.11864316               -0.18263236                0.11984586                0.46599574                0.18720152                0.13024572
               8.00724536                6.00399191               24.02605973                0.01000000               -0.04815431               -0.23055295                0.12668097                0.35864064                0.16657453                0.19683170
               9.00711442                6.00452468               24.02697465                0.01000001               -0.01071081               -0.22936961                0.13161907                0.20833243                0.10403949                0.23884025
              10.00703115                6.00352644               24.02700556                0.01000001               -0.00832682               -0.06734840                0.13434752                0.10111234                0.05993494                0.23212005
               0.02521305                6.99648928               24.02536497                0.99999999               -0.03315858               -0.03283272                0.11084219               -0.00030088               -0.00456735                0.02491301
               1.02488147                6.99402639               24.02371349                1.00000000               -0.03298090               -0.03286806                0.10965179               -0.00033170               -0.00626258                0.00396581
               2.02455343                6.99155532               24.02203271                0.01000000               -0.19871827               -0.11634454                0.10870223                0.36572750                0.05416811               -0.02460032
               3.02090710                6.99282081               24.02159720                0.01000001               -0.32788642               -0.13260744                0.09752131                0.54637293                0.13245621               -0.04555550
               4.01799571                6.99436943               24.02177994                0.01013591               -0.28673614               -0.11002842                0.10106746                0.58087619                0.19095769               -0.03797046
               5.01517238                6.99679973               24.02269515                0.01014238               -0.27515591               -0.07848609                0.10598798                0.56078833                0.23431394                0.00732464
               6.01249259                6.99913759               24.02410082                0.01000000               -0.24988751               -0.07568115                0.11725327                0.43122819                0.25920849                0.07244667
               7.01017463                7.00085071               24.02599263                0.01000000               -0.19058618               -0.11338206                0.12648719                0.25819978                0.27114162                0.15544161
               8.00868086                7.00184493               24.02799250                0.01000001               -0.10407025               -0.17644530                0.13231484                0.09838629                0.24167659                0.26327312
               9.00809322                7.00251379               24.02946657                0.01000002               -0.04691172               -0.18822994                0.13850238                0.01106385                0.14951960                0.34841541
              10.00774263                7.00329257               24.02965735                0.01000000               -0.03505936               -0.02640419                0.14070077               -0.01674314                0.08510657                0.40078027
               0.02767296                7.99616205               24.02579264                1.00000000               -0.03249106               -0.03246233                0.10863424               -0.00021679               -0.00064479                0.02222756
               1.02734805                7.99370017               24.02406851                0.99999992               -0.03234524               -0.03233662                0.10779508                0.00008228               -0.00039488                0.00309029
               2.02702606                7.99123205               24.02235181                0.01245428               -0.14759299               -0.03207079                0.10690749                0.12091770                0.04758029               -0.01573698
               3.02439619                7.99117549               24.02159274                0.01000002               -0.27533143               -0.21893475                0.10889786                0.52031618                0.16036721               -0.11707219
               4.02151943                7.99336346               24.02178510                0.01010560               -0.31610256               -0.07301330                0.09371428                0.61846922                0.24217168               -0.06159934
               5.01807414                7.99630497               24.02289519                0.01000000               -0.36638107                0.01139620                0.10899177                0.49341643                0.29072097                0.00679322
               6.01419181                7.99882443               24.02481769                0.01000000               -0.37699909                0.02287872                0.12185322                0.29437324                0.33212704                0.07316724
               7.01053416                8.00020572               24.02743864                0.01000001               -0.33208949               -0.00101525                0.13027030                0.06489701                0.37772154                0.14834367
               8.00755002                8.00046300               24.03075582                0.01000002               -0.23230485               -0.05517699                0.14066947               -0.15951945                0.35869919                0.27045839
               9.00588806                8.00076008               24.03334809                0.01000007               -0.12056446               -0.12355566                0.14862225               -0.31385480                0.23804044                0.60766261
              10.00513873                8.00299836               24.03440181                0.01000000               -0.07493336               -0.18529074                0.15306364               -0.22511421                0.15953021                0.59950303
               0.03013247                8.99584004               24.02623261                1.00000000               -0.03193667               -0.03198255                0.10684196               -0.00023108                0.00233345                0.01806032
               1.02981311                8.99337966               24.02442464                0.99999999               -0.03180023               -0.03178469                0.10599127                0.00006402                0.00125228                0.00180332
               2.02949647                8.99091391               24.02259551                0.99999997               -0.03155478               -0.03155357                0.10518300                0.00003478               -0.00502878               -0.01165621
               3.02918201                8.98844211               24.02066552                0.01129407               -0.21304347               -0.15218930                0.10440045                0.46273340                0.13360255               -0.07620830
               4.02523560                8.99290917               24.02161585                0.01000000               -0.48011375                0.05790683                0.10683258                0.56680471                0.29342036               -0.05728252
               5.01957974                8.99702765               24.02311539                0.01000000               -0.53781471                0.11640648                0.11514191                0.33727019                0.32414793                0.01112668
               6.01447931                8.99959517               24.02539152                0.01000001               -0.48728714                0.10492940                0.12411103                0.15068558                0.37777132                0.04890695
               7.00983399                9.00083041               24.02857890                0.01000002               -0.47715964                0.09166953                0.13485378               -0.01579481                0.45658361                0.09375135
               8.00493611                9.00074139               24.03299737                0.01000002               -0.52766106                0.09765619                0.14797631               -0.19032171                0.68033715                0.18793096
               8.99928077                9.00004267               24.04121468                0.99999998               -0.30861604               -0.06181099                0.17131974               -0.36486559                0.42040780                0.40155249
               9.99876379                8.99958675               24.04101934                0.99999996               -0.05169807               -0.19687711                0.17364517               -0.34161613               -0.00026857                0.33850916
               0.03258909                9.99552240               24.02657639                1.00000000               -0.03136347               -0.03176398                0.10503783               -0.00013029                0.01268525                0.01336478
               1.03227546                9.99306447               24.02475680                1.00000000               -0.03123970               -0.03151849                0.10419517                0.00016430                0.01602661                0.00055218
               2.03196430                9.99060098               24.02300251                1.00000000               -0.03099298               -0.03129282                0.10340919                0.00014429                0.01608749               -0.00370110
               3.03165560                9.98813170               24.02118583                0.01000000               -0.38471593               -0.03104111                0.10258968                0.44338971                0.12142019               -0.00420802
               4.02426998                9.99452160               24.02154293                0.01146346               -0.67610283                0.16124325                0.11251916                0.42850833                0.25438079               -0.03576913
               5.01813354                9.99863310               24.02320407                0.01000000               -0.54336105                0.16054533                0.11789537                0.17545157                0.31551377                0.01505648
               6.01340276               10.00092302               24.02547266                0.01000001               -0.45307545                0.13278522                0.12629707                0.06264574                0.37526122                0.03376897
               7.00907203               10.00203911               24.02882337                0.01057062               -0.44357226                0.12087026                0.13696200               -0.00154062                0.50011704                0.05793620
               8.00453132               10.00241613               24.03405400                0.01000002               -0.46633220                0.16747336                0.15271294               -0.16624229                0.65819364                0.14027243
               8.99974539                9.99952386               24.04105644                0.99999996               -0.26565334               -0.05188136                0.17448842               -0.12130398                0.36009081                0.00017591
               9.99921825                9.99906081               24.04086100                0.99946391               -0.05271416               -0.05259380                0.17681465               -0.00085906                0.00032223               -0.00024718
               0.00120410                0.00196996               25.02071053                1.00000000               -0.02531325               -0.02498873                0.08409190               -0.00013562               -0.00352012                0.00395891
               1.00095096                0.00080269               25.02065232                1.00000000               -0.02541552               -0.02516335                0.08463954                0.00002954               -0.00379609               -0.00131844
               2.00069579               -0.00036961               25.02058584                0.01000001               -0.02291288               -0.02534118                0.08523756                0.02323465                0.04992189               -0.00164100
               3.00049271               -0.00108401               25.02160533                0.01000000               -0.02983853               -0.00666574                0.09022504                0.02657812                0.12100008                0.00437940
               4.00009902                0.00011769               25.02303186                0.01000001               -0.07713853                0.00766914                0.09191097                0.09685181                0.15724275               -0.01234703
               4.99894994                0.00350645               25.02484391                0.01000000               -0.23892676                0.02382140                0.09906316                0.25851320                0.20313686               -0.02263631
               5.99532048                0.01041121               25.02738709                0.22703667               -0.19751174               -0.03197241                0.10664562                0.28316336                0.11558890               -0.00106935
               6.99499970                0.01165587               25.02805759                1.00000000               -0.03275264               -0.03265532                0.10969712                0.00039899                0.01410041               -0.00427084
               7.99466543                0.01289888               25.02856619                0.99999998               -0.03393961               -0.03371678                0.11311105                0.00053454                0.00776583               -0.00041127
               8.99432091                0.01413712               25.02910660                1.00000000               -0.03497532               -0.03475345                0.11659002                0.00053242                0.00755887                0.00096763
               9.99396592                0.01537123               25.02960940                0.99983310               -0.03549876               -0.03583341                0.12006680                0.00077645                0.00566748                0.00518421
               0.00237001                1.00172008               25.02064768                0.99999999               -0.02489651               -0.02478476                0.08260372               -0.00023941                0.00152420                0.00456345
               1.00212105                1.00055106               25.02058739                0.01000000               -0.02492664               -0.02494245                0.08312531               -0.00005103                0.00362679               -0.00336284
               2.00187148                0.99937697               25.02056873                0.01000000               -0.08031068               -0.04090512                0.08362702               -0.00262604                0.06248744                0.03082622
               3.00051483                0.99884934               25.02168742                0.01000001               -0.15495876               -0.01041410                0.08920535                0.07598967                0.11018024                0.00560531
               3.99877231                1.00019438               25.02286179                0.01000000               -0.20632628                0.00177870                0.09165746                0.20987586                0.11838246               -0.01098763
               4.99638831                1.00374466               25.02433576                0.01000000               -0.23474505               -0.00666195                0.09836591                0.40949520                0.15566126               -0.02104793
               5.99407740                1.01009148               25.02660908                0.01000001               -0.13142267               -0.16446195                0.10517873                0.38193694                0.09369580               -0.04833354
               6.99375986                1.01132931               25.02720156                1.00000000               -0.03236286               -0.03242791                0.10819153                0.00005868                0.00528758               -0.00421024
               7.99343015                1.01256171               25.02770264                0.99902424               -0.03348988               -0.03349829                0.11163989                0.00001339                0.00116617               -0.00030960
               8.99309006                1.01378958               25.02821024                0.99999999               -0.03452848               -0.03453412                0.11511842                0.00001050                0.00102937                0.00064194
               9.99273958                1.01501289               25.02870800                1.00000000               -0.03504804               -0.03561445                0.11859719                0.00022486                0.00046803                0.00643590
               0.00353735                2.00147427               25.02059235                0.01104675               -0.02443011               -0.00890863                0.08114030                0.00937832                0.00195041                0.06274716
               1.00329305                2.00030384               25.02048201                0.01000000               -0.05961808               -0.05881692                0.08161149               -0.00833928                0.04370260                0.05347371
               2.00234499                1.99881228               25.02120648                0.01000001               -0.10489775               -0.07323076                0.08798622                0.04062529                0.07233535                0.05022300
               3.00119509                1.99870771               25.02178819                0.01000000               -0.14718901               -0.04624898                0.09045356                0.20588017                0.07229310                0.01217063
               3.99940121                2.00015326               25.02263710                0.01000000               -0.19761763               -0.03527256                0.09476491                0.38346753                0.08637026               -0.00692107
               4.99724274                2.00337321               25.02374463                0.01000001               -0.20133189               -0.07973921                0.09943457                0.52745014                0.08658230               -0.02036033
               5.99537457                2.00712197               25.02487896                0.01000000               -0.23560450               -0.21853618                0.10380930                0.56410715                0.09339297               -0.06209305
               6.99253065                2.01100731               25.02634279                0.01000000               -0.15845709               -0.12908659                0.10669681                0.33808864                0.04418357               -0.02273408
               7.99220543                2.01222891               25.02683917                0.08480402               -0.03303563               -0.03321055                0.11016431                0.00122575               -0.00553068                0.00125584
               8.99186994                2.01344644               25.02730724                0.99999998               -0.03408119               -0.03406787                0.11365817                0.00005265               -0.00405310               -0.00163985
               9.99152380                2.01465894               25.02783356                1.00000000               -0.03461337               -0.03519088                0.11713727                0.00024156               -0.00126435                0.00636577
               0.00489843                3.00154190               25.02169012                0.01000001               -0.02821860                0.00349473                0.08582287                0.01956284                0.00519193                0.12517367
               1.00461625                2.99937472               25.02155520                0.01000001               -0.03091591               -0.12071428                0.08863316                0.06211439                0.01546054                0.09852772
               2.00428012                2.99791236               25.02162682                0.01000000               -0.06623960               -0.12370655                0.09201766                0.20472803                0.03729373                0.03999818
               3.00329146                2.99792436               25.02195628                0.01000000               -0.12519792               -0.10407115                0.09483153                0.36682196                0.05601457                0.01345684
               4.00177616                2.99948893               25.02251125                0.01022004               -0.16614239               -0.09580119                0.09798832                0.51267808                0.06855454               -0.00090511
               4.99996861                3.00214988               25.02325960                0.01000000               -0.20253546               -0.12570898                0.10165817                0.63056390                0.07770825               -0.00645221
               5.99772545                3.00572076               25.02420630                0.01000001               -0.22769613               -0.15470844                0.10517464                0.64793002                0.07246645                0.00170253
               6.99541469                3.00874758               25.02511330                0.01000001               -0.33549562               -0.18650920                0.10772832                0.66899812                0.05711085               -0.00681215
               7.99101554                3.01189750               25.02600594                0.01082806               -0.23768002               -0.12768965                0.11099991                0.52570840                0.00413731                0.02629694
               8.99066109                3.01310823               25.02636615                0.01151244               -0.03480645               -0.12356705                0.11220583                0.37337639               -0.01179446                0.03532405
               9.99031941                3.01430907               25.02693379                0.36626216               -0.03416785               -0.31076536                0.11567651                0.42645465               -0.00161192                0.02598279
               0.00826297                4.00154416               25.02285752                0.01000000               -0.00980953               -0.04082852                0.09521868                0.10758482               -0.00301083                0.14036472
               1.00816488                3.99788956               25.02243120                0.01000000               -0.01865334               -0.18022051                0.09586782                0.22423832                0.00537612                0.08158849
               2.00788991                3.99633815               25.02215583                0.01000000               -0.06049607               -0.17145591                0.09711882                0.39733677                0.02726428                0.03452359
               3.00695496                3.99662629               25.02216590                0.01022017               -0.12303315               -0.13985844                0.09893986                0.51699226                0.05291158                0.00660054
               4.00542925                3.99823724               25.02248821                0.01000000               -0.16663852               -0.13807759                0.10132604                0.62199701                0.07555789                0.00018117
               5.00362219                4.00085903               25.02310988                0.01000001               -0.18468903               -0.14236125                0.10447754                0.69396747                0.09123896                0.01305047
               6.00173546                4.00402780               25.02394480                0.01000001               -0.19441575               -0.17337979                0.10806432                0.74511971                0.09291278                0.03448305
               6.99973387                4.00727712               25.02483525                0.01009139               -0.16882570               -0.18755899                0.11132229                0.75042281                0.07470399                0.06199401
               7.99835895                4.00967512               25.02564003                0.01004429               -0.14039925               -0.23933490                0.11279008                0.82437436                0.03257023                0.10093302
               8.99692589                4.01097509               25.02620431                0.01000000               -0.03538753               -0.27004489                0.11497293                0.59131560                0.00675718                0.10016392
               9.99765120                4.00844363               25.02645595                0.01091779                0.07253123               -0.46416378                0.11870506                0.43113086                0.00429934                0.06097729
               0.01435935                5.00072533               25.02419149                0.01000000               -0.00523193               -0.24630642                0.10417620                0.30399182               -0.00304702                0.16718797
               1.01430703                4.99577031               25.02334804                0.01000000               -0.04346134               -0.19211000                0.10267066                0.47552519                0.00649026                0.07923156
               2.01349012                4.99448324               25.02265932                0.01000001               -0.12874068               -0.15659418                0.10201894                0.55920596                0.03014466                0.01470619
               3.01173221                4.99512719               25.02237601                0.01000000               -0.17533814               -0.16066769                0.10227039                0.63229720                0.06474479               -0.00862997
               4.00998336                4.99672738               25.02256990                0.01000001               -0.18374066               -0.14918322                0.10427987                0.68070381                0.10256990               -0.00484543
               5.00805740                4.99930265               25.02320882                0.01000001               -0.18868038               -0.15427456                0.10750507                0.71965970                0.12935973                0.02184598
               6.00620975                5.00225316               25.02414470                0.01013716               -0.16407878               -0.17769778                0.11153547                0.71479140                0.13685396                0.06020396
               7.00477582                5.00499640               25.02517145                0.01006988               -0.12023472               -0.22389269                0.11623826                0.69009271                0.12368089                0.10670372
               8.00380505                5.00711080               25.02609413                0.01000000               -0.05284688               -0.26264878                0.12232445                0.60791201                0.10531053                0.15065449
               9.00371889                5.00770733               25.02680417                0.01000000                0.00999505               -0.30041346                0.12531697                0.43376455                0.06622948                0.16584949
              10.00400496                5.00502580               25.02692415                0.01000000                0.02860688               -0.22990881                0.12634754                0.22898804                0.03905557                0.13330383
               0.02425286                5.99661803               25.02598660                0.61370933               -0.03353848               -0.22187942                0.11165993                0.36610372               -0.00320093                0.09519602
               1.02391748                5.99404736               25.02445384                0.01000001               -0.22678570               -0.10285510                0.11147142                0.43851353                0.00165633                0.04336267
               2.01971715                5.99320627               25.02302357                0.01000000               -0.32803567               -0.16768001                0.10598397                0.60164705                0.02283221               -0.01249974
               3.01735676                5.99341293               25.02250927                0.01000001               -0.24246461               -0.14458833                0.10499526                0.63709869                0.09247802               -0.03457766
               4.01486786                5.99525358               25.02269759                0.01000001               -0.24335832               -0.14288368                0.10555221                0.68850234                0.14665822               -0.01989258
               5.01248960                5.99777354               25.02348125                0.01013875               -0.22651558               -0.13552398                0.11004299                0.67853586                0.18456039                0.01699943
               6.01033754                6.00047384               25.02464046                0.01009884               -0.19057530               -0.15251021                0.11561441                0.61362346                0.19682356                0.07130445
               7.00867809                6.00279927               25.02597877                0.01000000               -0.12656394               -0.19664789                0.12424620                0.50603010                0.19506493                0.13767865
               8.00780627                6.00442214               25.02734523                0.01000000               -0.04959554               -0.24903966                0.13019568                0.38632050                0.17293712                0.20466872
               9.00768618                6.00496683               25.02832062                0.01000002               -0.01061219               -0.24515285                0.13878078                0.22319828                0.10955113                0.24707380
              10.00759402                6.00384545               25.02838044                0.01000001               -0.00921590               -0.07137467                0.14396101                0.10789737                0.06429779                0.24105975
               0.02682278                6.99628775               25.02647582                0.99999999               -0.03337148               -0.03290341                0.11125843               -0.00036046               -0.00499614                0.02557358
               1.02648906                6.99371321               25.02481492                1.00000000               -0.03326486               -0.03312942                0.11057449               -0.00034425               -0.00653501                0.00453766
               2.02615748                6.99112964               25.02312708                0.01000000               -0.20310923               -0.12019136                0.11012093                0.37745521                0.04557326               -0.02135295
               3.02242688                6.99223542               25.02251506                0.01000001               -0.33823413               -0.14399541                0.09805830                0.58208495                0.12716529               -0.06178946
               4.01939280                6.99386971               25.02281524                0.01009593               -0.30095146               -0.13133119                0.10737005                0.65119148                0.21318324               -0.06171919
               5.01640785                6.99659217               25.02376714                0.01007434               -0.29681561               -0.08073931                0.11110137                0.61916247                0.24868223                0.00673508
               6.01345649                6.99920296               25.02529401                0.01000000               -0.27298609               -0.07854036                0.12216685                0.46988462                0.27214761                0.07706597
               7.01094813                7.00106344               25.02727590                0.01000000               -0.20462880               -0.12031735                0.13059609                0.27997679                0.27936546                0.16019714
               8.00936391                7.00213001               25.02933266                0.01000001               -0.10942932               -0.18813521                0.13616590                0.10586332                0.24748848                0.26878624
               9.00875954                7.00280427               25.03086830                0.01000002               -0.04791314               -0.20050132                0.14112468                0.01130951                0.15266746                0.35951876
              10.00840565                7.00359830               25.03108054                0.01005192               -0.03538940               -0.02675277                0.14184305               -0.01628453                0.08808964                0.41199832
               0.02939473                7.99595997               25.02687959                1.00000000               -0.03260329               -0.03247269                0.10871713               -0.00025478               -0.00066655                0.02209909
               1.02906870                7.99338477               25.02514973                1.00000000               -0.03253465               -0.03251580                0.10841390                0.00009540               -0.00042117                0.00310409
               2.02874404                7.99080244               25.02342680                0.01508889               -0.14051501               -0.03242111                0.10805741                0.11604254                0.05133227               -0.01566057
               3.02625840                7.99053303               25.02273714                0.01083472               -0.26045525               -0.21714030                0.11648468                0.52048987                0.23931416               -0.21366799
               4.02353493                7.99262695               25.02263782                0.01005553               -0.33594023               -0.07500575                0.09372054                0.66233975                0.27589347               -0.06523216
               5.01953959                7.99615875               25.02400676                0.01000000               -0.41354831                0.01923267                0.11588394                0.54166864                0.31749793                0.00899033
               6.01526397                7.99890304               25.02605409                0.01000000               -0.40945061                0.02758786                0.12629319                0.31610438                0.34561759                0.07585757
               7.01135058                8.00039292               25.02875905                0.01000001               -0.35406304                0.00047580                0.13429383                0.07052699                0.38777654                0.15162022
               8.00818271                8.00065944               25.03217600                0.01000002               -0.24532539               -0.05825036                0.14369831               -0.16910897                0.36672443                0.27669575
               9.00644407                8.00095680               25.03483996                0.01000007               -0.12512204               -0.13084564                0.15068913               -0.33231785                0.24311719                0.62249382
              10.00568026                8.00331040               25.03593692                0.01000000               -0.07638081               -0.19358928                0.15540087               -0.23767763                0.16387252                0.61511987
               0.03196808                8.99563829               25.02730005                1.00000000               -0.03195841               -0.03190947                0.10663716               -0.00027101                0.00234646                0.01815883
               1.03164850                8.99306289               25.02548625                0.99999998               -0.03190042               -0.03188085                0.10632482                0.00006979                0.00128989                0.00186033
               2.03133007                8.99048122               25.02365172                1.00000000               -0.03181661               -0.03181544                0.10605832                0.00003818               -0.00495716               -0.01157015
               3.03101216                8.98789262               25.02171655                0.01132499               -0.21581028               -0.14773340                0.10581761                0.46169398                0.13379523               -0.07988113
               4.02701387                8.99236959               25.02266398                0.01000000               -0.50235131                0.07806721                0.10556942                0.56825033                0.30105917               -0.05180129
               5.02096514                8.99697683               25.02427657                0.01000000               -0.57347319                0.12611496                0.11765723                0.35900066                0.33981987                0.01405087
               6.01554440                8.99975472               25.02664696                0.01000001               -0.51814361                0.11375191                0.12795670                0.15945410                0.39031386                0.05046497
               7.01060227                9.00107296               25.02994181                0.01000002               -0.50632735                0.09901211                0.13821460               -0.01765134                0.46887449                0.09638355
               8.00541786                9.00096500               25.03448597                0.01000003               -0.55700206                0.10484927                0.14991917               -0.20365507                0.69684395                0.19208570
               8.99946222                9.00018736               25.04292890                0.99999998               -0.32364792               -0.06439222                0.17149683               -0.38754070                0.43053900                0.41107460
               9.99894490                8.99972652               25.04275613                0.99999996               -0.05173273               -0.20549146                0.17371895               -0.35986749               -0.00028354                0.34707445
               0.03454011                9.99532178               25.02762417                1.00000000               -0.03129451               -0.03165141                0.10454194               -0.00025961                0.01275594                0.01345275
               1.03422717                9.99274715               25.02579880                1.00000000               -0.03125179               -0.03157401                0.10423386                0.00008473                0.01610996                0.00060236
               2.03391508                9.99016613               25.02403929                1.00000000               -0.03116312               -0.03150853                0.10398245                0.00006076                0.01616241               -0.00365942
               3.03360390                9.98757836               25.02221700                0.04310536               -0.40496748               -0.03142565                0.10369071                0.46028218                0.12615000               -0.00422187
               4.02581573                9.99418830               25.02266244                0.01162778               -0.71347124                0.18187067                0.10877542                0.43532063                0.26643211               -0.03425048
               5.01933448                9.99868105               25.02438151                0.01000000               -0.57294057                0.17042250                0.11810694                0.18642300                0.32523986                0.01453585
               6.01435691               10.00117807               25.02674703                0.01000001               -0.47736042                0.14233582                0.12924381                0.06585687                0.38722778                0.03561220
               7.00978727               10.00237317               25.03020503                0.01065012               -0.46808544                0.13002056                0.13993572               -0.00258210                0.51391080                0.05941131
               8.00499521               10.00275642               25.03558836                0.01000002               -0.49277662                0.17914241                0.15405754               -0.17747560                0.67554388                0.14379231
               8.99993174                9.99966895               25.04280098                0.99999996               -0.27953064               -0.05184040                0.17441763               -0.13084138                0.36950477                0.00023984
               9.99940459                9.99920057               25.04262822                0.99961536               -0.05271454               -0.05259509                0.17664380               -0.00086905                0.00025846               -0.00027259
               0.00122458                0.00207962               26.02154674                1.00000000               -0.02521395               -0.02474668                0.08326978               -0.00002230               -0.00345823                0.00414556
               1.00097244                0.00086177               26.02149854                1.00000000               -0.02542226               -0.02517677                0.08466478                0.00019622               -0.00374726               -0.00122469
               2.00071613               -0.00036089               26.02144239                0.01045167               -0.02176562               -0.02560915                0.08606708                0.02435694                0.05637501               -0.00169230
               3.00053713               -0.00110544               26.02259900                0.01000000               -0.03206734               -0.00809648                0.09290400                0.02059480                0.14086525               -0.00208408
               4.00007478                0.00017138               26.02392224                0.01000001               -0.08639692                0.01259918                0.09102811                0.10272256                0.17082513               -0.01415710
               4.99880919                0.00379414               26.02583711                0.01000003               -0.26113202                0.02978039                0.10277037                0.27715070                0.21067146               -0.02092578
               5.99485214                0.01118573               26.02844785                0.21779990               -0.21376849               -0.03160232                0.10542709                0.30531485                0.11694728               -0.00109272
               6.99453382                0.01247652               26.02915087                1.00000000               -0.03254208               -0.03245075                0.10894452                0.00047522                0.01388066               -0.00430750
               7.99420130                0.01376564               26.02969523                0.99999998               -0.03381104               -0.03361586                0.11268999                0.00058483                0.00774479               -0.00041912
               8.99385760                0.01505050               26.03027196                1.00000000               -0.03494147               -0.03474761                0.11648508                0.00058786                0.00756895                0.00096533
               9.99350247                0.01633185               26.03081115                0.99981425               -0.03551225               -0.03593082                0.12028778                0.00080545                0.00567761                0.00519168
               0.00244221                1.00183215               26.02147142                0.99999999               -0.02475560               -0.02453129                0.08184103               -0.00022595                0.00137592                0.00471451
               1.00219465                1.00061000               26.02141991                0.01000000               -0.02494527               -0.02497501                0.08319795               -0.00001759                0.00355753               -0.00321124
               2.00194330                0.99938302               26.02140925                0.01000000               -0.08588557               -0.04253322                0.08455069               -0.00474922                0.06556938                0.03356419
               3.00047694                0.99881360               26.02260122                0.01000001               -0.16455417               -0.00932621                0.08558091                0.07920493                0.13467424                0.00746380
               3.99865222                1.00029737               26.02375907                0.01000000               -0.22017117                0.00508835                0.09136025                0.22446902                0.12957997               -0.00548038
               4.99607352                1.00409194               26.02532120                0.01000000               -0.25440575               -0.00370360                0.10049889                0.43713526                0.15974485               -0.01720591
               5.99356411                1.01086970               26.02765593                0.01000001               -0.14124529               -0.17375001                0.10412156                0.41021209                0.09474118               -0.04785255
               6.99324861                1.01215201               26.02828063                1.00000000               -0.03219746               -0.03225165                0.10761844                0.00005052                0.00507356               -0.00423333
               7.99292016                1.01342948               26.02881780                0.99969366               -0.03341223               -0.03342223                0.11138414                0.00001399                0.00116198               -0.00031580
               8.99258037                1.01470303               26.02936177                0.99999999               -0.03454875               -0.03455356                0.11518523                0.00001820                0.00104338                0.00064569
               9.99222918                1.01597254               26.02989598                1.00000000               -0.03511868               -0.03573981                0.11900623                0.00020352                0.00048246                0.00644792
               0.00366437                2.00158900               26.02140249                0.01013347               -0.02431529               -0.01209684                0.08037791                0.00877827                0.00191189                0.06185554
               1.00342122                2.00036227               26.02130181                0.01000000               -0.06234103               -0.06273736                0.08175280               -0.01001742                0.04634318                0.05678913
               2.00241755                1.99878845               26.02208671                0.01000001               -0.11071699               -0.07679494                0.08780268                0.04243203                0.07592947                0.05493551
               3.00120688                1.99870804               26.02268559                0.01000000               -0.15658668               -0.04670999                0.09069853                0.22043435                0.07199263                0.01748364
               3.99928582                2.00027314               26.02358888                0.01000000               -0.21136606               -0.03659652                0.09582466                0.40807286                0.08940474                0.00166957
               4.99697956                2.00372007               26.02474189                0.01000001               -0.21447468               -0.08400470                0.10044306                0.56267645                0.08889778               -0.01577919
               5.99499632                2.00771073               26.02592100                0.01000000               -0.25022534               -0.23285786                0.10478927                0.60298622                0.09363284               -0.05984801
               6.99197505                2.01183148               26.02740775                0.01000000               -0.16728807               -0.13563176                0.10630287                0.36020987                0.04351970               -0.02142378
               7.99165056                2.01309719               26.02794040                0.09025160               -0.03300766               -0.03300971                0.11007199                0.00076739               -0.00551232                0.00315302
               8.99131490                2.01435943               26.02844509                0.99999998               -0.03415233               -0.03413768                0.11390667                0.00006811               -0.00402749               -0.00162405
               9.99096751                2.01561706               26.02900789                1.00000000               -0.03473819               -0.03537462                0.11774017                0.00021700               -0.00125037                0.00638259
               0.00507123                3.00159022               26.02246436                0.01000001               -0.02763833                0.00488023                0.08650414                0.02659047                0.01327263                0.13387520
               1.00479485                2.99935525               26.02242369                0.01000001               -0.03125301               -0.12809874                0.09016537                0.07001237                0.02030631                0.10383136
               2.00444617                2.99784712               26.02255759                0.01000000               -0.06969578               -0.13088134                0.09301491                0.21972762                0.03938095                0.04662692
               3.00340094                2.99787940               26.02291007                0.01000000               -0.13222644               -0.11092793                0.09624537                0.39120788                0.05704355                0.02043826
               4.00180165                2.99956544               26.02349800                0.01021644               -0.17557354               -0.10282967                0.09961168                0.54762757                0.06984993                0.00497729
               4.99988946                3.00241185               26.02428483                0.01000000               -0.21446145               -0.13494576                0.10342955                0.67336082                0.07932330               -0.00135781
               5.99751242                3.00621255               26.02526833                0.01000001               -0.24115613               -0.16509060                0.10700158                0.69124972                0.07288084                0.00615104
               6.99506634                3.00943937               26.02619073                0.01000001               -0.35524317               -0.19785442                0.10944678                0.71027112                0.05703343               -0.00207272
               7.99040755                3.01276929               26.02713133                0.01081217               -0.25022366               -0.12293814                0.10691881                0.54587929                0.00301245                0.02973319
               8.99006187                3.01402028               26.02749045                0.01155766               -0.03446376               -0.13005431                0.11265966                0.38723325               -0.01367208                0.03730132
               9.98971828                3.01526505               26.02809447                0.38669814               -0.03435914               -0.32751414                0.11647046                0.44722230               -0.00162147                0.02735229
               0.00866611                4.00168660               26.02383356                0.01000003               -0.01015545               -0.03752610                0.09606911                0.11669892               -0.00349916                0.15358013
               1.00856456                3.99780029               26.02340437                0.01000000               -0.01890781               -0.18973173                0.09718785                0.24137079                0.00474998                0.08984230
               2.00828796                3.99617082               26.02313214                0.01000000               -0.06259188               -0.18248615                0.09847297                0.42611125                0.02717667                0.04072697
               3.00731272                3.99648948               26.02316509                0.01021634               -0.12910221               -0.15035087                0.10076534                0.55314277                0.05384972                0.01249353
               4.00570591                3.99821655               26.02351326                0.01000000               -0.17565284               -0.14944063                0.10368560                0.66605572                0.07693434                0.00574737
               5.00379967                4.00102115               26.02416871                0.01000001               -0.19560591               -0.15369448                0.10721901                0.74312382                0.09326685                0.01829823
               6.00179380                4.00440891               26.02504189                0.01000001               -0.20879663               -0.18515093                0.11135461                0.79674986                0.09578966                0.03958204
               6.99962373                4.00787439               26.02597744                0.01006183               -0.19032753               -0.19727328                0.11577488                0.80979672                0.07738142                0.06881486
               7.99798724                4.01063843               26.02678085                0.01000535               -0.15299678               -0.25027009                0.11679914                0.87546328                0.04190832                0.09645261
               8.99656380                4.01175835               26.02735427                0.01000000               -0.02824176               -0.28592097                0.11628235                0.61610725                0.01003469                0.10928206
               9.99742241                4.00906677               26.02763009                0.01109270                0.08586127               -0.49419634                0.11683153                0.45818112                0.00517413                0.06651186
               0.01517783                5.00083970               26.02522818                0.01000000               -0.00397871               -0.26241535                0.10378107                0.32652081               -0.00316727                0.17615492
               1.01513804                4.99556062               26.02438115                0.01000000               -0.04493093               -0.20211950                0.10376245                0.51050126                0.00586980                0.08858985
               2.01427921                4.99419740               26.02369066                0.01000001               -0.13599900               -0.16648211                0.10396517                0.59654679                0.02974096                0.02071673
               3.01241806                4.99487238               26.02341094                0.01000000               -0.18440643               -0.17462268                0.10503237                0.67624394                0.06514662               -0.00290363
               4.01059108                4.99657663               26.02363030                0.01000001               -0.19292437               -0.16478545                0.10763587                0.73008399                0.10445419                0.00010153
               5.00855958                4.99933796               26.02430476                0.01000001               -0.19984554               -0.16823950                0.11156754                0.77540568                0.13219660                0.02691407
               6.00659417                5.00250953               26.02528443                0.01009847               -0.17634086               -0.18970418                0.11608401                0.77096637                0.14074064                0.06556803
               7.00503276                5.00549391               26.02635782                0.01001529               -0.12806542               -0.23759554                0.12121202                0.74523288                0.13030166                0.11178859
               8.00403286                5.00776388               26.02735205                0.01000000               -0.05385434               -0.28958396                0.12801857                0.65914836                0.10731342                0.15633977
               9.00395567                5.00830186               26.02806303                0.01000000                0.01160925               -0.31781609                0.12849685                0.46618340                0.06488623                0.17760291
              10.00426505                5.00538112               26.02818125                0.01000000                0.03093770               -0.24377659                0.12821285                0.24667942                0.03943566                0.14699498
               0.02575469                5.99643829               26.02710586                0.58371304               -0.03378092               -0.23659665                0.11209140                0.39481536               -0.00317927                0.10128209
               1.02541688                5.99375790               26.02557395                0.01000001               -0.24237787               -0.10696833                0.11245323                0.46821712               -0.00079016                0.04939158
               2.02090713                5.99284118               26.02409406                0.01000000               -0.34792518               -0.17361818                0.10805813                0.63623318                0.02029433               -0.00679030
               3.01845838                5.99299702               26.02358483                0.01000001               -0.25325603               -0.17576154                0.10852473                0.67119213                0.09276594               -0.03191958
               4.01584201                5.99492084               26.02378447                0.01000001               -0.25417499               -0.16909011                0.11182108                0.75377735                0.14830898               -0.01498071
               5.01337488                5.99765636               26.02460970                0.01009992               -0.23924173               -0.14645205                0.11516568                0.74008313                0.18833828                0.02173459
               6.01105718                6.00061483               26.02582339                0.01004011               -0.20504216               -0.16221263                0.12092834                0.66493626                0.20284274                0.07769587
               7.00927403                6.00312248               26.02724676                0.01000000               -0.13474568               -0.21097624                0.12909307                0.54612265                0.20091424                0.14455284
               8.00836226                6.00484675               26.02866364                0.01000000               -0.05019042               -0.26870015                0.13435274                0.41424588                0.17976528                0.20982106
               9.00827022                6.00540203               26.02975027                0.01079801               -0.00824009               -0.25585181                0.14280141                0.23937518                0.11686403                0.24824913
              10.00819746                6.00419124               26.02988478                0.01000001               -0.00727637               -0.07025376                0.14579343                0.11966536                0.07191362                0.24006981
               0.02843492                6.99610776               26.02759014                0.99999999               -0.03354237               -0.03292488                0.11152514               -0.00041893               -0.00545582                0.02625211
               1.02809950                6.99342125               26.02592498                1.00000000               -0.03350847               -0.03334935                0.11136389               -0.00035930               -0.00683535                0.00512298
               2.02776475                6.99072504               26.02423513                0.01000000               -0.21686260               -0.12234899                0.11142120                0.37470304                0.04229155               -0.01834349
               3.02376225                6.99135715               26.02355836                0.01000001               -0.33787308               -0.26481923                0.11640248                0.69914301                0.12676882               -0.05300453
               4.02100729                6.99319482               26.02392734                0.01006627               -0.30474988               -0.13553800                0.11207176                0.74887204                0.21743164               -0.05969826
               5.01766725                6.99640892               26.02491718                0.01002028               -0.32902564               -0.08405050                0.11886428                0.68516993                0.25276853                0.01401176
               6.01442678                6.99926527               26.02654416                0.01000000               -0.29719792               -0.08130976                0.12739588                0.50800779                0.28013475                0.08318872
               7.01172329                7.00127438               26.02860455                0.01000000               -0.21942695               -0.12751348                0.13516904                0.30091766                0.28537463                0.16498142
               8.01003824                7.00238988               26.03071582                0.01000001               -0.11623016               -0.20015734                0.14086256                0.11758828                0.25150094                0.27367751
               9.00939869                7.00318482               26.03228906                0.01000002               -0.04791566               -0.21263352                0.14227332                0.01527127                0.15204067                0.36254253
              10.00907993                7.00397605               26.03249421                0.01041152               -0.03187611               -0.02830370                0.13697865               -0.01963756                0.08402312                0.40775374
               0.03111934                7.99577980               26.02796699                1.00000000               -0.03269167               -0.03245674                0.10871686               -0.00028461               -0.00068979                0.02195727
               1.03079242                7.99309091               26.02623679                1.00000000               -0.03270209               -0.03267229                0.10895752                0.00010704               -0.00044591                0.00311709
               2.03046529                7.99039420               26.02451296                0.03726018               -0.04104846               -0.03275118                0.10914114                0.00060016                0.05630285               -0.01555864
               3.02997145                7.98770064               26.02392244                0.01081829               -0.23488076               -0.19962618                0.08606864                0.54496456                0.22912861               -0.19914631
               4.02576768                7.99221008               26.02365951                0.01001668               -0.44818137               -0.06731546                0.11612610                0.79820935                0.25945986               -0.05444433
               5.02100782                7.99597535               26.02521287                0.01000000               -0.47079048                0.02624977                0.12192464                0.57522298                0.32680096                0.01224247
               6.01635187                7.99898864               26.02734355                0.01000000               -0.44200216                0.03231281                0.13164615                0.33952108                0.35302892                0.07963113
               7.01216778                8.00057221               26.03012452                0.01000001               -0.37741395                0.00188556                0.13888061                0.07520760                0.39596441                0.15476416
               8.00880359                8.00084361               26.03362979                0.01000002               -0.25891488               -0.06095644                0.14726449               -0.17875947                0.37400203                0.28114611
               9.00698948                8.00114936               26.03636188                0.01000007               -0.12906698               -0.14408389                0.15433895               -0.34978652                0.24875752                0.63439880
              10.00622225                8.00362517               26.03750983                0.01000000               -0.07672311               -0.20695545                0.15986985               -0.25123233                0.16799898                0.62760926
               0.03380699                8.99545863               26.02836536                1.00000000               -0.03197592               -0.03182960                0.10641454               -0.00030090                0.00236339                0.01826743
               1.03348723                8.99276780               26.02655114                0.99999998               -0.03199813               -0.03197385                0.10664821                0.00007554                0.00133602                0.00192698
               2.03316703                8.99007001               26.02471668                1.00000000               -0.03207881               -0.03207710                0.10693493                0.00004322               -0.00487083               -0.01146741
               3.03284566                8.98736462               26.02278187                0.01138228               -0.22351333               -0.03271442                0.10725555                0.36812452                0.13377256               -0.08474065
               4.02869676                8.99184851               26.02372724                0.01000000               -0.52262521                0.08147878                0.10515415                0.56178648                0.30508248               -0.04469677
               5.02239315                8.99693392               26.02546853                0.01000000               -0.60382121                0.13692917                0.12055350                0.38044760                0.35196986                0.01324234
               6.01662034                8.99991153               26.02795065                0.01000001               -0.55103406                0.12232455                0.13398877                0.16750520                0.40170567                0.05224486
               7.01137247                9.00131209               26.03134319                0.01000002               -0.53672159                0.10643423                0.14221097               -0.01998185                0.47856755                0.09830699
               8.00588591                9.00117075               26.03599576                0.01000003               -0.58755385                0.11217987                0.15152436               -0.21831510                0.71252955                0.19470680
               8.99962140                9.00030314               26.04464462                0.99999998               -0.33911259               -0.06824369                0.17165803               -0.41138383                0.43974383                0.41937865
               9.99910366                8.99983694               26.04449372                1.00000000               -0.05177391               -0.21569975                0.17379469               -0.37928582               -0.00028523                0.35389957
               0.03649497                9.99514320               26.02866723                1.00000000               -0.03124212               -0.03154246                0.10409590               -0.00037936                0.01283158                0.01354863
               1.03618255                9.99245144               26.02684147                1.00000000               -0.03128136               -0.03163672                0.10433435                0.00000387                0.01619599                0.00065878
               2.03586934                9.98975266               26.02508216                1.00000000               -0.03135523               -0.03173546                0.10463205               -0.00002347                0.01623427               -0.00361287
               3.03555544                9.98704635               26.02325964                0.06821517               -0.42176108               -0.03182730                0.10488566                0.47532812                0.12685321               -0.00423565
               4.02743412                9.99383966               26.02371844                0.01181602               -0.75008414                0.19911425                0.10478820                0.45711462                0.27716471               -0.03309388
               5.02055376                9.99871394               26.02556620                0.01000000               -0.60551609                0.17800215                0.11812437                0.19583391                0.34020647                0.01457791
               6.01532380               10.00143513               26.02805754                0.01000001               -0.50224183                0.15235955                0.13532903                0.06969364                0.40134634                0.03605196
               7.01050892               10.00270090               26.03162208                0.01074575               -0.49387779                0.13888048                0.14357487               -0.00375130                0.52467199                0.06078195
               8.00544624               10.00308720               26.03713515                0.01000002               -0.52066518                0.19164506                0.15389426               -0.18978764                0.69288137                0.14613585
               9.00009562                9.99978448               26.04454479                1.00000000               -0.29386510               -0.05186604                0.17434568               -0.14137933                0.37825763                0.00022972
               9.99956894                9.99931117               26.04439388                0.99975429               -0.05266797               -0.05257682                0.17648150               -0.00080280                0.00027247               -0.00026940
               0.00123134                0.00220352               27.02237592                1.00000000               -0.02509692               -0.02449076                0.08248552                0.00011442               -0.00348190                0.00402692
               1.00098037                0.00093546               27.02234561                1.00000000               -0.02542582               -0.02518976                0.08470111                0.00036343               -0.00376664               -0.00130989
               2.00072282               -0.00033719               27.02230718                0.01000001               -0.00751077               -0.02588712                0.08691226                0.02459464                0.05543492               -0.00165009
               3.00083016               -0.00113012               27.02346341                0.01100881               -0.02227094                0.00421433                0.05793553                0.02773804                0.11896924               -0.01216743
               4.00027741                0.00016089               27.02485242                0.01000000               -0.10962016                0.02572549                0.09460891                0.09914443                0.16134158               -0.00931188
               4.99863775                0.00411975               27.02689932                0.01016578               -0.29658691                0.03760163                0.10896265                0.29547582                0.20467777               -0.01836595
               5.99434567                0.01197321               27.02949563                0.20893871               -0.23039052               -0.03119209                0.10410018                0.32623539                0.11413740               -0.00109168
               6.99402994                0.01331019               27.03023648                1.00000000               -0.03232180               -0.03224239                0.10816799                0.00055882                0.01376443               -0.00432620
               7.99369923                0.01464535               27.03081999                0.99999998               -0.03367915               -0.03351293                0.11225707                0.00063279                0.00771927               -0.00043868
               8.99335636                0.01597681               27.03143630                1.00000000               -0.03490725               -0.03474358                0.11638265                0.00064189                0.00756729                0.00094733
               9.99300109                0.01730541               27.03201516                0.99978012               -0.03552731               -0.03603045                0.12051636                0.00083329                0.00567791                0.00520347
               0.00250055                1.00195862               27.02228450                1.00000000               -0.02461892               -0.02425429                0.08097300               -0.00022529                0.00143157                0.00461462
               1.00225436                1.00068356               27.02225135                0.01000000               -0.02494961               -0.02498080                0.08321006                0.00003226                0.00360690               -0.00332621
               2.00200156                0.99940394               27.02225975                0.01000000               -0.06979324               -0.04500753                0.08550393               -0.00072829                0.06207620                0.03558380
               3.00085850                0.99891202               27.02339904                0.01000001               -0.16788220               -0.00606756                0.07487869                0.06584107                0.12264317                0.01175920
               3.99864392                1.00041814               27.02468900                0.01000000               -0.25860732                0.01434239                0.09510795                0.22196657                0.12524559               -0.00241529
               4.99568635                1.00449576               27.02634574                0.01000000               -0.28155582               -0.00128736                0.10269721                0.46469786                0.15589653               -0.01599586
               5.99301280                1.01166128               27.02869151                0.01000001               -0.14934469               -0.18302994                0.10298538                0.43638513                0.09321147               -0.04633273
               6.99269946                1.01298777               27.02935392                0.99999999               -0.03202745               -0.03207276                0.10703834                0.00003214                0.00496721               -0.00424186
               7.99237225                1.01431022               27.02993033                1.00000000               -0.03333555               -0.03334551                0.11112813                0.00001090                0.00114925               -0.00033865
               8.99203275                1.01562937               27.03051395                0.99999999               -0.03457190               -0.03457690                0.11526154                0.00002087                0.00106185                0.00063810
               9.99168081                1.01694511               27.03108812                1.00000000               -0.03519343               -0.03586604                0.11942929                0.00017848                0.00051076                0.00646691
               0.00377695                2.00171844               27.02219991                0.01000002               -0.02412547               -0.00851395                0.07950022                0.00897385                0.00192545                0.07042833
               1.00353569                2.00043584               27.02211706                0.01000000               -0.06485765               -0.06673859                0.08169614               -0.01404979                0.04842231                0.06341095
               2.00247980                1.99876266               27.02296253                0.01000001               -0.12014599               -0.08022399                0.08802400                0.04462395                0.07717649                0.06150924
               3.00113277                1.99874853               27.02360216                0.01000000               -0.16733999               -0.05292010                0.09428422                0.21592475                0.07224909                0.02736679
               3.99913300                2.00044773               27.02455359                0.01000000               -0.22221037               -0.03770240                0.09693720                0.42499767                0.08799056                0.00683752
               4.99668857                2.00409400               27.02575349                0.01000001               -0.22758147               -0.08999288                0.10110840                0.59816300                0.08754430               -0.01265126
               5.99458137                2.00831261               27.02697475                0.01000000               -0.26534597               -0.24691978                0.10550251                0.64195504                0.09154867               -0.05654609
               6.99138165                2.01266873               27.02846884                0.01000000               -0.17617615               -0.14256617                0.10591818                0.38293663                0.04190509               -0.01829595
               7.99105784                2.01397844               27.02904061                0.09166714               -0.03298795               -0.03292545                0.10999515                0.00101733               -0.00550084               -0.00062084
               8.99072189                2.01528527               27.02958537                0.99999997               -0.03423320               -0.03421513                0.11417059                0.00007033               -0.00398306               -0.00160146
               9.99037318                2.01658809               27.03018836                1.00000000               -0.03487093               -0.03555920                0.11835853                0.00018894               -0.00121086                0.00640661
               0.00524522                3.00178834               27.02342020                0.01000000               -0.03160778                0.00667535                0.09388234                0.01976652                0.00942454                0.14743223
               1.00492915                2.99934879               27.02335850                0.01000001               -0.03319356               -0.13534495                0.09324326                0.07183617                0.01702523                0.11492029
               2.00458135                2.99779946               27.02348712                0.01000000               -0.07186139               -0.13715229                0.09364320                0.23488775                0.03913498                0.05428519
               3.00349192                2.99785362               27.02388119                0.01000000               -0.13914775               -0.11866182                0.09749843                0.41913492                0.05805236                0.02741532
               4.00179840                2.99966409               27.02450349                0.01021449               -0.18535890               -0.11139273                0.10130262                0.58368004                0.07041194                0.01130913
               4.99978474                3.00269590               27.02532819                0.01000000               -0.22606162               -0.14444689                0.10486700                0.71645584                0.08007121                0.00429878
               5.99727717                3.00672289               27.02634633                0.01000001               -0.25461918               -0.17546316                0.10843649                0.73508511                0.07384378                0.01160881
               6.99469236                3.01013644               27.02730224                0.01000001               -0.37505512               -0.20912005                0.11134641                0.75448629                0.05174102                0.00407899
               7.98977606                3.01365171               27.02814432                0.01080394               -0.26339277               -0.12974976                0.10563375                0.57855330                0.00055454                0.03526686
               8.98942450                3.01494507               27.02861934                0.01162692               -0.03485595               -0.13485524                0.11313456                0.40688316               -0.00988199                0.04024183
               9.98907894                3.01623393               27.02926320                0.40779508               -0.03455573               -0.34505033                0.11728452                0.47037901               -0.00163825                0.02764879
               0.00905138                4.00185195               27.02477890                0.01000003               -0.00900832               -0.04061027                0.09566757                0.12494138               -0.00276214                0.16119513
               1.00896130                3.99772894               27.02437496                0.01000000               -0.01893305               -0.19881313                0.09766668                0.26002295                0.00586193                0.09786188
               2.00867272                3.99601961               27.02412529                0.01000000               -0.06552291               -0.19318982                0.09985309                0.45600718                0.02790334                0.04884305
               3.00765084                3.99637529               27.02418121                0.01021393               -0.13542032               -0.16021213                0.10244525                0.59019266                0.05464032                0.01971951
               4.00596431                3.99821988               27.02456192                0.01000000               -0.18459746               -0.16029493                0.10565755                0.71049942                0.07821049                0.01270305
               5.00395889                4.00120506               27.02525426                0.01000001               -0.20608903               -0.16479796                0.10945129                0.79229658                0.09526288                0.02526793
               6.00184253                4.00480334               27.02617189                0.01000001               -0.22081697               -0.19699286                0.11389777                0.84878065                0.09910205                0.04632649
               6.99954255                4.00848633               27.02715074                0.01003990               -0.20111242               -0.20867936                0.11817798                0.86009884                0.08277178                0.07563253
               7.99782028                4.01138345               27.02797601                0.01000000               -0.16326052               -0.26484577                0.12178335                0.92859427                0.05342454                0.09879790
               8.99627734                4.01258816               27.02852995                0.01000000               -0.03086183               -0.30408416                0.12148708                0.65332763                0.01447570                0.12197994
               9.99720305                4.00968709               27.02879258                0.01129707                0.09257073               -0.52614599                0.11525085                0.48380584                0.00770439                0.07368085
               0.01599006                5.00097613               27.02626711                0.01000000               -0.00281215               -0.27851162                0.10370176                0.34972545               -0.00396264                0.18750663
               1.01596194                4.99537253               27.02542329                0.01000000               -0.04674555               -0.21187944                0.10444146                0.54558561                0.00530866                0.09889530
               2.01505515                4.99393566               27.02473862                0.01000001               -0.14332157               -0.17468085                0.10536005                0.63581438                0.02958520                0.02840262
               3.01309551                4.99464938               27.02447665                0.01000000               -0.19382659               -0.18740846                0.10708352                0.71966799                0.06581038                0.00465792
               4.01117862                4.99645820               27.02472262                0.01000001               -0.20241483               -0.17814766                0.11038706                0.77977099                0.10565035                0.00898680
               5.00904721                4.99939995               27.02544017                0.01000001               -0.21035546               -0.18046213                0.11466664                0.82916978                0.13453736                0.03463046
               6.00697151                5.00278303               27.02646638                0.01006911               -0.18664887               -0.20176556                0.11951300                0.82388602                0.14479758                0.07268540
               7.00531423                5.00596285               27.02759569                0.01000000               -0.13626944               -0.25213693                0.12554690                0.79426677                0.13812500                0.11675254
               8.00424612                5.00835480               27.02865450                0.01000000               -0.05634093               -0.30643241                0.13181087                0.69891513                0.11278616                0.15930447
               9.00418741                5.00886339               27.02937410                0.01000000                0.01555496               -0.34411979                0.13579631                0.49405969                0.06845408                0.18531184
              10.00455722                5.00571101               27.02948841                0.01000000                0.03698040               -0.26765963                0.13533420                0.26277345                0.04364346                0.15554007
               0.02725310                5.99628171               27.02822842                0.55346453               -0.03396246               -0.25122353                0.11229555                0.42366005               -0.00316491                0.10753328
               1.02691348                5.99349135               27.02670291                0.01000001               -0.25704745               -0.11098496                0.11321639                0.49948581               -0.00294028                0.05550834
               2.02211215                5.99252600               27.02518473                0.01000000               -0.36959063               -0.17958962                0.10928731                0.67252776                0.01868446                0.00106931
               3.01952167                5.99262712               27.02467977                0.01000001               -0.26514952               -0.19058279                0.11184184                0.71527350                0.09324184               -0.01462506
               4.01680916                5.99465693               27.02493401                0.01000001               -0.26521086               -0.18287467                0.11505378                0.80863487                0.14926695               -0.00529123
               5.01421745                5.99759582               27.02578456                0.01007075               -0.25259104               -0.15653523                0.11899985                0.79551498                0.18809174                0.03182805
               6.01175734                6.00076803               27.02705902                0.01000000               -0.21806645               -0.17182302                0.12535923                0.71240378                0.20721058                0.08534172
               7.00985612                6.00344359               27.02856063                0.01000000               -0.14296436               -0.22387733                0.13303528                0.58282458                0.20635065                0.15104283
               8.00889806                6.00525480               27.03003228                0.01000000               -0.05268975               -0.28586930                0.13890187                0.43627367                0.18464460                0.21305578
               9.00880232                6.00570577               27.03117665                0.01075740               -0.00673900               -0.27099349                0.14331841                0.24568256                0.11749224                0.24857874
              10.00876328                6.00433389               27.03129631                0.01000001               -0.00390489               -0.07913385                0.14315826                0.11874298                0.06805309                0.23569021
               0.03004398                6.99595166               27.02870632                0.99999999               -0.03366096               -0.03289085                0.11161304               -0.00047214               -0.00594185                0.02693598
               1.02970737                6.99315283               27.02704220                1.00000000               -0.03370223               -0.03351993                0.11199156               -0.00037302               -0.00715839                0.00570944
               2.02936993                6.99034387               27.02535551                0.01000000               -0.22186619               -0.12581374                0.11257639                0.38785933                0.05018562               -0.01562351
               3.02527005                6.99083772               27.02484311                0.01000001               -0.34936590               -0.26502663                0.11559600                0.73147899                0.12857859               -0.05470353
               4.02238262                6.99280070               27.02505668                0.01004424               -0.32118210               -0.14593783                0.11543043                0.80280275                0.19783249               -0.03287046
               5.01884640                6.99626924               27.02614443                0.01000000               -0.35054051               -0.08717862                0.12330256                0.73599968                0.25250622                0.02245809
               6.01537181                6.99934657               27.02784193                0.01000000               -0.31812228               -0.08394335                0.13149560                0.54358080                0.28385639                0.09082807
               7.01248396                7.00148531               27.02997928                0.01000000               -0.23311941               -0.13470150                0.13921693                0.32091751                0.29046681                0.17010807
               8.01070942                7.00263741               27.03214991                0.01000001               -0.12309952               -0.21261883                0.14522541                0.12427704                0.25297954                0.27816327
               9.01002197                7.00344352               27.03371376                0.01000002               -0.05167957               -0.22082748                0.14600170                0.01138870                0.14687183                0.36042265
              10.00967583                7.00412833               27.03382012                0.01080929               -0.03461413               -0.02354107                0.14159704               -0.03246568                0.07130209                0.41066524
               0.03284133                7.99562390               27.02905393                1.00000000               -0.03275224               -0.03241314                0.10861993               -0.00030364               -0.00071431                0.02180310
               1.03251381                7.99282095               27.02732889                1.00000000               -0.03284435               -0.03280407                0.10941732                0.00011784               -0.00047080                0.00312793
               2.03218445                7.99000972               27.02560962                0.04456372               -0.04096976               -0.03306016                0.11015572                0.00688109                0.02801530               -0.01543588
               3.03169441                7.98732659               27.02445851                0.01080933               -0.23753730               -0.19885615                0.09101873                0.55677296                0.14772692               -0.10638803
               4.02743370                7.99173817               27.02496034                0.01000000               -0.46514207               -0.06919893                0.11769880                0.82859487                0.25871270               -0.05145212
               5.02239157                7.99585225               27.02644525                0.01000000               -0.50104035                0.03095485                0.12563232                0.61428559                0.31971579                0.01598517
               6.01741289                7.99908916               27.02868702                0.01000000               -0.47039717                0.03695271                0.13508432                0.36146838                0.35907055                0.08634138
               7.01298363                8.00074956               27.03153666                0.01000001               -0.39937514                0.00281160                0.14372428                0.07789034                0.40024887                0.15902950
               8.00942539                8.00100242               27.03512129                0.01000002               -0.27222243               -0.06418202                0.15119672               -0.19013706                0.38097586                0.28244980
               9.00753918                8.00128922               27.03792674                0.01000007               -0.13405265               -0.15257513                0.15815530               -0.37010857                0.25451241                0.64419002
              10.00674434                8.00386307               27.03913432                0.01000000               -0.07948449               -0.21039339                0.16333765               -0.26435590                0.17115315                0.64249009
               0.03564379                8.99530340               27.02942834                1.00000000               -0.03198887               -0.03174430                0.10617134               -0.00031949                0.00238267                0.01838525
               1.03532390                8.99249674               27.02761922                0.99999998               -0.03209336               -0.03206500                0.10696402                0.00008071                0.00138808                0.00200337
               2.03500192                8.98968267               27.02579042                1.00000000               -0.03234217               -0.03234068                0.10781751                0.00005018               -0.00477105               -0.01134703
               3.03467706                8.98686060               27.02386166                0.01146389               -0.22865325               -0.03942397                0.10871452                0.37721631                0.13158891               -0.05631299
               4.03042886                8.99141672               27.02476706                0.01000000               -0.54479679                0.09029168                0.10582904                0.58232491                0.31164784               -0.04834589
               5.02378112                8.99688834               27.02668764                0.01000000               -0.63625007                0.14625117                0.12216389                0.40384209                0.36306571                0.01099291
               6.01770385                9.00008563               27.02932673                0.01000002               -0.58263057                0.12980861                0.14155683                0.17841378                0.40780626                0.05850564
               7.01212851                9.00154154               27.03278603                0.01000002               -0.56684163                0.11407350                0.14384540               -0.02561940                0.49456533                0.10088807
               8.00636702                9.00135377               27.03751646                0.01000003               -0.61846827                0.11989651                0.15468889               -0.23223989                0.72868458                0.19332992
               8.99975914                9.00039201               27.04636206                0.99999998               -0.35630107               -0.07080099                0.17183185               -0.43671635                0.44853337                0.42572428
               9.99924100                8.99992046               27.04623202                1.00000000               -0.05181429               -0.22341101                0.17386547               -0.39877844               -0.00028922                0.35830377
               0.03844825                9.99498901               27.02970609                1.00000000               -0.03120958               -0.03143888                0.10370706               -0.00048924                0.01291117                0.01365224
               1.03813616                9.99217965               27.02788548                1.00000000               -0.03133284               -0.03170896                0.10450519               -0.00007950                0.01628500                0.00072207
               2.03782159                9.98936291               27.02613193                1.00000000               -0.03157354               -0.03197585                0.10536582               -0.00010992                0.01630572               -0.00355900
               3.03750468                9.98653811               27.02431472                0.09432540               -0.43845684               -0.03224887                0.10617979                0.49181758                0.12584040               -0.00424658
               4.02905246                9.99354400               27.02475821                0.01202799               -0.78525858                0.21272806                0.10436892                0.47431814                0.28390208               -0.02759321
               5.02179951                9.99877727               27.02674400                0.01000000               -0.63622461                0.18889317                0.11767286                0.20890591                0.35510025                0.01438579
               6.01632797               10.00168534               27.02945361                0.01000001               -0.52982083                0.15997120                0.14562793                0.07509932                0.40827858                0.03781447
               7.01120310               10.00303103               27.03307653                0.01085791               -0.51989233                0.14894946                0.14115832               -0.00679061                0.55077323                0.06138678
               8.00593012               10.00340035               27.03866624                0.01000002               -0.54824660                0.20465799                0.15648741               -0.20158213                0.71288756                0.14682017
               9.00023816                9.99987320               27.04628790                1.00000000               -0.31091233               -0.05188138                0.17427634               -0.15237286                0.38781729                0.00023308
               9.99971187                9.99939485               27.04615785                0.99988085               -0.05262922               -0.05256085                0.17631003               -0.00074757                0.00027221               -0.00027249
               0.00121556                0.00234301               28.02319645                0.99973479               -0.02497088               -0.02425478                0.08166031                0.00026691               -0.00348115                0.00406615
               1.00096585                0.00102410               28.02319256                1.00000000               -0.02542643               -0.02520695                0.08470235                0.00046785               -0.00377575               -0.00131269
               2.00070703               -0.00029902               28.02318063                0.01000001               -0.02972913               -0.02616308                0.08774757                0.02080412                0.02515101               -0.00164819
               3.00037127               -0.00122004               28.02375771                0.01000000               -0.04206592                0.01300682                0.08140982                0.04347875                0.10000298                0.03406470
               3.99986571                0.00031198               28.02581442                0.01000000               -0.10558681                0.02359116                0.09493799                0.12217235                0.16841384               -0.00116155
               4.99825953                0.00453397               28.02801636                0.01018939               -0.30339899                0.03838782                0.10318844                0.31594835                0.18909701               -0.01196961
               5.99379773                0.01277213               28.03052986                0.20022052               -0.23873937               -0.03082069                0.10279938                0.34329795                0.10788000               -0.00108686
               6.99348475                0.01415510               28.03131423                1.00000000               -0.03209357               -0.03202925                0.10737166                0.00064246                0.01377238               -0.00433767
               7.99315586                0.01553619               28.03194037                0.99999998               -0.03354868               -0.03341107                0.11181546                0.00067927                0.00769785               -0.00045633
               8.99281377                0.01691416               28.03259961                1.00000000               -0.03487720               -0.03474454                0.11628224                0.00069353                0.00755848                0.00093022
               9.99245832                0.01828999               28.03322148                0.99973135               -0.03554537               -0.03613138                0.12074773                0.00085513                0.00566789                0.00520770
               0.00253714                1.00210046               28.02309088                1.00000000               -0.02455955               -0.02405743                0.08034107               -0.00019242                0.00147078                0.00463897
               1.00229155                1.00077203               28.02308411                0.01000000               -0.02500007               -0.02503813                0.08337308                0.00000391                0.00362328               -0.00334117
               2.00203714                0.99943934               28.02311933                0.01000000               -0.08954961               -0.04548571                0.08642997               -0.00465249                0.05276462                0.03753946
               3.00050055                0.99891003               28.02409879                0.01000001               -0.19133548               -0.00033688                0.09092275                0.08990407                0.08829647                0.03765947
               3.99821043                1.00054789               28.02566123                0.01000000               -0.26558072                0.01417126                0.09602091                0.25182043                0.11307560                0.00129940
               4.99518894                1.00491785               28.02737515                0.01000000               -0.28951393               -0.00246911                0.10224024                0.49828921                0.13462827               -0.00827752
               5.99242015                1.01246393               28.02971564                0.01000001               -0.15398996               -0.19235778                0.10189401                0.46155816                0.09080933               -0.04423101
               6.99210914                1.01383480               28.03042140                0.99999999               -0.03185160               -0.03189223                0.10645305                0.00003493                0.00498215               -0.00424321
               7.99178312                1.01520208               28.03104036                0.99999999               -0.03326666               -0.03327051                0.11089024                0.00000350                0.00114180               -0.00035710
               8.99144381                1.01656672               28.03166700                0.99999999               -0.03460393               -0.03460769                0.11536376                0.00001564                0.00107741                0.00063341
               9.99109104                1.01792868               28.03228456                1.00000000               -0.03527657               -0.03599427                0.11986390                0.00014614                0.00053482                0.00647648
               0.00386858                2.00186186               28.02299250                0.01000000               -0.02415348               -0.00702911                0.07903642                0.00844671                0.00196891                0.07755951
               1.00362704                2.00052333               28.02293573                0.01000000               -0.06963004               -0.06881309                0.08204771               -0.01468518                0.05037842                0.06962461
               2.00247598                1.99879126               28.02384719                0.01000001               -0.12831209               -0.08346355                0.09031360                0.04594697                0.07945571                0.06929420
               3.00106080                1.99877322               28.02457127                0.01000000               -0.17908397               -0.05306868                0.09503880                0.24246036                0.07363417                0.04069294
               3.99889430                2.00059541               28.02552762                0.01000000               -0.23757605               -0.03823011                0.09841316                0.46319082                0.08192249                0.00989592
               4.99630928                2.00448459               28.02676406                0.01000001               -0.23911771               -0.09603973                0.10108291                0.63943371                0.08678702               -0.00868835
               5.99411194                2.00892498               28.02803105                0.01000000               -0.27809967               -0.26081723                0.10475003                0.68138781                0.08906655               -0.05268120
               6.99074729                2.01351725               28.02952611                0.01000000               -0.18439650               -0.14978755                0.10554204                0.40699210                0.03982272               -0.01486933
               7.99042401                2.01487078               28.03014030                0.09357038               -0.03299004               -0.03314281                0.10996076                0.00115912               -0.00547727               -0.00013520
               8.99008749                2.01622201               28.03072850                0.99999996               -0.03433468               -0.03430931                0.11447661                0.00004315               -0.00394235               -0.00157745
               9.98973732                2.01757011               28.03137506                1.00000000               -0.03501663               -0.03574371                0.11898397                0.00014675               -0.00117725                0.00642262
               0.00538313                3.00195988               28.02434200                0.01000000               -0.03146878                0.01008703                0.09063018                0.02109744                0.00752806                0.15559944
               1.00506844                2.99939576               28.02428855                0.01000001               -0.03384694               -0.14152935                0.09265478                0.07592806                0.01684466                0.12655781
               2.00470619                2.99777007               28.02443045                0.01000000               -0.07614118               -0.14475384                0.09502324                0.25083409                0.03973393                0.06209940
               3.00354562                2.99784866               28.02486004                0.01000000               -0.14716552               -0.12424111                0.09880891                0.44606541                0.05874809                0.03260471
               4.00176288                2.99978329               28.02552405                0.01021344               -0.19487878               -0.11719645                0.10226703                0.62255875                0.07123564                0.01767414
               4.99964804                3.00299706               28.02638217                0.01000000               -0.23738152               -0.15350289                0.10550714                0.76249814                0.08011739                0.01063077
               5.99701525                3.00724758               28.02743706                0.01000001               -0.26724318               -0.18547909                0.10875137                0.78047014                0.07442084                0.01787554
               6.99430318                3.01083905               28.02841766                0.01000001               -0.39568534               -0.22118308                0.11270727                0.80097014                0.05051115                0.01158510
               7.98910154                3.01453923               28.02924400                0.01080193               -0.27789161               -0.13832867                0.11303766                0.61469973               -0.00338088                0.04346477
               8.98874535                3.01588053               28.02975315                0.01171852               -0.03518791               -0.13894146                0.11365918                0.43119144               -0.01035681                0.04675194
               9.98839778                3.01721380               28.03044016                0.44358126               -0.03475618               -0.36274601                0.11809513                0.49902278               -0.00165985                0.02643332
               0.00941876                4.00206360               28.02574691                0.01000003               -0.00833455               -0.04097882                0.09671126                0.13306933               -0.00342585                0.16984701
               1.00933541                3.99769275               28.02535770                0.01000000               -0.01894930               -0.20925955                0.09857856                0.27684253                0.00543882                0.10640680
               2.00903977                3.99589618               28.02512921                0.01000000               -0.06832575               -0.20320325                0.10080214                0.48535071                0.02834149                0.05709633
               3.00796889                3.99628840               28.02521400                0.01021309               -0.14213483               -0.16908374                0.10365317                0.62799736                0.05531790                0.02711946
               4.00619707                3.99825148               28.02562641                0.01000000               -0.19369712               -0.16995119                0.10692880                0.75519136                0.07890794                0.02016702
               5.00409495                4.00141453               28.02635774                0.01000001               -0.21588597               -0.17483947                0.11060405                0.84112205                0.09670473                0.03300002
               6.00187935                4.00521540               28.02731985                0.01000001               -0.23099525               -0.20857402                0.11501046                0.89992058                0.10165250                0.05410698
               6.99947505                4.00909359               28.02834100                0.01002343               -0.21014126               -0.22099920                0.11942911                0.90963890                0.08763454                0.08360224
               7.99767653                4.01210421               28.02921651                0.01000000               -0.17191547               -0.28227608                0.12587549                0.98791144                0.06163422                0.11065858
               8.99603674                4.01344318               28.02978401                0.01000000               -0.03126470               -0.32595672                0.12793415                0.69782401                0.03286648                0.10668199
               9.99705123                4.01031519               28.02993510                0.01152972                0.10144962               -0.56128017                0.12605097                0.51277706                0.02607321                0.05283548
               0.01678622                5.00114030               28.02730221                0.01000000               -0.00135163               -0.29569255                0.10364026                0.37321095               -0.00460561                0.19798261
               1.01677271                4.99521057               28.02646998                0.01000000               -0.04843370               -0.22217938                0.10491661                0.58160331                0.00477782                0.10899900
               2.01581755                4.99370601               28.02579786                0.01000001               -0.15112172               -0.18252518                0.10622110                0.67602984                0.02923833                0.03589720
               3.01375027                4.99446698               28.02555261                0.01000000               -0.20384873               -0.19751683                0.10824727                0.76416463                0.06609503                0.01394797
               4.01174057                4.99638427               28.02583805                0.01000001               -0.21218544               -0.18852581                0.11183744                0.82793839                0.10660640                0.01761863
               5.00950656                4.99950027               28.02659810                0.01000001               -0.22029846               -0.19129320                0.11631869                0.88042930                0.13590193                0.04337027
               6.00733460                5.00307610               28.02767469                0.01004688               -0.19497100               -0.21346400                0.12136067                0.87323824                0.14837014                0.08093817
               7.00560714                5.00641907               28.02886876                0.01000000               -0.14122137               -0.26669197                0.12785839                0.83851726                0.14491176                0.12415076
               8.00451018                5.00889370               28.02998827                0.01000000               -0.05581473               -0.32458763                0.13364584                0.73524735                0.12602779                0.16139722
               9.00449085                5.00936140               28.03077895                0.01000000                0.01995684               -0.37046198                0.14131113                0.52069001                0.07963827                0.18034291
              10.00490931                5.00598820               28.03088793                0.01000000                0.04184663               -0.28709258                0.13971014                0.27607848                0.04606875                0.16046011
               0.02874243                5.99614975               28.02935177                0.52313280               -0.03406621               -0.26596594                0.11222367                0.45284637               -0.00315954                0.11407237
               1.02840177                5.99324916               28.02783828                0.01000001               -0.27192362               -0.11505569                0.11371252                0.53151851               -0.00546570                0.06176943
               2.02330396                5.99224568               28.02627980                0.01000000               -0.39139195               -0.18591643                0.10978037                0.71194534                0.01728125                0.00802787
               3.02057393                5.99233806               28.02582167                0.01000001               -0.27907025               -0.19913249                0.11252816                0.75588287                0.09351767               -0.00994342
               4.01772255                5.99448096               28.02608555                0.01000001               -0.27811136               -0.19365890                0.11582878                0.85863293                0.14749663                0.00509474
               5.01501170                5.99758867               28.02698970                0.01004868               -0.26486179               -0.16514363                0.12108002                0.84453560                0.18877219                0.04095356
               6.01242532                6.00094612               28.02833057                0.01000000               -0.22919563               -0.18111291                0.12815073                0.75527636                0.21045718                0.09406803
               7.01042779                6.00375975               28.02990746                0.01000000               -0.14930869               -0.23592738                0.13549188                0.61419232                0.21187173                0.15721346
               8.00943914                6.00561246               28.03144168                0.01000000               -0.05358742               -0.30147846                0.14164075                0.45636839                0.18936544                0.21543726
               9.00935604                6.00603394               28.03261664                0.01072280               -0.00599725               -0.28591094                0.14509645                0.25679751                0.12006027                0.25123646
              10.00931920                6.00457334               28.03274794                0.01000001               -0.00368425               -0.08184295                0.14754776                0.12313668                0.06754570                0.24328097
               0.03164433                6.99582098               28.02982240                0.99999999               -0.03371866               -0.03279559                0.11149567               -0.00051732               -0.00644555                0.02761574
               1.03130714                6.99290946               28.02816481                1.00000000               -0.03383908               -0.03363535                0.11243562               -0.00038799               -0.00749837                0.00629121
               2.03096755                6.98998768               28.02648666                0.01000000               -0.23372474               -0.12975549                0.11357113                0.40834426                0.04437516               -0.01252277
               3.02663265                6.99048433               28.02587028                0.01000001               -0.36524607               -0.28918663                0.11029226                0.77623729                0.12323588               -0.03716966
               4.02366263                6.99251109               28.02623595                0.01002827               -0.33502651               -0.15051539                0.11602794                0.84728537                0.19854250               -0.02795025
               5.01993212                6.99619739               28.02738323                0.01000000               -0.36967878               -0.09184118                0.12516699                0.78032584                0.25204567                0.03163185
               6.01626905                6.99945384               28.02917407                0.01000000               -0.33537354               -0.08577284                0.13425151                0.57598408                0.28670718                0.09808480
               7.01322465                7.00170052               28.03138889                0.01000000               -0.24528498               -0.14068472                0.14223292                0.33604922                0.29393571                0.17634495
               8.01136335                7.00286414               28.03362033                0.01000001               -0.12793644               -0.22432017                0.14867189                0.12682719                0.25400173                0.28265594
               9.01066592                7.00364318               28.03520910                0.01000002               -0.05350456               -0.23245408                0.15218754                0.00989335                0.14671895                0.36489434
              10.01029326                7.00435134               28.03532615                0.01124699               -0.03726584               -0.02551369                0.15554608               -0.03363611                0.07109249                0.42331646
               0.03455513                7.99549384               28.03013939                1.00000000               -0.03278198               -0.03234071                0.10841630               -0.00031057               -0.00074129                0.02163844
               1.03422731                7.99257645               28.02842513                1.00000000               -0.03295796               -0.03290924                0.10978527                0.00012539               -0.00049500                0.00313579
               2.03389597                7.98965057               28.02671607                0.06891821               -0.03260221               -0.03334578                0.11109156               -0.00802500                0.03637016               -0.01529454
               3.03357527                7.98655433               28.02574281                0.01080779               -0.24703876               -0.20510851                0.09428818                0.58441133                0.14145071               -0.09866281
               4.02895520                7.99147065               28.02601349                0.01000000               -0.49499018               -0.07136803                0.11360275                0.88193149                0.24995834               -0.04742593
               5.02367546                7.99575185               28.02772551                0.01000000               -0.52566613                0.03288160                0.12763006                0.64613416                0.32591015                0.01834422
               6.01844187                7.99923066               28.03004524                0.01000000               -0.49684906                0.04306041                0.13736331                0.38016154                0.36399321                0.09472872
               7.01373848                8.00094605               28.03299901                0.01000001               -0.42044231                0.00447326                0.14799370                0.08724012                0.40368395                0.16253099
               8.01003303                8.00112605               28.03665372                0.01000002               -0.28358904               -0.06858673                0.15540878               -0.20204855                0.38400593                0.28641330
               9.00806670                8.00138486               28.03952498                0.01000007               -0.14014377               -0.15933553                0.16285018               -0.39262057                0.25539871                0.65264873
              10.00723015                8.00406306               28.04077658                0.01000000               -0.08365493               -0.21859300                0.16842815               -0.27894585                0.17053011                0.65275261
               0.03747289                8.99517417               28.03048878                1.00000000               -0.03199730               -0.03165453                0.10590665               -0.00032566                0.00240271                0.01850959
               1.03715292                8.99225127               28.02869042                0.99999998               -0.03218613               -0.03215511                0.10727332                0.00008471                0.00144523                0.00208818
               2.03682917                8.98932076               28.02687303                0.99999999               -0.03260618               -0.03260542                0.10870471                0.00005666               -0.00465730               -0.01121244
               3.03650079                8.98638216               28.02495616                0.01156775               -0.23627123               -0.02495136                0.11018610                0.38168316                0.13024379               -0.06450259
               4.03210374                8.99108373               28.02584382                0.01000000               -0.57029992                0.09174224                0.10904055                0.61002746                0.31599397               -0.04175876
               5.02509480                8.99685503               28.02791181                0.01000000               -0.67128351                0.15685444                0.12525082                0.42581127                0.37445178                0.00731837
               6.01867807                9.00031505               28.03078179                0.01081148               -0.60103695                0.13535054                0.14622688                0.18249610                0.40351725                0.06795892
               7.01307406                9.00178999               28.03422010                0.01000002               -0.58972489                0.12007927                0.14514963               -0.01246902                0.50036242                0.09836894
               8.00688358                9.00149240               28.03908954                0.01000003               -0.65987785                0.12989938                0.16115785               -0.24369602                0.74081023                0.19520006
               8.99987650                9.00045647               28.04808126                0.99999998               -0.37628169               -0.07236993                0.17201234               -0.46096343                0.45484640                0.43061459
               9.99935794                8.99997948               28.04797103                1.00000000               -0.05185580               -0.23045010                0.17393351               -0.41748283               -0.00029308                0.36197555
               0.04039441                9.99486075               28.03074137                1.00000000               -0.03119965               -0.03134220                0.10338259               -0.00058816                0.01299410                0.01376170
               1.04008241                9.99193335               28.02893158                1.00000000               -0.03140936               -0.03179253                0.10475545               -0.00016496                0.01637624                0.00079225
               2.03976622                9.98899846               28.02718948                0.99999999               -0.03182212               -0.03223018                0.10619424               -0.00019710                0.01637621               -0.00350051
               3.03944597                9.98605530               28.02538324                0.12156563               -0.45416696               -0.03268559                0.10758466                0.50986910                0.12425909               -0.00426614
               4.03068288                9.99330550               28.02580582                0.01000002               -0.82428014                0.22217701                0.10663475                0.49959513                0.28954009               -0.02583738
               5.02296036                9.99888893               28.02791966                0.01000000               -0.67630210                0.20339075                0.12154537                0.21816554                0.37062688                0.01482730
               6.01715684               10.00193767               28.03097010                0.01000001               -0.53243057                0.16226181                0.15023586                0.07081176                0.39504752                0.04451748
               7.01231175               10.00334764               28.03444525                0.01098739               -0.53321074                0.15576551                0.13717740                0.01308824                0.55815587                0.05132009
               8.00649262               10.00372404               28.04026490                0.01000002               -0.59757007                0.22316402                0.16477436               -0.20960413                0.73048586                0.14844484
               9.00036035                9.99993746               28.04803032                1.00000000               -0.33290763               -0.05190073                0.17421018               -0.16511382                0.39401644                0.00023400
               9.99983447                9.99945406               28.04792008                0.99999550               -0.05258814               -0.05254223                0.17613134               -0.00068733                0.00027471               -0.00027432
               0.00116950                0.00249600               29.02400913                1.00000000               -0.02488284               -0.02406451                0.08094570                0.00041112               -0.00347609                0.00408938
               1.00092068                0.00112611               29.02403966                1.00000000               -0.02544044               -0.02525428                0.08474136                0.00059259               -0.00376348               -0.00131242
               2.00066069               -0.00024755               29.02406213                0.01000000               -0.03621235               -0.02642756                0.08852669                0.02529307                0.04607340               -0.00164658
               3.00019643               -0.00113099               29.02509161                0.01000000               -0.06368334               -0.00173657                0.12350622                0.02318891                0.11756215                0.01446936
               3.99938703                0.00044403               29.02675118                0.01000000               -0.12460859                0.02868987                0.09308500                0.13889263                0.16080354               -0.00470419
               4.99770426                0.00516278               29.02896309                0.01146853               -0.30908127                0.04197303                0.09357454                0.31881983                0.18791863               -0.01130691
               5.99320540                0.01357991               29.03155162                0.19172883               -0.24046874               -0.03044429                0.10149133                0.35004877                0.10937829               -0.00110488
               6.99289488                0.01500909               29.03238391                1.00000000               -0.03187994               -0.03180786                0.10656792                0.00076585                0.01384123               -0.00435638
               7.99256780                0.01643624               29.03305630                0.99999998               -0.03342329               -0.03330916                0.11135574                0.00074544                0.00768863               -0.00048126
               8.99222642                0.01786064               29.03376195                1.00000000               -0.03485470               -0.03474835                0.11617366                0.00072613                0.00754554                0.00090405
               9.99187071                0.01928341               29.03443011                1.00000000               -0.03557060               -0.03623503                0.12099689                0.00084428                0.00564198                0.00519546
               0.00254351                1.00225535               29.02389132                1.00000000               -0.02451318               -0.02387481                0.07976393               -0.00016135                0.00146999                0.00466160
               1.00229837                1.00087356               29.02391881                0.01000000               -0.02506672               -0.02511097                0.08358162                0.00003601                0.00363407               -0.00334048
               2.00204217                0.99948817               29.02398835                0.01000000               -0.11079240               -0.04575130                0.08738123               -0.01246201                0.06354043                0.04079458
               3.00008253                0.99885165               29.02521749                0.01000001               -0.22065516               -0.00339395                0.10921543                0.09856767                0.10244294                0.02078649
               3.99762907                1.00073093               29.02660942                0.01000000               -0.28790059                0.01694028                0.09644716                0.29612491                0.11618917                0.00483059
               4.99432451                1.00558251               29.02839055                0.01000000               -0.29231667               -0.01247876                0.09892881                0.53805788                0.13610745               -0.00701744
               5.99178274                1.01327547               29.03072939                0.01000001               -0.14250686               -0.20211770                0.10078690                0.47518716                0.08846381               -0.04259044
               6.99147438                1.01469102               29.03148298                0.99999999               -0.03166245               -0.03170035                0.10583855                0.00008255                0.00504134               -0.00425681
               7.99114949                1.01610315               29.03214813                0.99920586               -0.03321419               -0.03320725                0.11068626                0.00001250                0.00113807               -0.00037101
               8.99081009                1.01751315               29.03282122                0.99999999               -0.03465505               -0.03465317                0.11551085               -0.00001148                0.00109531                0.00063377
               9.99045639                1.01892106               29.03348540                1.00000000               -0.03537082               -0.03612298                0.12029119                0.00007967                0.00056088                0.00645180
               0.00392985                2.00201850               29.02378064                0.01000000               -0.02412824               -0.00547212                0.07857468                0.00849752                0.00196416                0.08333671
               1.00368857                2.00062389               29.02375802                0.01000000               -0.07482423               -0.07077939                0.08240145               -0.01509285                0.05365056                0.07528585
               2.00243337                1.99883742               29.02476880                0.01000001               -0.13817735               -0.08643738                0.09324926                0.04698107                0.08299995                0.07401903
               3.00092503                1.99880113               29.02550294                0.01000000               -0.19273557               -0.04943280                0.09488864                0.27180851                0.07529901                0.03668404
               3.99857866                2.00078284               29.02652185                0.01000000               -0.25020750               -0.04060722                0.09928320                0.50919936                0.08563976                0.01518826
               4.99592088                2.00491321               29.02777515                0.01000001               -0.24890070               -0.11338349                0.10189856                0.69521413                0.08842869               -0.00603721
               5.99360064                2.00953756               29.02906975                0.01000000               -0.29260100               -0.27419337                0.10267040                0.72046183                0.08825272               -0.04803378
               6.99006886                2.01437509               29.03057968                0.01000000               -0.19273649               -0.15688767                0.10511918                0.43278969                0.03823927               -0.01020595
               7.98974591                2.01577209               29.03123983                0.09590925               -0.03302889               -0.03291758                0.11002437                0.00079803               -0.00545152                0.00333109
               8.98940828                2.01716757               29.03187491                0.99999997               -0.03447064               -0.03442803                0.11487713               -0.00000171               -0.00389125               -0.00151351
               9.98905650                2.01856095               29.03256804                1.00000000               -0.03517756               -0.03592519                0.11957147                0.00010357               -0.00113735                0.00637521
               0.00550269                3.00214591               29.02523281                0.01000000               -0.03250917                0.01350881                0.08859641                0.02277818                0.00837165                0.16591981
               1.00517759                2.99945797               29.02521160                0.01000001               -0.03490700               -0.14741160                0.09226892                0.08063629                0.01732585                0.13588067
               2.00480455                2.99775943               29.02538758                0.01000000               -0.08021554               -0.15216492                0.09610336                0.26774504                0.04075791                0.06764169
               3.00357328                2.99786299               29.02585737                0.01000000               -0.15517825               -0.12880120                0.09981374                0.47471638                0.05985092                0.03901959
               4.00170098                2.99991879               29.02654883                0.01021292               -0.20496032               -0.12368075                0.10274277                0.66359630                0.07160114                0.02295870
               4.99947408                3.00331485               29.02743834                0.01000000               -0.24854434               -0.16320370                0.10560540                0.80757423                0.07979675                0.01701618
               5.99673009                3.00779160               29.02852136                0.01000001               -0.27892200               -0.19448515                0.10729023                0.82650474                0.07428122                0.02517651
               6.99389564                3.01155326               29.02955638                0.01000001               -0.41785670               -0.23339039                0.11240969                0.84914578                0.05287316                0.02105670
               7.98837296                3.01544480               29.03040507                0.01080554               -0.29372148               -0.14598718                0.12607158                0.65676846               -0.00457705                0.04993921
               8.98802121                3.01682459               29.03089252                0.01000000               -0.03506226               -0.17357884                0.11425557                0.47827778               -0.01372694                0.05544788
               9.98767171                3.01820255               29.03162511                0.49041606               -0.03494923               -0.41324618                0.11886065                0.55608686               -0.00168784                0.03647125
               0.00976129                4.00228868               29.02671312                0.01000003               -0.00735069               -0.04074921                0.09632901                0.14168428               -0.00370473                0.17850627
               1.00968778                3.99767565               29.02634653                0.01000000               -0.01890163               -0.21930222                0.09887987                0.29448487                0.00522660                0.11432341
               2.00938325                3.99579413               29.02614133                0.01000000               -0.07138932               -0.21282085                0.10140069                0.51510962                0.02828347                0.06405438
               3.00825999                3.99622511               29.02625427                0.01021238               -0.14922617               -0.17711621                0.10431789                0.66595201                0.05543045                0.03353289
               4.00639873                3.99830922               29.02670050                0.01000000               -0.20302247               -0.17836789                0.10750353                0.79941510                0.07892211                0.02716871
               5.00419954                4.00164914               29.02746634                0.01000001               -0.22532045               -0.18397273                0.11085594                0.88965810                0.09685586                0.04088408
               6.00189232                4.00564786               29.02847210                0.01000001               -0.24004831               -0.22002648                0.11478072                0.94981497                0.10270075                0.06296693
               6.99939858                4.00970728               29.02953933                0.01001168               -0.21411848               -0.23369287                0.12037302                0.96038705                0.09171293                0.09163650
               7.99760995                4.01285235               29.03049352                0.01000000               -0.15912505               -0.30436112                0.12448326                1.02361192                0.06854568                0.12167289
               8.99621608                4.01369600               29.03108864                0.01000000               -0.00938139               -0.35934889                0.12860444                0.71514896                0.06501283                0.08368912
               9.99742232                4.01029602               29.03131360                0.01179046                0.12062476               -0.60475919                0.12919917                0.53944794                0.06890657                0.02252154
               0.01756242                5.00133093               29.02833991                0.01000000               -0.00005741               -0.31228530                0.10364048                0.39688148               -0.00545332                0.20800174
               1.01756184                4.99507193               29.02752162                0.01000000               -0.05025671               -0.23218744                0.10523373                0.61802197                0.00371196                0.11852781
               2.01655728                4.99350301               29.02686304                0.01000001               -0.15923080               -0.18981820                0.10664297                0.71699362                0.02843152                0.04254251
               3.01437723                4.99432067               29.02664160                0.01000000               -0.21460125               -0.20572638                0.10877142                0.80873495                0.06566539                0.02039575
               4.01226526                4.99635143               29.02695937                0.01000001               -0.22243100               -0.19741520                0.11231098                0.87535286                0.10654943                0.02560736
               5.00992861                4.99963539               29.02776655                0.01000001               -0.22985042               -0.20096881                0.11690251                0.92939847                0.13638407                0.05195026
               6.00766825                5.00339107               29.02889360                0.01003030               -0.20148612               -0.22489223                0.12197500                0.92002075                0.15034844                0.09006962
               7.00589888                5.00687941               29.03015286                0.01000000               -0.14058843               -0.28197745                0.12758132                0.87751837                0.14923291                0.13320305
               8.00485648                5.00935757               29.03132742                0.01000001               -0.05091851               -0.34604322                0.13302758                0.75622228                0.13747987                0.16445966
               9.00488051                5.00963762               29.03220033                0.01000000                0.02020723               -0.36978235                0.13708984                0.52154920                0.08710735                0.17458451
              10.00526062                5.00610737               29.03228261                0.01000000                0.03801113               -0.27673606                0.13890534                0.26843780                0.04230448                0.15807686
               0.03021691                5.99604297               29.03047290                0.49285242               -0.03407714               -0.28072809                0.11183140                0.48228485               -0.00316303                0.12037826
               1.02987613                5.99303191               29.02897716                0.01000001               -0.28712578               -0.11900696                0.11389846                0.56430484               -0.00817565                0.06796932
               2.02447439                5.99199776               29.02738034                0.01000000               -0.41449302               -0.19229317                0.11021117                0.75366829                0.01340865                0.01458517
               3.02158627                5.99211058               29.02693033                0.01000001               -0.29416625               -0.20737429                0.11193305                0.79857019                0.09293257               -0.00101027
               4.01859106                5.99436092               29.02725059                0.01000001               -0.29192021               -0.20188355                0.11651607                0.90472196                0.14763513                0.01122343
               5.01574787                5.99762976               29.02820616                0.01003181               -0.27711713               -0.17346649                0.12216185                0.89048413                0.18904181                0.05005234
               6.01304872                6.00115001               29.02962204                0.01000000               -0.23827123               -0.18987353                0.12936599                0.79350048                0.21233023                0.10346515
               7.01098244                6.00406773               29.03127047                0.01000000               -0.15362678               -0.24793713                0.13652262                0.63995021                0.21486276                0.16491942
               8.00997619                6.00593149               29.03286509                0.01000000               -0.05425894               -0.31395428                0.14237105                0.46726927                0.19134209                0.22141138
               9.00989727                6.00630035               29.03407858                0.01069383               -0.00623045               -0.29022788                0.14634416                0.25999144                0.12041026                0.25414833
              10.00985158                6.00476130               29.03424726                0.01000001               -0.00456884               -0.07706744                0.15078332                0.12624269                0.06748580                0.25152597
               0.03323024                6.99571636               29.03093623                0.99999999               -0.03370962               -0.03263439                0.11115554               -0.00055209               -0.00695617                0.02829195
               1.03289315                6.99269179               29.02929091                1.00000000               -0.03391366               -0.03369193                0.11268179               -0.00040632               -0.00784558                0.00687466
               2.03255197                6.98965715               29.02762693                0.01000000               -0.24538375               -0.13401496                0.11439396                0.43005857                0.04539318               -0.00922851
               3.02798547                6.99017318               29.02704896                0.01000001               -0.38557256               -0.29215656                0.11356425                0.81481749                0.12017041               -0.05525157
               4.02484052                6.99231376               29.02737723                0.01001676               -0.35181380               -0.15895678                0.11628185                0.89259890                0.19529666               -0.01857468
               5.02094920                6.99616606               29.02864777                0.01000000               -0.38701164               -0.09696056                0.12737516                0.82050008                0.25460910                0.03918584
               6.01710029                6.99959360               29.03052696                0.01000000               -0.35163916               -0.08869952                0.13632517                0.60625721                0.28795103                0.10614516
               7.01391641                7.00192066               29.03282394                0.01000000               -0.25655206               -0.14493789                0.14466693                0.34756310                0.29495414                0.18437524
               8.01196925                7.00307849               29.03512335                0.01000001               -0.13329436               -0.23350041                0.15204245                0.12578701                0.25303670                0.28997909
               9.01125053                7.00383306               29.03675751                0.01000002               -0.05528335               -0.24151581                0.15674434                0.00572802                0.14439999                0.37373493
              10.01086358                7.00456602               29.03693104                0.01172639               -0.03869480               -0.02440275                0.16308793               -0.03669603                0.07022268                0.43415763
               0.03625501                7.99539028               29.03122225                1.00000000               -0.03277837               -0.03223783                0.10809822               -0.00030507               -0.00076881                0.02146612
               1.03592722                7.99235807               29.02952459                1.00000000               -0.03304185               -0.03298632                0.11005490                0.00012978               -0.00052160                0.00314157
               2.03559417                7.98931746               29.02783145                0.07713874               -0.03506059               -0.03360664                0.11194531                0.00002223                0.00984693               -0.01514356
               3.03522601                7.98626745               29.02634428                0.01081132               -0.25720036               -0.21215298                0.08021333                0.60949952                0.13660486               -0.08470087
               4.03045016                7.99118178               29.02723240                0.01000000               -0.51739927               -0.07622720                0.11956375                0.91878327                0.27613438               -0.04584909
               5.02487803                7.99569055               29.02899785                0.01000001               -0.55154495                0.03372490                0.13040855                0.67886131                0.32680768                0.02433179
               6.01941926                7.99937602               29.03143428                0.01000000               -0.52146026                0.04631702                0.14129039                0.39220234                0.36625030                0.10206913
               7.01444882                8.00116897               29.03449653                0.01000001               -0.44198669                0.00710078                0.15178159                0.08985258                0.40697756                0.16595314
               8.01057953                8.00126148               29.03822947                0.01000002               -0.29622634               -0.07159468                0.16024234               -0.21730554                0.38421551                0.29592703
               9.00852430                8.00147003               29.04118374                0.01007872               -0.14638971               -0.16670464                0.16942832               -0.41320875                0.25342784                0.65969418
              10.00765174                8.00427325               29.04250288                0.01000000               -0.08725585               -0.22747723                0.17655208               -0.29007767                0.16879867                0.65800031
               0.03928857                8.99507161               29.03154647                1.00000000               -0.03200115               -0.03156038                0.10561902               -0.00031879                0.00242404                0.01863676
               1.03896856                8.99203206               29.02976468                0.99999998               -0.03227721               -0.03224424                0.10757613                0.00008785                0.00150373                0.00217756
               2.03864303                8.98898501               29.02796451                0.99999999               -0.03287105               -0.03287314                0.10959822                0.00006729               -0.00454194               -0.01106525
               3.03831114                8.98593012               29.02606538                0.01169425               -0.24249714               -0.03344054                0.11167198                0.39758540                0.12923567               -0.03780174
               4.03379309                8.99078921               29.02694787                0.01000000               -0.59894784                0.09607311                0.11294791                0.63835540                0.32341683               -0.04530118
               5.02633219                8.99684056               29.02919266                0.01000000               -0.71635898                0.16837842                0.13170298                0.44502380                0.38907798                0.01155166
               6.01946591                9.00051994               29.03225127                0.01078009               -0.62520885                0.14115225                0.14718530                0.17530927                0.40906148                0.07312597
               7.01382801                9.00206268               29.03568902                0.01000002               -0.60719176                0.12190882                0.15209960               -0.01253805                0.49173958                0.09377992
               8.00732207                9.00164659               29.04073962                0.01000003               -0.69267130                0.13785198                0.16821445               -0.25942411                0.74433067                0.20325840
               8.99997458                9.00049897               29.04980230                0.99999998               -0.39332353               -0.07451424                0.17220106               -0.48455503                0.45746041                0.43269545
               9.99945560                9.00001647               29.04971069                1.00000000               -0.05189801               -0.23909953                0.17399822               -0.43394356               -0.00029717                0.36160323
               0.04232772                9.99475908               29.03177374                1.00000000               -0.03121420               -0.03125315                0.10312732               -0.00067519                0.01307912                0.01387460
               1.04201557                9.99171318               29.02998059                1.00000000               -0.03151283               -0.03188829                0.10509150               -0.00025267                0.01647101                0.00086595
               2.04169746                9.98866000               29.02825581                0.99999999               -0.03210269               -0.03250141                0.10712470               -0.00028416                0.01645217               -0.00343368
               3.04137352                9.98559864               29.02646641                0.15003284               -0.46953123               -0.03314815                0.10910954                0.52840012                0.12353011               -0.00427693
               4.03230683                9.99310325               29.02689090                0.01000000               -0.86628730                0.23140317                0.10879118                0.52434853                0.29760136               -0.02459064
               5.02404777                9.99905812               29.02917491                0.01000000               -0.73017523                0.22175578                0.12860087                0.22634993                0.39030801                0.01629169
               6.01770333               10.00219907               29.03245832                0.01000001               -0.54881824                0.16791232                0.14713489                0.05119390                0.40397491                0.05039045
               7.01307141               10.00360715               29.03582008                0.01113547               -0.53742847                0.15444713                0.14682127                0.01531269                0.54265215                0.04233411
               8.00695476               10.00401852               29.04196173                0.01000002               -0.63040479                0.23719231                0.17217698               -0.21810115                0.73839654                0.14984511
               9.00046331                9.99997975               29.04977210                1.00000000               -0.35084565               -0.05192159                0.17414733               -0.17748993                0.39533439                0.00023541
               9.99993785                9.99949126               29.04968048                1.00000000               -0.05254656               -0.05252190                0.17594449               -0.00062486                0.00027677               -0.00027653
               0.00108498                0.00266041               30.02481537                1.00000000               -0.02473945               -0.02382300                0.08006420                0.00057159               -0.00357486                0.00398678
               1.00083758                0.00123954               30.02488739                1.00000000               -0.02542134               -0.02526838                0.08469325                0.00072199               -0.00383005               -0.00134911
               2.00057655               -0.00018439               30.02495117                0.01000000               -0.04020605               -0.02670489                0.08931387                0.02217337                0.05629855               -0.00162690
               3.00003346               -0.00118242               30.02622783                0.01000003               -0.06831215                0.00968488                0.10779959                0.02377853                0.14370921                0.00295560
               3.99921031                0.00050142               30.02767612                0.01000000               -0.14079972                0.03724086                0.09092967                0.14685211                0.18218223               -0.00656553
               4.99721747                0.00545291               30.02988785                0.01000001               -0.33229164                0.05125228                0.08165093                0.35201838                0.22864016               -0.04390200
               5.99256447                0.01439449               30.03255969                0.18323052               -0.24802901               -0.03005086                0.10016792                0.37409644                0.11118635               -0.00109909
               6.99225689                0.01586982               30.03344559                1.00000000               -0.03164393               -0.03159251                0.10577281                0.00085439                0.01399850               -0.00442257
               7.99193160                0.01734290               30.03416748                0.99999998               -0.03330106               -0.03317732                0.11092948                0.00079900                0.00766282               -0.00042623
               8.99159087                0.01881370               30.03492309                1.00000000               -0.03483863               -0.03472624                0.11610324                0.00077866                0.00755640                0.00096232
               9.99123482                0.02028333               30.03564142                1.00000000               -0.03560427               -0.03635397                0.12128073                0.00087027                0.00565799                0.00512972
               0.00251156                1.00242218               30.02468616                1.00000000               -0.02443574               -0.02366523                0.07909847               -0.00012552                0.00143865                0.00459604
               1.00226720                1.00098686               30.02475574                0.01000000               -0.02511470               -0.02516406                0.08374196                0.00003444                0.00360658               -0.00337093
               2.00200927                0.99954856               30.02486696                0.01000000               -0.11694309               -0.04716039                0.08837220               -0.01289645                0.07076387                0.04456405
               2.99992834                0.99891443               30.02628310                0.01000001               -0.23240528                0.00247261                0.09827743                0.10527702                0.14694799                0.01626073
               3.99736116                1.00087383               30.02759018                0.01000000               -0.30686128                0.02291694                0.09399255                0.30877921                0.14443854                0.00321990
               4.99379112                1.00596544               30.02935372                0.01000000               -0.31320865               -0.00684288                0.09208326                0.57663211                0.18222379               -0.03251831
               5.99109699                1.01409398               30.03173137                0.01000001               -0.14999456               -0.21110814                0.09962288                0.50482222                0.08805847               -0.04165661
               6.99079123                1.01555389               30.03253817                0.99999999               -0.03146717               -0.03150409                0.10522134                0.00011279                0.00521285               -0.00432908
               7.99046765                1.01701113               30.03325409                0.99988252               -0.03313918               -0.03312213                0.11039861                0.00003560                0.00117988               -0.00031518
               8.99012844                1.01846644               30.03397722                0.99999999               -0.03468737               -0.03466296                0.11558691               -0.00003800                0.00108077                0.00070493
               9.98977390                1.01991979               30.03469039                1.00000000               -0.03545440               -0.03627102                0.12074287                0.00000914                0.00050637                0.00635560
               0.00395311                2.00218711               30.02456399                0.01000000               -0.02412178               -0.00381952                0.07812797                0.00898652                0.00198325                0.08873530
               1.00371189                2.00073626               30.02458376                0.01000000               -0.07810278               -0.07309966                0.08277838               -0.01608640                0.05741896                0.08062994
               2.00239105                1.99887240               30.02571217                0.01000001               -0.14490790               -0.08990896                0.09340569                0.04985405                0.09150368                0.07509391
               3.00081373                1.99886703               30.02646905                0.01000000               -0.20280856               -0.05183578                0.09627484                0.28702043                0.07931524                0.03332550
               3.99833488                2.00095976               30.02751328                0.01000000               -0.26418886               -0.04050048                0.09818170                0.53508972                0.09669633                0.01536582
               4.99552996                2.00531606               30.02880203                0.01000001               -0.26312089               -0.11596242                0.10154763                0.73464465                0.08764068               -0.00495485
               5.99307247                2.01017233               30.03008446                0.01000000               -0.30939807               -0.28726096                0.10172482                0.76047577                0.08715202               -0.04308274
               6.98934200                2.01523973               30.03162850                0.01000000               -0.20263512               -0.16266738                0.10462595                0.45969186                0.03746076               -0.00693402
               7.98901976                2.01668046               30.03234079                0.10035036               -0.03302727               -0.03634062                0.11004151                0.00434600               -0.00537657                0.01666597
               8.98868145                2.01812044               30.03302604                0.99999997               -0.03457299               -0.03453372                0.11522693               -0.00001120               -0.00390725               -0.00138638
               9.98832830                2.01955791               30.03376649                1.00000000               -0.03531468               -0.03610598                0.12013979               -0.00000516               -0.00122752                0.00623511
               0.00559298                3.00234579               30.02611393                0.01000000               -0.03327994                0.01697561                0.08790314                0.02414471                0.00925456                0.17622808
               1.00526018                2.99952487               30.02613393                0.01000001               -0.03586998               -0.15335348                0.09200581                0.08522170                0.01884734                0.14414663
               2.00487558                2.99775038               30.02635252                0.01000000               -0.08393937               -0.15852939                0.09622300                0.28297407                0.04173747                0.07070547
               3.00358139                2.99787771               30.02685632                0.01000000               -0.16308244               -0.13461036                0.09975596                0.50090203                0.06127498                0.04243368
               4.00161393                3.00006382               30.02757890                0.01021322               -0.21549760               -0.12877260                0.10285531                0.69985195                0.07152446                0.02744083
               4.99927144                3.00364619               30.02849428                0.01000000               -0.26155524               -0.17060258                0.10556859                0.85077260                0.07849175                0.02188446
               5.99638283                3.00834876               30.02958286                0.01000001               -0.28972556               -0.20349138                0.10738010                0.87211364                0.07051886                0.03304862
               6.99347693                3.01230054               30.03066585                0.01000001               -0.43544831               -0.24549467                0.10385877                0.89407218                0.05406733                0.02882834
               7.98767386                3.01628432               30.03176543                0.01081447               -0.31130784               -0.15325689                0.16176002                0.69767941               -0.02707806                0.07108686
               8.98725077                3.01777576               30.03203826                0.01000000               -0.03875004               -0.21556390                0.11497242                0.53744052               -0.02675942                0.06203636
               9.98689886                3.01919767               30.03281737                0.51535548               -0.03519135               -0.47248954                0.11948504                0.62474690               -0.00157464                0.03725124
               0.01007785                4.00252662               30.02767349                0.01000003               -0.00661171               -0.04026158                0.09580601                0.15029569               -0.00367329                0.18731984
               1.01001174                3.99766919               30.02733530                0.01000000               -0.01900808               -0.22871836                0.09881574                0.31194157                0.00487054                0.12163933
               2.00969769                3.99570181               30.02715722                0.01000000               -0.07466994               -0.22162667                0.10146578                0.54481235                0.02791884                0.06977543
               3.00851834                3.99617482               30.02730035                0.01021234               -0.15671223               -0.18394369                0.10441953                0.70341762                0.05480913                0.03864200
               4.00656345                3.99838431               30.02777648                0.01000000               -0.21289355               -0.18587509                0.10759778                0.84309328                0.07809256                0.03301135
               5.00426047                4.00190400               30.02857485                0.01000001               -0.23515313               -0.19233690                0.11092277                0.93733847                0.09538989                0.04805769
               6.00186038                4.00610250               30.02961546                0.01000001               -0.24862906               -0.23106042                0.11393143                0.99991341                0.10207786                0.07241790
               6.99928788                4.01032984               30.03074846                0.01000444               -0.21811254               -0.24742801                0.12056341                1.00969362                0.09032862                0.10410802
               7.99749813                4.01361532               30.03170618                0.01000000               -0.13854865               -0.32364976                0.11381626                1.05088845                0.08017618                0.11136425
               8.99651691                4.01380916               30.03235610                0.01000000                0.02406480               -0.39563061                0.12661666                0.72599105                0.05455820                0.11792106
               9.99797943                4.01010812               30.03251909                0.01000000                0.14625174               -0.64907946                0.12901466                0.56449441                0.04543459                0.05961958
               0.01831374                5.00154056               30.02937502                0.01000000                0.00100713               -0.32828123                0.10318353                0.42063421               -0.00638356                0.21759998
               1.01832382                4.99495050               30.02857465                0.01000000               -0.05237741               -0.24149697                0.10515880                0.65481848                0.00234312                0.12758023
               2.01726620                4.99331785               30.02793072                0.01000001               -0.16782823               -0.19641588                0.10675944                0.75848018                0.02669443                0.04831781
               3.01496725                4.99419884               30.02772804                0.01000000               -0.22597902               -0.21321618                0.10876008                0.85362309                0.06452483                0.02633217
               4.01274662                4.99634632               30.02808426                0.01000001               -0.23336171               -0.20483724                0.11243647                0.92182937                0.10591599                0.03220655
               5.01030002                4.99979945               30.02893615                0.01000001               -0.23956788               -0.20977550                0.11685758                0.97709310                0.13562085                0.06006325
               6.00795526                5.00372756               30.03011419                0.01001818               -0.20710190               -0.23602239                0.12173083                0.96498816                0.14958784                0.09970623
               7.00615798                5.00735198               30.03142038                0.01000000               -0.13714749               -0.29713919                0.12575833                0.91389357                0.15053663                0.14087852
               8.00521231                5.00981132               30.03264882                0.01000001               -0.04400888               -0.36852857                0.13194642                0.77354582                0.13264499                0.17524869
               9.00527780                5.00986315               30.03352075                0.01000000                0.01892646               -0.36247193                0.13046555                0.51349606                0.08476823                0.19356941
              10.00559084                5.00621608               30.03366604                0.01000003                0.03130361               -0.25763445                0.13798707                0.25289838                0.04793547                0.18280098
               0.03167066                5.99596100               30.03158840                0.46269877               -0.03398402               -0.29515456                0.11108564                0.51193137               -0.00317537                0.12649850
               1.03133082                5.99283925               30.03011625                0.01000001               -0.30258501               -0.12254915                0.11374142                0.59741108               -0.01103036                0.07408973
               2.02561896                5.99177350               30.02848403                0.01000000               -0.43842435               -0.19829253                0.11048893                0.79612059                0.00975009                0.02051822
               3.02256233                5.99191050               30.02806033                0.01000001               -0.31097669               -0.21167431                0.11267991                0.84162828                0.09187117                0.00182569
               4.01939942                5.99428756               30.02841587                0.01000001               -0.30706190               -0.20942646                0.11679634                0.95105647                0.14658351                0.01790493
               5.01642109                5.99770849               30.02943293                0.01001960               -0.28959038               -0.18050132                0.12285378                0.93345234                0.18840162                0.05933279
               6.01360761                6.00138205               30.03091789                0.01000000               -0.24695514               -0.19815264                0.12941783                0.82876008                0.21180464                0.11348965
               7.01148199                6.00438706               30.03263791                0.01000000               -0.15748657               -0.25950090                0.13655211                0.66160315                0.21333652                0.17569599
               8.01045788                6.00624475               30.03428910                0.01000000               -0.05499550               -0.32559890                0.14210340                0.47254357                0.18833268                0.23388702
               9.01038208                6.00655972               30.03554352                0.01067164               -0.00631725               -0.29252190                0.14688776                0.25895511                0.11737981                0.26940224
              10.01033154                6.00495543               30.03576361                0.01000000               -0.00505399               -0.07186015                0.15308072                0.12756178                0.06593005                0.26873047
               0.03479585                6.99563747               30.03204551                0.99999999               -0.03363181               -0.03240382                0.11058602               -0.00057413               -0.00746087                0.02897764
               1.03445954                6.99249952               30.03041845                1.00000000               -0.03392457               -0.03368739                0.11272434               -0.00043023               -0.00819183                0.00747733
               2.03411736                6.98935200               30.02877454                0.01000000               -0.25868923               -0.13816909                0.11503815                0.45600514                0.04144282               -0.00576058
               3.02928575                6.98996535               30.02814157                0.01000001               -0.40738054               -0.30333052                0.11134095                0.85749402                0.11689181               -0.05735297
               4.02596975                6.99215779               30.02856158                0.01000824               -0.37055883               -0.16522653                0.12039455                0.93244793                0.19754384               -0.01273821
               5.02187457                6.99618942               30.02993073                0.01000000               -0.40589267               -0.10074507                0.12933132                0.85976764                0.25366823                0.05059934
               6.01785190                6.99976450               30.03190057                0.01000000               -0.36736154               -0.09171615                0.13779241                0.63165632                0.28610701                0.11679952
               7.01452734                7.00216196               30.03428223                0.01000000               -0.26806917               -0.14935110                0.14660011                0.35678518                0.29344200                0.19523600
               8.01249051                7.00329935               30.03666118                0.01000001               -0.13905569               -0.24082127                0.15669747                0.12114955                0.24981239                0.30259956
               9.01174623                7.00401271               30.03834398                0.01000002               -0.05699249               -0.25128845                0.16157224               -0.00203530                0.13996639                0.38747539
              10.01135066                7.00477888               30.03858791                0.01000000               -0.03955649               -0.02560071                0.16721590               -0.04156822                0.06839950                0.44926144
               0.03793508                7.99531292               30.03230135                1.00000000               -0.03273952               -0.03210282                0.10766166               -0.00028653               -0.00079794                0.02128951
               1.03760768                7.99216551               30.03062623                1.00000000               -0.03309266               -0.03303465                0.11022214                0.00013067               -0.00054908                0.00314548
               2.03727322                7.98901012               30.02895498                0.08440645               -0.03506315               -0.03384509                0.11271800               -0.00006739                0.00268598               -0.01498645
               3.03690642                7.98584389               30.02734708                0.01081912               -0.27244570               -0.22306802                0.10563419                0.63946568                0.13899900               -0.08830332
               4.03182431                7.99098303               30.02840476                0.01000000               -0.54483440               -0.08192971                0.12190500                0.96623794                0.28389838               -0.03863839
               5.02600973                7.99569359               30.03033368                0.01000001               -0.57780548                0.03597915                0.13674415                0.71315391                0.32667590                0.03670255
               6.02026820                7.99954773               30.03287104                0.01000000               -0.54634406                0.04945128                0.14535609                0.41087385                0.36166639                0.11136151
               7.01508285                8.00140003               30.03603464                0.01000001               -0.46190360                0.00900375                0.15578230                0.08868790                0.40565550                0.17356935
               8.01103013                8.00142833               30.03985857                0.01000002               -0.31105034               -0.07370191                0.16699193               -0.23498434                0.38355487                0.30785207
               9.00886184                8.00153395               30.04291355                0.01020397               -0.15311414               -0.17453453                0.17586287               -0.43382571                0.24975771                0.66407535
              10.00796785                8.00444341               30.04430762                0.01000000               -0.08939971               -0.23724629                0.18175177               -0.29982634                0.16789517                0.65941377
               0.04108495                8.99499541               30.03260117                1.00000000               -0.03199952               -0.03146104                0.10530690               -0.00029815                0.00244505                0.01876181
               1.04076495                8.99183882               30.03084194                0.99999998               -0.03236581               -0.03233267                0.10787173                0.00008819                0.00156270                0.00226928
               2.04043763                8.98867510               30.02906499                0.99999999               -0.03314023               -0.03314625                0.11050216                0.00006937               -0.00442514               -0.01091366
               3.04010215                8.98550399               30.02718960                0.01184107               -0.24964119               -0.03380907                0.11318518                0.41095787                0.12971794               -0.03046449
               4.03544481                8.99051920               30.02810277                0.01000000               -0.62645960                0.09722946                0.12138214                0.67535589                0.33356797               -0.04136900
               5.02757296                8.99690901               30.03054587                0.01000000               -0.75409367                0.17783371                0.14141006                0.47118532                0.39275398                0.02214834
               6.02036293                9.00075353               30.03372549                0.01075434               -0.65762250                0.14918218                0.14921324                0.18779992                0.41475449                0.07846743
               7.01442051                9.00234204               30.03726209                0.01000002               -0.63530122                0.12660918                0.16262501               -0.01748387                0.49070109                0.09588860
               8.00765691                9.00182531               30.04245382                0.01000003               -0.71829374                0.14241951                0.17630631               -0.27708090                0.74256334                0.21185600
               9.00005463                9.00052202               30.05152528                0.99999998               -0.40608448               -0.07656888                0.17239825               -0.50524563                0.45702913                0.43144773
               9.99953522                9.00003395               30.05145099                1.00000000               -0.05194105               -0.24672295                0.17405952               -0.44603703               -0.00030148                0.35746707
               0.04424229                9.99468370               30.03280392                1.00000000               -0.03125294               -0.03117144                0.10294244               -0.00075016                0.01316449                0.01398696
               1.04392976                9.99151885               30.03103341                1.00000000               -0.03164236               -0.03199708                0.10551613               -0.00034447                0.01656777                0.00094185
               2.04360944                9.98834719               30.02933197                0.99999999               -0.03241417               -0.03279061                0.10815966               -0.00037603                0.01653330               -0.00336445
               3.04328148                9.98516771               30.02756543                0.17969860               -0.48415152               -0.03362834                0.11075554                0.54695459                0.12199731               -0.00429114
               4.03392641                9.99292762               30.02798164                0.01000000               -0.90411869                0.24084270                0.10815413                0.55228847                0.30712799               -0.02239600
               5.02519910                9.99925027               30.03049168                0.01000000               -0.76676235                0.23412607                0.13751436                0.24280243                0.39945391                0.02240518
               6.01859117               10.00253137               30.03391279                0.01000001               -0.57688554                0.17778456                0.14745304                0.05692070                0.42302743                0.05327047
               7.01366139               10.00393222               30.03738167                0.01130278               -0.56413180                0.15901784                0.16482899                0.01135593                0.54630103                0.04440864
               8.00730853               10.00427672               30.04370844                0.01000002               -0.65565526                0.24514099                0.18251371               -0.23132012                0.73928960                0.15002127
               9.00054829               10.00000258               30.05151327                1.00000000               -0.36426414               -0.05194447                0.17408792               -0.18902245                0.39419237                0.00023676
              10.00002325                9.99950895               30.05143897                1.00000000               -0.05250410               -0.05249958                0.17574915               -0.00055952                0.00027907               -0.00027874
               0.00095397                0.00283415               31.02561041                1.00000000               -0.02456930               -0.02355044                0.07907967                0.00074065               -0.00352749                0.00403002
               1.00070827                0.00136242               31.02573353                1.00000000               -0.02538735               -0.02526464                0.08459138                0.00085240               -0.00379058               -0.00133552
               2.00044622               -0.00011166               31.02584841                0.01000001               -0.01813070               -0.02698840                0.09010886                0.02114643                0.05991125               -0.00163152
               3.00034566               -0.00118240               31.02724760                0.01009771               -0.05377834                0.01180526                0.08346568                0.02507457                0.14863375               -0.00687704
               3.99937065                0.00048461               31.02856977                0.01000000               -0.14760814                0.04735548                0.08798520                0.13442643                0.17879556               -0.01517767
               4.99739350                0.00535300               31.03059610                0.01000001               -0.37496273                0.06649668                0.08432529                0.37992674                0.24522729               -0.03056188
               5.99187140                0.01521455               31.03355497                0.17468476               -0.29132205               -0.02969910                0.09889958                0.41792976                0.12309363               -0.00112058
               6.99156705                0.01673548               31.03449937                1.00000000               -0.03139184               -0.03139526                0.10500079                0.00088453                0.01423776               -0.00441702
               7.99124356                0.01825451               31.03527489                0.99999998               -0.03317238               -0.03309692                0.11053020                0.00085509                0.00765590               -0.00049509
               8.99090361                0.01977162               31.03608401                1.00000000               -0.03481774               -0.03473249                0.11606841                0.00085806                0.00754623                0.00090928
               9.99054721                0.02128807               31.03685573                1.00000000               -0.03564015               -0.03649737                0.12159975                0.00094110                0.00564497                0.00514323
               0.00243311                1.00259865               31.02547329                1.00000000               -0.02434043               -0.02343620                0.07838251               -0.00008746                0.00145150                0.00463188
               1.00218971                1.00110977               31.02559365                0.01000000               -0.02515089               -0.02520617                0.08387557                0.00001496                0.00362137               -0.00335589
               2.00193009                0.99961845               31.02575579                0.01000000               -0.09457198               -0.05172971                0.08938161               -0.01210892                0.06879409                0.04677738
               3.00029827                0.99893565               31.02718304                0.01000001               -0.22414398                0.00384144                0.07917113                0.08521377                0.18047223                0.00519659
               3.99744721                1.00095817               31.02848927                0.01000000               -0.32352367                0.03084077                0.08872425                0.29456344                0.15570515                0.00298283
               4.99382779                1.00601797               31.03023221                0.01000000               -0.35438768                0.01602767                0.09102880                0.58342059                0.18849582               -0.01989428
               5.99035946                1.01491756               31.03272185                0.01000001               -0.18859348               -0.21950698                0.09848689                0.55246874                0.09122919               -0.03995457
               6.99005592                1.01642152               31.03358741                0.99999999               -0.03127107               -0.03133761                0.10459700                0.00003326                0.00541039               -0.00437664
               7.98973404                1.01792354               31.03435610                0.99999999               -0.03302573               -0.03302220                0.11009893                0.00000279                0.00114290               -0.00026539
               8.98939541                1.01942430               31.03513296                0.99999999               -0.03469311               -0.03464083                0.11563464                0.00001864                0.00112326                0.00075907
               9.98904017                1.02092309               31.03590026                1.00000000               -0.03552333               -0.03647031                0.12122080                0.00007127                0.00057681                0.00630013
               0.00392998                2.00236543               31.02534320                0.01000000               -0.02412067               -0.00188408                0.07768977                0.01001964                0.00197781                0.09405613
               1.00368877                2.00085829               31.02541358                0.01000000               -0.07759083               -0.07601993                0.08317210               -0.01927188                0.05963154                0.08545290
               2.00237816                1.99885374               31.02663692                0.01000001               -0.14892755               -0.09449814                0.09005768                0.05114771                0.09866495                0.07453513
               3.00071022                1.99889443               31.02742844                0.01000000               -0.20992802               -0.05276462                0.09384088                0.27609087                0.07992679                0.03440318
               3.99817960                2.00110143               31.02848549                0.01000000               -0.28038531               -0.03768800                0.09646360                0.54127128                0.10077600                0.02158047
               4.99510251                2.00567356               31.02980610                0.01000001               -0.28311898               -0.10191299                0.09985867                0.74675721                0.08888504                0.00239768
               5.99251722                2.01082441               31.03110425                0.01000000               -0.32703841               -0.29979954                0.10326039                0.80223019                0.08510429               -0.03824373
               6.98856174                2.01610872               31.03267220                0.01000000               -0.21381896               -0.17058265                0.10419850                0.47540698                0.03605934               -0.01053109
               7.98824084                2.01759406               31.03344066                0.23561378               -0.03286590               -0.02111981                0.10964579               -0.01524790               -0.00526370                0.05563194
               8.98790443                2.01907881               31.03417944                0.99999997               -0.03448974               -0.03445188                0.11521178                0.00016333               -0.00392630               -0.00108273
               9.98755105                2.02055866               31.03497084                1.00000000               -0.03533804               -0.03640550                0.12085362                0.00007575               -0.00135250                0.00601017
               0.00564778                3.00256097               31.02699087                0.01000000               -0.03318207                0.02042772                0.08748807                0.02455204                0.00956818                0.18695152
               1.00531596                2.99958937               31.02705171                0.01000001               -0.03654321               -0.15952857                0.09089297                0.08901081                0.01991364                0.15192288
               2.00491691                2.99772849               31.02731204                0.01000000               -0.08717795               -0.16211566                0.09505396                0.29447021                0.04217240                0.07382533
               3.00357240                2.99788036               31.02785248                0.01000000               -0.17117031               -0.13840998                0.09903543                0.52513081                0.06168311                0.04551885
               4.00149351                3.00020441               31.02860593                0.01021369               -0.22662232               -0.13186693                0.10259914                0.73029180                0.07063213                0.03181092
               4.99903995                3.00397971               31.02954971                0.01000000               -0.27623048               -0.17525686                0.10591244                0.89415055                0.07732612                0.02703246
               5.99596890                3.00892157               31.03066896                0.01000001               -0.31227689               -0.21297612                0.10883181                0.91366087                0.06135515                0.03886881
               6.99279441                3.01300987               31.03163356                0.01000001               -0.47549504               -0.25369073                0.10776570                0.95661316                0.07791711                0.03829194
               7.98645900                3.01750114               31.03364027                0.01000002               -0.31801670               -0.16989078                0.08989146                0.75451915               -0.01016662                0.06040039
               8.98643408                3.01873526               31.03319197                0.01000002               -0.01885047               -0.22534401                0.11485105                0.56418725               -0.06541630                0.06825324
               9.98608199                3.02019498               31.03401481                0.52773042               -0.03520927               -0.49594566                0.12044647                0.66867178               -0.00213168                0.04608199
               0.01036421                4.00277398               31.02862924                0.01000000               -0.00627463               -0.03964747                0.09703534                0.15875912               -0.00390694                0.19584868
               1.01030146                3.99766772               31.02832284                0.01000000               -0.01938170               -0.23733908                0.09876869                0.32872457                0.00363953                0.12953020
               2.00997658                3.99561143               31.02817064                0.01000000               -0.07822740               -0.22929640                0.10072837                0.57396890                0.02685133                0.07500405
               3.00873692                3.99612623               31.02834266                0.01021253               -0.16452478               -0.18965097                0.10395418                0.73972231                0.05373377                0.04306038
               4.00668608                3.99846409               31.02885245                0.01000000               -0.22342789               -0.19241183                0.10747814                0.88620782                0.07684091                0.03782932
               5.00426836                4.00216842               31.02968480                0.01000001               -0.24629016               -0.20005674                0.11106392                0.98359765                0.09312850                0.05366622
               6.00176028                4.00656489               31.03075073                0.01000001               -0.25769609               -0.24194008                0.11419321                1.05366805                0.10042256                0.07913839
               6.99911444                4.01103491               31.03195060                0.01000152               -0.20772228               -0.26011760                0.11451035                1.06059625                0.08344535                0.11817684
               7.99760583                4.01419625               31.03276985                0.01000000               -0.13100530               -0.36107597                0.11599535                1.12435194                0.08587140                0.07509524
               8.99649433                4.01457193               31.03362097                0.01000000                0.01996043               -0.42068395                0.12394955                0.77840388                0.04949637                0.15974851
               9.99800504                4.01063975               31.03389390                0.01000001                0.15107100               -0.68380590                0.13834005                0.59911994                0.02325326                0.10435795
               0.01903548                5.00176802               31.03040358                0.01000001                0.00175183               -0.34357667                0.10158431                0.44413204               -0.00712826                0.22567184
               1.01905300                4.99484259               31.02962479                0.01000000               -0.05488501               -0.24989091                0.10515686                0.69164900                0.00084395                0.13605071
               2.01793778                4.99314256               31.02899823                0.01000001               -0.17694104               -0.20235567                0.10660163                0.79967417                0.02462328                0.05375603
               3.01551418                4.99408734               31.02881680                0.01000000               -0.23811581               -0.21963289                0.10861168                0.89842737                0.06274035                0.03104102
               4.01317547                4.99635617               31.02920810                0.01000001               -0.24515407               -0.21111954                0.11226724                0.96776430                0.10450231                0.03770512
               5.01061110                4.99997858               31.03010370                0.01000001               -0.24998497               -0.21732948                0.11661160                1.02360609                0.13381394                0.06677331
               6.00817577                5.00408277               31.03132821                0.01000931               -0.21180598               -0.24657359                0.12078994                1.00742499                0.14674616                0.10768205
               7.00637498                5.00780752               31.03266803                0.01000000               -0.13833763               -0.31575520                0.12504354                0.94801905                0.14832554                0.14730940
               8.00540902                5.01027962               31.03396634                0.01000001               -0.04081617               -0.37996880                0.12969629                0.78727320                0.12106668                0.19331354
               9.00555866                5.01032158               31.03480964                0.01000000                0.02598654               -0.38533841                0.13268937                0.52576320                0.07429646                0.21909320
              10.00592875                5.00651886               31.03504235                0.01027022                0.03700891               -0.27128498                0.14146938                0.25597612                0.04996638                0.20608419
               0.03309771                5.99590245               31.03269461                0.43267459               -0.03378076               -0.30925255                0.10996906                0.54172863               -0.00319398                0.13241735
               1.03275990                5.99266990               31.03125198                0.01000001               -0.31861992               -0.12556193                0.11322440                0.63045749               -0.01390190                0.08014561
               2.02672531                5.99156431               31.02959012                0.01000000               -0.46340238               -0.20357881                0.11074135                0.83917963                0.00504586                0.02605575
               3.02349185                5.99173357               31.02918393                0.01000001               -0.32875914               -0.21739841                0.11285771                0.88497311                0.09037755                0.00561512
               4.02015013                5.99424170               31.02958652                0.01000001               -0.32389865               -0.21430344                0.11713558                0.99575128                0.14554758                0.02497409
               5.01701388                5.99782183               31.03066324                0.01001068               -0.30351462               -0.18506403                0.12277349                0.97320977                0.18629380                0.06847696
               6.01407984                6.00163342               31.03221039                0.01000000               -0.25679579               -0.20531650                0.12877130                0.85965671                0.20865770                0.12301015
               7.01187796                6.00471981               31.03400151                0.01000001               -0.16213018               -0.26894302                0.13592074                0.68065600                0.20836216                0.18683158
               8.01083723                6.00659687               31.03570716                0.01000000               -0.05538060               -0.33593061                0.14119447                0.48200379                0.18236915                0.24922976
               9.01077035                6.00686516               31.03701633                0.01065494               -0.00536157               -0.30545217                0.14753976                0.25908208                0.11278939                0.29056462
              10.01073000                6.00521405               31.03730888                0.01000000               -0.00403527               -0.07558150                0.15615078                0.12563775                0.06432878                0.28883834
               0.03633515                6.99558297               31.03314795                0.99999999               -0.03348640               -0.03210142                0.10979080               -0.00058290               -0.00794808                0.02969729
               1.03600029                6.99233135               31.03154540                1.00000000               -0.03387207               -0.03362083                0.11256439               -0.00046342               -0.00852770                0.00812950
               2.03565771                6.98907098               31.02992769                0.01000000               -0.27320138               -0.14185172                0.11550239                0.48048769                0.03899356               -0.00221801
               3.03053626                6.98973937               31.02927578                0.01000001               -0.43277398               -0.31401100                0.11498585                0.90317355                0.11456724               -0.05891500
               4.02700223                6.99207010               31.02978513                0.01000291               -0.39263431               -0.16869359                0.12284214                0.97646616                0.19816359               -0.00129236
               5.02268357                6.99627730               31.03123439                0.01000000               -0.42656514               -0.10061855                0.13013467                0.89188605                0.24790920                0.06642906
               6.01847093                6.99997644               31.03328281                0.01000001               -0.38294628               -0.09275450                0.13779809                0.65115833                0.27956850                0.12854334
               7.01502465                7.00242866               31.03575594                0.01000000               -0.27835952               -0.15296551                0.14626187                0.36405059                0.29006280                0.20711217
               8.01290374                7.00356101               31.03825730                0.01000002               -0.14507623               -0.24855011                0.16424210                0.11591832                0.24481000                0.31739934
               9.01212312                7.00421254               31.03998896                0.01000002               -0.05800056               -0.26474553                0.16710354               -0.01268675                0.13452569                0.40633569
              10.01174373                7.00500723               31.04027535                0.01000000               -0.03793974               -0.03078048                0.16968352               -0.04595614                0.06276200                0.46392660
               0.03958928                7.99526042               31.03337548                1.00000000               -0.03266685               -0.03193447                0.10710668               -0.00025502               -0.00082816                0.02111084
               1.03926262                7.99199749               31.03172903                1.00000000               -0.03311197               -0.03305374                0.11028723                0.00012812               -0.00057803                0.00314909
               2.03892704                7.98872728               31.03008581                0.09073057               -0.03532041               -0.03406177                0.11340543                0.00025089                0.00020576               -0.01482334
               3.03855621                7.98545335               31.02845696                0.01083080               -0.28927600               -0.23184435                0.11560094                0.67360014                0.14272501               -0.08607256
               4.03314152                7.99086783               31.02967050                0.01000000               -0.58054720               -0.08425751                0.13189484                1.02310299                0.27172204               -0.01309981
               5.02694526                7.99580946               31.03173274                0.01000001               -0.60949424                0.04241179                0.13938918                0.73957377                0.30943165                0.05957243
               6.02095164                7.99977833               31.03434140                0.01000000               -0.56854286                0.05355503                0.14585900                0.42124402                0.34903422                0.12201601
               7.01557441                8.00166050               31.03761218                0.01000001               -0.47899615                0.01023788                0.16016319                0.08682945                0.40080057                0.18404567
               8.01137172                8.00162587               31.04156931                0.01000002               -0.32520058               -0.07635838                0.17261949               -0.25419141                0.37757706                0.32707649
               9.00907039                8.00157025               31.04470100                0.01035417               -0.15751145               -0.18421691                0.17620289               -0.45162783                0.25056397                0.67705450
              10.00822149                8.00459844               31.04613792                0.01000000               -0.08489063               -0.24863818                0.18711068               -0.30446002                0.16666885                0.65748807
               0.04285592                8.99494428               31.03365261                1.00000000               -0.03199313               -0.03135540                0.10496976               -0.00026330                0.00246486                0.01887923
               1.04253599                8.99167028               31.03192212                0.99999998               -0.03245288               -0.03241999                0.10816054                0.00008660                0.00161953                0.00236158
               2.04220687                8.98838975               31.03017456                0.99999999               -0.03341375               -0.03342635                0.11141629                0.00006343               -0.00431133               -0.01075843
               3.04186772                8.98510248               31.02832909                0.01200774               -0.25493432               -0.03460900                0.11472701                0.43013930                0.13501564               -0.02781259
               4.03710818                8.99038495               31.02937552                0.01000000               -0.66515855                0.10148789                0.13975267                0.72023342                0.28613555               -0.00966641
               5.02856455                8.99712553               31.03202086                0.01000000               -0.80317029                0.19025724                0.14730602                0.49115142                0.36180661                0.04138758
               6.02104477                9.00104754               31.03523554                0.01073474               -0.68254242                0.15557706                0.14926300                0.19150648                0.39654049                0.08340260
               7.01491370                9.00263342               31.03894152                0.01000002               -0.65673087                0.12978366                0.16910280               -0.01931596                0.48764163                0.10154364
               8.00791016                9.00203384               31.04426574                0.01000004               -0.73978489                0.14419205                0.19399862               -0.29339873                0.73656172                0.22654671
               9.00011800                9.00052820               31.05325027                0.99999998               -0.41560036               -0.07808717                0.17260435               -0.52265676                0.45188393                0.42754798
               9.99959815                9.00003447               31.05319188                1.00000000               -0.05198509               -0.25443588                0.17411720               -0.45584623               -0.00030587                0.35221269
               0.04613202                9.99463331               31.03383259                1.00000000               -0.03131459               -0.03109636                0.10282659               -0.00081291                0.01324562                0.01409370
               1.04581888                9.99134909               31.03209091                1.00000000               -0.03179581               -0.03211893                0.10602841               -0.00043964                0.01666237                0.00101841
               2.04549611                9.98805875               31.03041900                0.99999999               -0.03275426               -0.03309958                0.10929852               -0.00047189                0.01661783               -0.00329325
               3.04516379                9.98476117               31.02868152                0.21006498               -0.49864809               -0.03413144                0.11252482                0.57154893                0.11838935               -0.00431128
               4.03552314                9.99289758               31.02905399                0.01000000               -0.95290441                0.25126327                0.13295309                0.58416826                0.24503468                0.01009034
               5.02610570                9.99961460               31.03192519                0.01000000               -0.81246291                0.24890727                0.14203251                0.25372998                0.38085114                0.02854330
               6.01927389               10.00288987               31.03540739                0.01000001               -0.59519592                0.18423306                0.14848252                0.05498938                0.41070679                0.05364661
               7.01420178               10.00425617               31.03911666                0.01149014               -0.58324644                0.16227525                0.17486745                0.00980063                0.55155644                0.04737859
               8.00760896               10.00450971               31.04561200                0.01000002               -0.67925764                0.24758678                0.21228334               -0.24250309                0.73516900                0.14899650
               9.00061663               10.00000851               31.05325386                1.00000000               -0.37584660               -0.05196960                0.17403184               -0.20013639                0.38525016                0.00023839
              10.00009202                9.99950972               31.05319546                1.00000000               -0.05246067               -0.05247507                0.17554508               -0.00049097                0.00028129               -0.00028129
               0.00076821                0.00301526               32.02639696                1.00000000               -0.02444258               -0.02332238                0.07823093                0.00089910               -0.00351303                0.00404564
               1.00052378                0.00149258               32.02657921                1.00000000               -0.02537523               -0.02528985                0.08455367                0.00098313               -0.00378948               -0.00132876
               2.00026070               -0.00003179               32.02675334                0.01000000               -0.01195040               -0.02726156                0.09088177                0.01933440                0.04418290               -0.00163622
               3.00028477               -0.00119084               32.02789715                0.01000003               -0.04114922                0.00283683                0.05424429                0.07148692                0.11226492               -0.00591562
               3.99943772                0.00035888               32.02943583                0.01000000               -0.15739801                0.06588948                0.08792513                0.13685331                0.18610274               -0.01587012
               4.99713681                0.00556946               32.03157436                0.01000001               -0.41573150                0.07880890                0.10231366                0.40313728                0.22373264               -0.01616630
               5.99112309                0.01603834               32.03453768                0.16617744               -0.31575411               -0.02927185                0.09748821                0.44612448                0.12076284               -0.00112523
               6.99082173                0.01760538               32.03554560                1.00000000               -0.03115094               -0.03118630                0.10420508                0.00095653                0.01452300               -0.00439814
               7.99050007                0.01917057               32.03637809                0.99999998               -0.03303896               -0.03305220                0.11007297                0.00091915                0.00764039               -0.00046662
               8.99016095                0.02073399               32.03724445                1.00000000               -0.03478890               -0.03478048                0.11597792                0.00090785                0.00755189                0.00092141
               9.98980429                0.02229713               32.03807341                1.00000000               -0.03566606               -0.03664497                0.12189317                0.00096866                0.00566476                0.00522045
               0.00229987                1.00278203               32.02625381                1.00000000               -0.02427386               -0.02323038                0.07772804               -0.00005040                0.00145882                0.00463339
               1.00205713                1.00123968               32.02643325                0.01000000               -0.02520567               -0.02526626                0.08404798                0.00002947                0.00362151               -0.00335657
               2.00179576                0.99969560               32.02665459                0.01000000               -0.06264121               -0.05806818                0.09037386               -0.01566800                0.05506854                0.04596515
               3.00080431                0.99883752               32.02786652                0.01000001               -0.21848310                0.00382480                0.05881387                0.08005520                0.16593535                0.01777344
               3.99742610                1.00101777               32.02936466                0.01000000               -0.37379272                0.04579131                0.09029206                0.30275237                0.15594894                0.00456822
               4.99332845                1.00635755               32.03117430                0.01000000               -0.39298624                0.02385250                0.09893758                0.61399658                0.16256736               -0.00312194
               5.98956637                1.01574562               32.03370111                0.01000001               -0.20316389               -0.22890006                0.09725099                0.58606661                0.09052646               -0.03644840
               6.98926518                1.01729352               32.03463011                0.99948010               -0.03107079               -0.03112081                0.10395201               -0.00002632                0.00576363               -0.00428233
               7.98894496                1.01884005               32.03545606                0.99959134               -0.03292133               -0.03308221                0.10988818               -0.00000771                0.00113368               -0.00036967
               8.98860675                1.02038618               32.03628991                0.99999999               -0.03470606               -0.03471084                0.11577055                0.00012129                0.00109569                0.00066847
               9.98825083                1.02193068               32.03711480                1.00000000               -0.03559156               -0.03667847                0.12167349                0.00015863                0.00056513                0.00647494
               0.00385190                2.00255065               32.02611778                0.01000001               -0.02410921                0.00083721                0.07723040                0.01179989                0.00197326                0.09926775
               1.00361081                2.00098726               32.02624720                0.01000000               -0.07511982               -0.07928085                0.08354765               -0.02318272                0.05881956                0.08907511
               2.00234950                1.99880685               32.02751333                0.01000001               -0.15235520               -0.10012181                0.08602552                0.05104467                0.09669363                0.07673993
               3.00056370                1.99888565               32.02834586                0.01000000               -0.21883822               -0.04818317                0.09124469                0.25923557                0.07794012                0.04854120
               3.99797274                2.00127470               32.02944256                0.01000000               -0.29374023               -0.03423493                0.09649509                0.55320577                0.09438215                0.02853272
               4.99468890                2.00604651               32.03079921                0.01000001               -0.30321428               -0.10247044                0.10106503                0.78060552                0.08760145                0.00975487
               5.99190845                2.01146034               32.03214967                0.01000000               -0.34810632               -0.31329799                0.10512212                0.84480808                0.08102962               -0.03329240
               6.98772677                2.01698297               32.03371247                0.01000000               -0.22506014               -0.17527644                0.10381873                0.49236895                0.03284321               -0.00291621
               7.98740725                2.01850893               32.03453370                0.24355300               -0.03270120               -0.03384559                0.10931429                0.00119825               -0.00540615               -0.00274498
               8.98707275                2.02003977               32.03533028                0.99999996               -0.03443899               -0.03434411                0.11523625                0.00078973               -0.00384445               -0.00141275
               9.98671847                2.02156356               32.03618357                1.00000000               -0.03542781               -0.03672167                0.12160936                0.00036489               -0.00114783                0.00635230
               0.00566266                3.00279878               32.02786369                0.01000000               -0.03253762                0.02401146                0.08581632                0.02355984                0.00743592                0.19897030
               1.00533728                2.99965407               32.02795179                0.01000001               -0.03721989               -0.16502700                0.08893685                0.09133514                0.01901891                0.15845803
               2.00491826                2.99769316               32.02825360                0.01000000               -0.09080562               -0.16455703                0.09376522                0.30425932                0.04235516                0.07902712
               3.00352117                2.99787386               32.02883702                0.01000000               -0.17944533               -0.14069686                0.09841660                0.54937078                0.06027563                0.05022230
               4.00132935                3.00033307               32.02963089                0.01021427               -0.23831171               -0.13679874                0.10253222                0.76098382                0.06894448                0.03643020
               4.99875493                3.00430814               32.03061253                0.01000000               -0.29016357               -0.18115867                0.10641040                0.93412238                0.07472158                0.03167415
               5.99552608                3.00947966               32.03175950                0.01000001               -0.33454851               -0.22171578                0.10922214                0.95872172                0.06412416                0.04306029
               6.99206396                3.01378799               32.03282117                0.01000001               -0.48069826               -0.26620290                0.11894005                0.99471919                0.03021038                0.03777440
               7.98591211                3.01816314               32.03356326                0.01000001               -0.32480249               -0.18588862               -0.00907926                0.80246257               -0.01000378                0.06994721
               8.98556791                3.01969930               32.03433528                0.01000001               -0.03507804               -0.23266535                0.11445812                0.61715750               -0.00746945                0.07148591
               9.98521055                3.02119625               32.03522630                0.55029312               -0.03573590               -0.51979149                0.12164603                0.70870305               -0.00175037                0.05563543
               0.01061252                4.00303088               32.02961420                0.01000000               -0.00693920               -0.04050753                0.10215008                0.16888895               -0.00386052                0.20721087
               1.01054312                3.99768672               32.02931067                0.01000000               -0.01988113               -0.24558479                0.09863842                0.34467997                0.00278192                0.13451790
               2.01021489                3.99551571               32.02917179                0.01000000               -0.08159598               -0.23598326                0.09925191                0.60166970                0.02543427                0.08088671
               3.00891120                3.99607171               32.02937944                0.01021303               -0.17283814               -0.19477331                0.10320848                0.77570218                0.05282117                0.04764516
               4.00675813                3.99853873               32.02992604                0.01000000               -0.23432230               -0.19833593                0.10722273                0.92860200                0.07532764                0.04183726
               5.00422476                4.00242334               32.03079613                0.01000001               -0.25775467               -0.20758344                0.11113752                1.02942708                0.09152238                0.05752950
               6.00160304                4.00702602               32.03189933                0.01000001               -0.26435427               -0.25290647                0.11490005                1.10176708                0.09483068                0.08234860
               6.99893767                4.01165891               32.03303866                0.01000003               -0.20289251               -0.27703696                0.10888814                1.10937658                0.08137911                0.11633949
               7.99754519                4.01479116               32.03402608                0.01000000               -0.12774427               -0.37114312                0.12755660                1.16537377                0.07035628                0.14395272
               8.99638279                4.01538647               32.03483509                0.01000000                0.01767250               -0.44248255                0.12242779                0.82481939                0.03746155                0.16758845
               9.99789864                4.01116773               32.03528589                0.01000000                0.15158496               -0.71367335                0.13892670                0.62383594                0.02510883                0.11723004
               0.01972876                5.00198863               32.03140671                0.01000001                0.00172901               -0.35829532                0.09739313                0.46935010               -0.01087151                0.24086798
               1.01974605                4.99474237               32.03067779                0.01000000               -0.05810519               -0.25825762                0.10421256                0.72995083               -0.00173640                0.14610000
               2.01856665                4.99297350               32.03006276                0.01000001               -0.18669289               -0.20752792                0.10600319                0.84045285                0.02149886                0.05912179
               3.01601219                4.99397839               32.02990027                0.01000000               -0.25084441               -0.22539438                0.10820108                0.94275665                0.06060468                0.03594970
               4.01354977                4.99636636               32.03032961                0.01000001               -0.25780040               -0.21643556                0.11202422                1.01255051                0.10307838                0.04221780
               5.01085618                5.00015647               32.03126838                0.01000001               -0.26119570               -0.22380008                0.11643213                1.06767524                0.13150180                0.07143264
               6.00832585                5.00442153               32.03252999                0.01000303               -0.21849125               -0.25691808                0.12018851                1.04651166                0.14344986                0.11230939
               7.00648636                5.00824725               32.03392126                0.01000000               -0.14169100               -0.33115680                0.12549624                0.97667684                0.14166622                0.15852831
               8.00549203                5.01074028               32.03524275                0.01000001               -0.03993160               -0.39263811                0.12810148                0.80738316                0.11543114                0.20137956
               9.00568773                5.01084965               32.03617454                0.01000000                0.03163535               -0.40973853                0.13754354                0.54179330                0.06946621                0.23374740
              10.00612474                5.00692278               32.03649543                0.01000000                0.04370137               -0.28342715                0.14613591                0.26403202                0.04470024                0.21745033
               0.03449203                5.99586497               32.03378778                0.40268676               -0.03347589               -0.32190435                0.10850505                0.57132158               -0.00320913                0.13887318
               1.03415727                5.99252157               32.03238073                0.01000001               -0.33520517               -0.12786571                0.11236994                0.66316858               -0.01661933                0.08565224
               2.02778793                5.99136515               32.03069885                0.01000000               -0.48918963               -0.20807756                0.11083706                0.88212291                0.00090881                0.03169684
               3.02437348                5.99156383               32.03031748                0.01000001               -0.34784329               -0.22321873                0.11318868                0.92761689                0.08850281                0.01007072
               4.02083106                5.99421002               32.03075858                0.01000001               -0.34251952               -0.21591956                0.11719610                1.04040755                0.14354348                0.03089069
               5.01752309                5.99794734               32.03188840                0.01000369               -0.31942841               -0.18539820                0.12230313                1.00782664                0.18372495                0.07476022
               6.01444249                6.00188766               32.03349332                0.01000000               -0.26853132               -0.21085847                0.12815852                0.88421501                0.20511296                0.13028104
               7.01215246                6.00503577               32.03535633                0.01000001               -0.16760217               -0.27768532                0.13547081                0.69592448                0.20253721                0.19385708
               8.01109045                6.00693839               32.03711299                0.01000000               -0.05581561               -0.34775437                0.14161521                0.49087956                0.17723866                0.26607400
               9.01103615                6.00719169               32.03849432                0.01064436               -0.00287160               -0.31974480                0.14918909                0.26458771                0.11106334                0.30657886
              10.01103302                6.00549919               32.03888663                0.01000000               -0.00031319               -0.08472071                0.15821043                0.12616790                0.06577561                0.30170857
               0.03784201                6.99555054               32.03424133                0.99999999               -0.03327637               -0.03172481                0.10878089               -0.00057911               -0.00840955                0.03048363
               1.03750924                6.99218506               32.03266974                1.00000000               -0.03375772               -0.03349005                0.11220505               -0.00050358               -0.00884593                0.00886990
               2.03716685                6.98881195               32.03108458                0.01000000               -0.28947902               -0.14491835                0.11578227                0.50452226                0.03761876                0.00125671
               3.03171966                6.98951402               32.03044128                0.01000001               -0.45962222               -0.32473485                0.11916098                0.95193855                0.11221058               -0.05369221
               4.02797441                6.99204796               32.03101843                0.01000003               -0.41922935               -0.15396856                0.12278579                1.00432018                0.19792195                0.01176975
               5.02333507                6.99644851               32.03253343                0.01000000               -0.45263443               -0.09243792                0.12883798                0.90803809                0.24177535                0.07794697
               6.01892172                7.00020436               32.03465653                0.01000001               -0.39904815               -0.09261681                0.13718423                0.65859908                0.27164328                0.13432020
               7.01535411                7.00269354               32.03720747                0.01000000               -0.28840087               -0.15702023                0.14471772                0.36496627                0.29088046                0.21773241
               8.01315370                7.00378519               32.03994602                0.01082321               -0.14677127               -0.24884909                0.16688145                0.10818037                0.23702065                0.32359662
               9.01241869                7.00445476               32.04168606                0.01000002               -0.05602959               -0.26889812                0.16729052               -0.01442326                0.12346600                0.41293131
              10.01203311                7.00522837               32.04198158                0.01025163               -0.03855769               -0.04112713                0.17108581               -0.05292051                0.05333183                0.48178847
               0.04121142                7.99523048               32.03444348                1.00000000               -0.03256199               -0.03173255                0.10643644               -0.00021021               -0.00085788                0.02093153
               1.04088580                7.99185176               32.03283198                0.99999999               -0.03310028               -0.03304415                0.11025239                0.00012310               -0.00060672                0.00315680
               2.04054941                7.98846678               32.03122309                0.09847586               -0.03547818               -0.03426067                0.11400668               -0.00025243                0.00170435               -0.01464580
               3.04017623                7.98506913               32.02965910                0.01000002               -0.32832172               -0.23954203                0.12226247                0.72728506                0.15098200               -0.08409013
               4.03398298                7.99113065               32.03104266                0.01000000               -0.63243889               -0.05527940                0.13394327                1.02653950                0.25277652                0.02270224
               5.02752745                7.99609858               32.03312147                0.01000001               -0.63067674                0.05478955                0.13510374                0.72593334                0.28757097                0.07755083
               6.02136944                8.00003532               32.03578822                0.01000000               -0.58282479                0.05756191                0.14272451                0.41240725                0.33442332                0.12524977
               7.01587096                8.00189537               32.03923790                0.01000002               -0.49382967                0.00874453                0.16905791                0.08575560                0.38501715                0.18441391
               8.01149285                8.00196141               32.04331096                0.01000002               -0.32832252               -0.07358227                0.16775212               -0.25779683                0.37294423                0.34445879
               9.00930451                8.00181373               32.04643761                0.01053079               -0.15327312               -0.19673170                0.17489730               -0.47686430                0.24695571                0.68272709
              10.00842739                8.00467665               32.04804984                0.01000000               -0.08771233               -0.26038542                0.19309599               -0.33307042                0.17234674                0.65438952
               0.04459523                8.99491589               32.03470056                1.00000000               -0.03198299               -0.03124338                0.10460914               -0.00021454                0.00248277                0.01898282
               1.04427540                8.99152417               32.03300515                0.99999998               -0.03253948               -0.03250670                0.10844462                0.00008203                0.00167430                0.00245443
               2.04394444                8.98812673               32.03129332                0.99999999               -0.03369482               -0.03371785                0.11234552                0.00003932               -0.00419927               -0.01059847
               3.04360150                8.98472318               32.02948414                0.01000000               -0.32343445               -0.03462593                0.11631248                0.48268470                0.15168606               -0.02914640
               4.03747575                8.99094238               32.03089783                0.01000000               -0.73262174                0.13209201                0.14466375                0.72107903                0.22367548                0.04808668
               5.02894907                8.99754430               32.03349199                0.01000000               -0.80513363                0.19569407                0.14001298                0.46742474                0.31823489                0.05422444
               6.02137308                9.00135560               32.03671075                0.01072135               -0.69029660                0.16126430                0.14711598                0.17842654                0.37341649                0.08426773
               7.01514313                9.00286844               32.04064415                0.01000002               -0.66468379                0.13170797                0.16930030               -0.02125540                0.46800648                0.09642726
               8.00807940                9.00231354               32.04633380                0.01000000               -0.74884831                0.13013561                0.23221814               -0.29832277                0.67811237                0.24264180
               9.00016617                9.00052012               32.05497737                0.99999998               -0.42167633               -0.09067849                0.17281945               -0.54637825                0.43411539                0.42642983
               9.99964587                9.00002066               32.05493333                1.00000000               -0.05202942               -0.25902395                0.17417213               -0.46403236               -0.00031101                0.34303633
               0.04799056                9.99460561               32.03486045                1.00000000               -0.03139618               -0.03102804                0.10277961               -0.00086496                0.01331352                0.01418644
               1.04767659                9.99120163               32.03315398                1.00000000               -0.03196822               -0.03225440                0.10662305               -0.00053936                0.01674464                0.00109426
               2.04735119                9.98779243               32.03151794                0.99999999               -0.03311557               -0.03343049                0.11053054               -0.00057548                0.01670094               -0.00322227
               3.04701428                9.98437661               32.02981592                0.24086512               -0.58838783               -0.03465680                0.11440324                0.64028124                0.13927707               -0.00434249
               4.03558344                9.99377249               32.03064071                0.01000000               -1.02757780                0.28301112                0.14309544                0.59256117                0.16461124                0.07728196
               5.02646273               10.00001246               32.03333233                0.01000003               -0.79847986                0.24681595                0.13868983                0.22577222                0.33857593                0.02592086
               6.01961384               10.00326061               32.03688245                0.01000001               -0.59874109                0.19050103                0.14818515                0.04992955                0.39483957                0.05574639
               7.01448790               10.00452953               32.04087902                0.01169943               -0.58695658                0.16610915                0.17250116               -0.00034703                0.54812431                0.05031466
               8.00787471               10.00456413               32.04795411                0.01000002               -0.69090377                0.22505807                0.27745633               -0.24693755                0.65589928                0.15015535
               9.00066983               10.00000016               32.05499390                1.00000000               -0.38645213               -0.05199588                0.17398002               -0.20303166                0.35443052                0.00023890
              10.00014566                9.99949617               32.05494987                1.00000000               -0.05241660               -0.05244913                0.17533094               -0.00042046                0.00028446               -0.00028291
               0.00051920                0.00320137               33.02717503                1.00000000               -0.02430982               -0.02308822                0.07738229                0.00105902               -0.00351404                0.00404475
               1.00027610                0.00162776               33.02742460                1.00000000               -0.02536263               -0.02531168                0.08452296                0.00111305               -0.00378759               -0.00132980
               2.00001194                0.00005312               33.02766604                0.01626889               -0.01838108               -0.02753500                0.09166250                0.01526384                0.01694877               -0.00163664
               2.99990848               -0.00123946               33.02833249                0.01084144               -0.02982249                0.00818632                0.02368349                0.11266309                0.10204324               -0.00321728
               3.99941549                0.00030954               33.03032827                0.01000000               -0.15710895                0.07332633                0.10094514                0.13775467                0.18856229               -0.00100328
               4.99676630                0.00582980               33.03264238                0.01000000               -0.45500410                0.09008891                0.10771431                0.42542124                0.20938641               -0.01435549
               5.99031541                0.01686518               33.03550474                0.15729286               -0.33745960               -0.02885756                0.09601176                0.47231168                0.11314716               -0.00108983
               6.99001711                0.01847850               33.03658347                1.00000000               -0.03089477               -0.03094860                0.10332647                0.00111588                0.01498554               -0.00440809
               7.98969752                0.02008922               33.03747635                0.99999998               -0.03288940               -0.03286913                0.10956840                0.00097178                0.00762223               -0.00039466
               8.98935932                0.02169914               33.03840357                1.00000000               -0.03474664               -0.03472955                0.11582873                0.00095067                0.00757946                0.00099025
               9.98900258                0.02330970               33.03929359                1.00000000               -0.03567340               -0.03672604                0.12208982                0.00096661                0.00572003                0.00528224
               0.00210339                1.00297049               33.02702785                1.00000000               -0.02420414               -0.02302388                0.07708047               -0.00001389                0.00145807                0.00463550
               1.00186135                1.00137465               33.02727461                0.01000000               -0.02526000               -0.02532557                0.08422122                0.00004023                0.00362308               -0.00335570
               2.00159819                0.99977777               33.02756327                0.01000000               -0.04772266               -0.06317962                0.09136173               -0.01654083                0.03091101                0.04293550
               3.00090690                0.99884240               33.02835932                0.01000001               -0.21698919                0.00671034                0.04300126                0.08481709                0.11544654                0.04510378
               3.99725841                1.00104280               33.03029511                0.01000000               -0.40821054                0.05481597                0.10221926                0.30433458                0.15163649                0.00915512
               4.99274269                1.00673069               33.03221096                0.01000000               -0.42721163                0.03003148                0.10395346                0.64574666                0.14997099               -0.00372346
               5.98871418                1.01657660               33.03466687                0.01000001               -0.21632229               -0.23825006                0.09603304                0.61737315                0.08442241               -0.03183770
               6.98841624                1.01816901               33.03566645                0.99859051               -0.03086333               -0.03095778                0.10335443                0.00006968                0.00630510               -0.00421110
               7.98809691                1.01976053               33.03655387                0.99999997               -0.03288296               -0.03286279                0.10959872                0.00001140                0.00114591               -0.00045643
               8.98775858                1.02135185               33.03744837                0.99999999               -0.03476090               -0.03469790                0.11585581                0.00001332                0.00104686                0.00057443
               9.98740169                1.02294244               33.03833373                1.00000000               -0.03568906               -0.03677475                0.12212066                0.00000536                0.00049673                0.00666374
               0.00371060                2.00274090               33.02688781                0.01000001               -0.02409841                0.00367336                0.07677856                0.01388101                0.00197303                0.10314297
               1.00346962                2.00112125               33.02708454                0.01000000               -0.07486159               -0.08397930                0.08391907               -0.02531429                0.05579119                0.09134374
               2.00221337                1.99878953               33.02835743                0.01000001               -0.15649147               -0.10636023                0.08684879                0.05270411                0.08777851                0.08324752
               3.00033979                1.99889475               33.02925333                0.01000000               -0.22997361               -0.04955864                0.09604230                0.25550230                0.07007862                0.07048331
               3.99761390                2.00140586               33.03041539                0.01000000               -0.30961810               -0.02966386                0.09646144                0.56870815                0.08269685                0.02897475
               4.99414743                2.00643043               33.03182740                0.01000001               -0.31946753               -0.10572103                0.10330243                0.81786993                0.07855757                0.01012034
               5.99122455                2.01210018               33.03320669                0.01000000               -0.36564275               -0.32717425                0.10524351                0.88787384                0.07348322               -0.02731649
               6.98683457                2.01785934               33.03474858                0.01000000               -0.23548204               -0.18649245                0.10338537                0.52552001                0.02865535                0.00496015
               7.98651491                2.01943196               33.03562695                0.10692938               -0.03284500               -0.01764118                0.10962299               -0.01031297               -0.00558618               -0.06262626
               8.98617767                2.02100518               33.03648417                0.99999996               -0.03466999               -0.03458411                0.11581659                0.00026529               -0.00382027               -0.00190890
               9.98582151                2.02257420               33.03740302                1.00000000               -0.03561645               -0.03685350                0.12218974                0.00006352               -0.00096304                0.00680125
               0.00562030                3.00304396               33.02870720                0.01000000               -0.03138671                0.03171452                0.08324868                0.02428294                0.00426925                0.21177750
               1.00530643                2.99969506               33.02883045                0.01000001               -0.03707574               -0.17445863                0.08909416                0.09682530                0.01741350                0.16412090
               2.00487878                2.99765057               33.02918735                0.01000000               -0.09529057               -0.16847646                0.09400498                0.31796464                0.04290534                0.08571307
               3.00340062                2.99785123               33.02982082                0.01000000               -0.18909461               -0.14394325                0.09692146                0.57491243                0.05876463                0.05664487
               4.00109689                3.00044952               33.03065658                0.01021566               -0.24974263               -0.14018732                0.10259834                0.79635374                0.06623987                0.03971507
               4.99840577                3.00461627               33.03167792                0.01000000               -0.30270759               -0.18836345                0.10622235                0.97808433                0.07099432                0.03383992
               5.99504274                3.01003312               33.03285341                0.01000001               -0.34054553               -0.23293993                0.10954714                1.00063541                0.06531646                0.04588630
               6.99159486                3.01443916               33.03401236                0.01000001               -0.51489649               -0.27988657                0.10843281                1.05776379               -0.02144847                0.03842986
               7.98474481                3.01940770               33.03345869                0.01000001               -0.34866035               -0.20180725                0.09326042                0.84613115               -0.01997607                0.07401801
               8.98462165                3.02066017               33.03548113                0.01000000               -0.02399419               -0.24603732                0.11567757                0.63018738                0.05176683                0.07528352
               9.98426493                3.02220537               33.03644773                0.57318653               -0.03567238               -0.54294910                0.12227888                0.74372593               -0.00116597                0.06444551
               0.01089406                4.00337519               33.03067224                0.01079912               -0.00945401               -0.03160811                0.09956973                0.15846917               -0.00876057                0.21605287
               1.01079951                3.99763208               33.03029561                0.01000000               -0.02387789               -0.25002667                0.09799715                0.35503058                0.00211419                0.12904683
               2.01041650                3.99542000               33.03015568                0.01000000               -0.08802154               -0.24263190                0.09807940                0.63251478                0.02440014                0.08882640
               3.00903908                3.99601588               33.03040683                0.01021393               -0.18202799               -0.19914704                0.10266318                0.81204559                0.05260775                0.05287448
               4.00677594                3.99860211               33.03099691                0.01000000               -0.24567816               -0.20407680                0.10693922                0.97096575                0.07431997                0.04600896
               5.00412552                4.00266316               33.03190755                0.01000001               -0.26807883               -0.21506537                0.11119034                1.07371305                0.08979922                0.06092770
               6.00141436                4.00744138               33.03304873                0.01000001               -0.27551294               -0.26490746                0.11440869                1.14738015                0.08854474                0.08510872
               6.99861526                4.01226161               33.03412836                0.01000003               -0.20989157               -0.28893715                0.11482259                1.14275635                0.08001572                0.11544694
               7.99721653                4.01539582               33.03532098                0.01000000               -0.13157526               -0.40936987                0.11940409                1.22711879                0.05660400                0.21119248
               8.99598376                4.01608444               33.03606952                0.01000000                0.01945460               -0.46614301                0.12615169                0.86965267                0.02110959                0.17418716
               9.99760562                4.01171522               33.03667243                0.01000000                0.16218645               -0.74691176                0.13692205                0.65888023                0.02502522                0.12967990
               0.02027589                5.00241180               33.03235145                0.01000001                0.00863349               -0.37649464                0.09173583                0.47595169               -0.01406986                0.25829899
               1.02036223                4.99469453               33.03170905                0.01000000               -0.05653067               -0.26205408                0.09916424                0.75515317               -0.00277733                0.15414439
               2.01914528                4.99279793               33.03111829                0.01000001               -0.19514021               -0.21217890                0.10507994                0.87820012                0.01840444                0.06536349
               3.01645942                4.99386829               33.03098082                0.01000000               -0.26381752               -0.23109545                0.10800118                0.98665772                0.05892258                0.04147552
               4.01386893                4.99636799               33.03144858                0.01000001               -0.27093312               -0.22157083                0.11215534                1.05604037                0.10200466                0.04645184
               5.01104076                5.00031496               33.03243234                0.01000001               -0.27385192               -0.23055844                0.11676686                1.10975518                0.12979523                0.07521232
               6.00839189                5.00473497               33.03373198                0.01000003               -0.22726086               -0.26644428                0.12100864                1.08226349                0.14078720                0.11644037
               7.00649554                5.00866042               33.03517795                0.01000000               -0.14637658               -0.34754382                0.12569639                1.00895557                0.13619902                0.16974778
               8.00546436                5.01122031               33.03652837                0.01000001               -0.04001216               -0.40903687                0.13087851                0.83521857                0.11178443                0.20831955
               9.00569530                5.01133731               33.03756051                0.01000000                0.03583028               -0.42996111                0.13851582                0.56405264                0.06742066                0.24422013
              10.00618096                5.00726713               33.03796507                0.01011921                0.04856641               -0.29765751                0.14674483                0.27574635                0.04126581                0.22296274
               0.03584762                5.99584529               33.03486471                0.37260295               -0.03311805               -0.34374291                0.10679858                0.60628316               -0.00321677                0.14732652
               1.03551644                5.99239100               33.03349938                0.01000001               -0.35204422               -0.13185122                0.11127487                0.69745092               -0.01921411                0.09165255
               2.02880674                5.99117642               33.03180686                0.01000000               -0.51571309               -0.21130226                0.11056941                0.92481173               -0.00323326                0.03758537
               3.02520218                5.99139397               33.03144770                0.01000001               -0.36783324               -0.22721899                0.11320363                0.96907381                0.08632078                0.01591490
               4.02145007                5.99417069               33.03193044                0.01000001               -0.36242688               -0.21732844                0.11753906                1.08288092                0.14275303                0.03437249
               5.01795364                5.99805199               33.03310930                0.01000003               -0.33679523               -0.18558944                0.12281264                1.03910069                0.18263277                0.07770137
               6.01471417                6.00211249               33.03477356                0.01000000               -0.28223044               -0.21835157                0.12892378                0.90483033                0.20446897                0.13531765
               7.01230904                6.00531073               33.03671093                0.01000001               -0.17350770               -0.28793435                0.13607420                0.70799093                0.20142576                0.20028879
               8.01124402                6.00721508               33.03853947                0.01000000               -0.05455255               -0.36926663                0.14360948                0.49378428                0.17626790                0.28143521
               9.01121798                6.00748522               33.04000011                0.01063864                0.00084385               -0.34047146                0.15132349                0.27042881                0.11107650                0.31758395
              10.01126089                6.00576207               33.04047309                0.01000001                0.00429088               -0.08936705                0.15780872                0.12960343                0.06637607                0.31107609
               0.03931014                6.99553694               33.03532357                0.99999999               -0.03300288               -0.03127357                0.10757310               -0.00056761               -0.00884771                0.03135137
               1.03898011                6.99205750               33.03378950                1.00000000               -0.03358016               -0.03328954                0.11164481               -0.00053081               -0.00915071                0.00970990
               2.03863854                6.98857189               33.03224334                0.01000000               -0.30667429               -0.14753958                0.11585399                0.52968387                0.03845309                0.00469704
               3.03284663                6.98932391               33.03165900                0.01000001               -0.48850059               -0.33326428                0.11961660                1.00018129                0.11162187               -0.04677904
               4.02886853                6.99202142               33.03224084                0.01000003               -0.44828268               -0.13641115                0.12343047                1.02819354                0.19506955                0.01426593
               5.02388098                6.99660317               33.03381115                0.01000000               -0.48193886               -0.08250397                0.12839820                0.91719959                0.24361183                0.07720009
               6.01922975                7.00036794               33.03602649                0.01000001               -0.41641011               -0.09416936                0.13813785                0.65540332                0.27065798                0.13388362
               7.01555277                7.00290173               33.03865030                0.01000000               -0.30320945               -0.16993226                0.14655451                0.34550079                0.29723281                0.22976808
               8.01316556                7.00383497               33.04159493                0.01081124               -0.14979436               -0.25439076                0.16123586                0.10065115                0.23935252                0.32983747
               9.01255689                7.00452788               33.04333477                0.01000002               -0.04731201               -0.27758677                0.16336568               -0.01512685                0.11827835                0.42105859
              10.01221932                7.00547979               33.04369707                0.01091525               -0.03375635               -0.05138009                0.17050018               -0.04565509                0.05206188                0.49843130
               0.04279514                7.99521982               33.03550421                1.00000000               -0.03242599               -0.03149839                0.10565560               -0.00014879               -0.00088734                0.02075267
               1.04247088                7.99172521               33.03393408                0.99999999               -0.03305636               -0.03300693                0.11011412                0.00012090               -0.00062718                0.00317464
               2.04213401                7.98822563               33.03236594                0.10380799               -0.03573024               -0.03444800                0.11453014                0.00044135                0.00466020               -0.01443271
               3.04175627                7.98472869               33.03090221                0.01000001               -0.36996639               -0.24805905                0.14442650                0.78335683                0.15319500               -0.08437531
               4.03473468                7.99144247               33.03234936                0.01000000               -0.69025782               -0.01363909                0.12855618                1.01892683                0.26610795                0.01375201
               5.02795112                7.99640191               33.03443481                0.01000001               -0.66055052                0.06979952                0.13169780                0.70109888                0.29271393                0.07327848
               6.02152367                8.00022911               33.03719589                0.01000000               -0.60995521                0.06353683                0.14465429                0.38206857                0.34101274                0.12338058
               7.01575201                8.00191209               33.04099334                0.01083332               -0.49463887                0.00095542                0.17655666                0.04980850                0.36336105                0.17474416
               8.01163090                8.00212727               33.04492435                0.01000002               -0.32406919               -0.07957217                0.16207135               -0.30024912                0.37071670                0.37231081
               9.00927063                8.00193348               33.04819895                0.01073286               -0.15934685               -0.20136882                0.17971244               -0.48744556                0.24428997                0.67796360
              10.00844396                8.00473447               33.04999984                0.01000000               -0.08266704               -0.27423141                0.19218385               -0.34686769                0.17816065                0.65321778
               0.04629640                8.99490697               33.03574479                1.00000000               -0.03196728               -0.03112768                0.10423256               -0.00015560                0.00249848                0.01906791
               1.04597672                8.99139737               33.03409101                0.99999998               -0.03262529               -0.03259422                0.10871937                0.00006769                0.00173487                0.00254905
               2.04564389                8.98788293               33.03242147                0.99999997               -0.03398976               -0.03402859                0.11331005               -0.00002364               -0.00406020               -0.01042293
               3.04529693                8.98436273               33.03065534                0.01000002               -0.40350240               -0.03589647                0.11801091                0.54680013                0.15966254               -0.03187717
               4.03757384                8.99174864               33.03226879                0.01000000               -0.80903043                0.17574968                0.13756701                0.71003567                0.27331290                0.02209193
               5.02911632                8.99799916               33.03482112                0.01000000               -0.81064487                0.20252184                0.13322720                0.42872007                0.32923346                0.05240053
               6.02136094                9.00163867               33.03817786                0.01071366               -0.72327679                0.17161539                0.15172049                0.15109961                0.37317254                0.08652141
               7.01465078                9.00292084               33.04232753                0.01000002               -0.71108773                0.14403157                0.17856761               -0.05272739                0.46898199                0.07542152
               8.00713919                9.00224353               33.04891010                0.01407355               -0.72250058                0.10724655                0.24815828               -0.37195898                0.59571285                0.28817925
               9.00020077                9.00050050               33.05670666                0.99999998               -0.37295990               -0.09766387                0.17304312               -0.54047596                0.39112195                0.42431092
               9.99967999                8.99999516               33.05667533                1.00000000               -0.05207799               -0.26317421                0.17422210               -0.46344255               -0.00031393                0.33212214
               0.04981124                9.99459727               33.03588818                1.00000000               -0.03149589               -0.03097016                0.10281244               -0.00091039                0.01334983                0.01425681
               1.04949628                9.99107332               33.03422338                1.00000000               -0.03215297               -0.03240416                0.10729482               -0.00065494                0.01678679                0.00116590
               2.04916818                9.98754506               33.03262962                0.99999999               -0.03348558               -0.03378651                0.11182245               -0.00069964                0.01674332               -0.00315256
               3.04882657                9.98401076               33.03096959                0.28067074               -0.69346059               -0.03519710                0.11633072                0.72358401                0.14328469               -0.00438499
               4.03529896                9.99495746               33.03191590                0.01000000               -1.10955413                0.32088275                0.14085389                0.59459183                0.22685587                0.04123929
               5.02663548               10.00045235               33.03469899                0.01001434               -0.78374897                0.24531865                0.13766552                0.18711384                0.35342021                0.03503059
               6.01962398               10.00366141               33.03837109                0.01000001               -0.62714372                0.20227398                0.15451276                0.04332280                0.39406733                0.05988904
               7.01409261               10.00479272               33.04256668                0.01193045               -0.65059633                0.18718798                0.18034619               -0.02527826                0.59036386                0.05421091
               8.00661206               10.00427220               33.05116113                0.01000002               -0.66915654                0.20286661                0.27742062               -0.29333897                0.54942320                0.17197646
               9.00070948                9.99998020               33.05673346                1.00000000               -0.32131392               -0.05202960                0.17393004               -0.18918994                0.28042630                0.00024530
              10.00018578                9.99947099               33.05670208                1.00000000               -0.05236976               -0.05241782                0.17510871               -0.00034294                0.00028271               -0.00028884
               0.00019879                0.00339052               34.02794461                1.00000000               -0.02417736               -0.02285449                0.07653169                0.00121716               -0.00351331                0.00404539
               0.99995702                0.00176596               34.02826967                1.00000000               -0.02535021               -0.02533309                0.08449133                0.00124191               -0.00378798               -0.00132965
               1.99969179                0.00014103               34.02858659                0.01000001               -0.01468077               -0.02781089                0.09245022                0.01000723               -0.03093781               -0.00163614
               2.99966340               -0.00130885               34.02837082                0.01174658               -0.03963583                0.01276114                0.09311768                0.08500513                0.06958030                0.04880490
               3.99889907                0.00040515               34.03145473                0.01000000               -0.17576639                0.07086169                0.09550449                0.14351298                0.17281858                0.01635926
               4.99614808                0.00614518               34.03372865                0.01000000               -0.47270661                0.09528732                0.10469101                0.44516123                0.17416885               -0.01278784
               5.98944494                0.01769229               34.03645791                0.14808986               -0.34991222               -0.02853732                0.09468372                0.49574237                0.10382164               -0.00108039
               6.98914983                0.01935125               34.03761213                0.99938361               -0.03062655               -0.03070644                0.10243221                0.00121251                0.01555218               -0.00440912
               7.98883241                0.02100764               34.03856945                1.00000000               -0.03272685               -0.03273183                0.10903212                0.00100189                0.00763586               -0.00047441
               8.98849529                0.02266419               34.03956103                1.00000000               -0.03468813               -0.03471206                0.11564654                0.00099594                0.00759217                0.00093895
               9.98813865                0.02432250               34.04051521                1.00000000               -0.03566482               -0.03679788                0.12224812                0.00097139                0.00573168                0.00531668
               0.00183552                1.00316197               34.02779542                0.99999999               -0.02413356               -0.02281748                0.07643162                0.00002157                0.00145875                0.00463568
               1.00159418                1.00151263               34.02811768                0.01000000               -0.02531229               -0.02538357                0.08439150                0.00004709                0.00362384               -0.00335571
               2.00132927                0.99986292               34.02848182                0.01000000               -0.06063910               -0.06466563                0.09235103               -0.02246934               -0.00042837                0.04174988
               3.00038140                0.99881876               34.02872655                0.01000001               -0.23610434                0.00713378                0.10496020                0.07473746                0.00881224                0.10027640
               3.99660718                1.00111376               34.03140905                0.01000000               -0.42126406                0.05437926                0.09914608                0.32164135                0.13065226                0.00476397
               4.99195612                1.00709806               34.03325337                0.01000000               -0.44039268                0.03183918                0.10169914                0.68069112                0.12301489               -0.00750010
               5.98779933                1.01740691               34.03562177                0.01000001               -0.22259193               -0.24824107                0.09502861                0.64790656                0.07739044               -0.02735457
               6.98750428                1.01904419               34.03669720                0.99774675               -0.03066870               -0.03074938                0.10276731                0.00016007                0.00680804               -0.00428066
               7.98718596                1.02068033               34.03764804                1.00000000               -0.03282271               -0.03280306                0.10933661                0.00002062                0.00109928               -0.00038872
               8.98684782                1.02231707               34.03860703                0.99999999               -0.03479519               -0.03476816                0.11594893               -0.00004170                0.00108904                0.00061514
               9.98649005                1.02395452               34.03955722                1.00000000               -0.03577724               -0.03684575                0.12256792               -0.00011241                0.00056208                0.00663667
               0.00349790                2.00293417               34.02765336                0.01007279               -0.02408903                0.00439609                0.07633141                0.01571345                0.00197314                0.10604003
               1.00325701                2.00125829               34.02792558                0.01000000               -0.07808106               -0.08936100                0.08429072               -0.02376149                0.05460671                0.09455389
               2.00193628                1.99884772               34.02925030                0.01000001               -0.16748476               -0.11268766                0.10036510                0.05161288                0.07255735                0.09088996
               2.99990731                1.99883382               34.03026671                0.01000000               -0.24418390               -0.04827512                0.08970337                0.27454220                0.07145465                0.10490621
               3.99705260                2.00149273               34.03137178                0.01000000               -0.32192836               -0.02839522                0.09791712                0.60690056                0.07037764                0.01934106
               4.99346875                2.00678197               34.03286525                0.01000001               -0.32978295               -0.10966295                0.10187840                0.86283041                0.07130319                0.00847300
               5.99045694                2.01272747               34.03425454                0.01000000               -0.37945623               -0.34257839                0.10395391                0.93264663                0.06425730               -0.02196219
               6.98587962                2.01873626               34.03578018                0.01000000               -0.24485038               -0.19336888                0.10304817                0.55747748                0.02471725                0.00210167
               7.98555993                2.02035158               34.03672616                0.10525940               -0.03296800               -0.03654288                0.10985954                0.00452156               -0.00552111               -0.01918614
               8.98522026                2.02196883               34.03764661                0.99999996               -0.03492177               -0.03487279                0.11640827                0.00001951               -0.00393035               -0.00170327
               9.98486150                2.02358559               34.03862736                1.00000000               -0.03587640               -0.03693859                0.12279986               -0.00012467               -0.00112148                0.00664430
               0.00550153                3.00324989               34.02952867                0.01000005               -0.02961342                0.03867613                0.08326104                0.03218583                0.00774240                0.21795104
               1.00520540                2.99972541               34.02973368                0.01000001               -0.03577662               -0.19346159                0.09230113                0.11021194                0.01865760                0.17388290
               2.00478600                2.99760917               34.03013370                0.01000000               -0.09890832               -0.17432132                0.09185389                0.33916178                0.04447457                0.09521250
               3.00322723                2.99785325               34.03077545                0.01000000               -0.19944748               -0.14323115                0.09751464                0.60757556                0.05854085                0.06163066
               4.00079705                3.00054586               34.03168285                0.01021671               -0.26246205               -0.14129136                0.10157777                0.83713794                0.06729030                0.04628668
               4.99797799                3.00490480               34.03273697                0.01000000               -0.31495417               -0.19472485                0.10617283                1.02548314                0.06749693                0.03631527
               5.99449797                3.01055535               34.03395044                0.01000001               -0.34741391               -0.24389231                0.10846409                1.04840969                0.05331134                0.04897585
               6.99102971                3.01517681               34.03498982                0.01000001               -0.52270739               -0.29670044                0.10585009                1.08901193                0.00326837                0.04909439
               7.98404382                3.01994947               34.03542847                0.01000001               -0.37077512               -0.22031309                0.17291557                0.88094889               -0.00901191                0.06048695
               8.98361421                3.02161962               34.03664883                0.01000000               -0.03948863               -0.25889984                0.11695498                0.67497749                0.00839992                0.08153122
               9.98325405                3.02321575               34.03767188                0.59470658               -0.03601636               -0.56707991                0.12297441                0.77620498               -0.00171482                0.07058370
               0.01119057                4.00370769               34.03160559                0.01163095               -0.00886037               -0.01438759                0.08204667                0.12966878               -0.01644507                0.20735913
               1.01110197                3.99738906               34.03127062                0.01000000               -0.02994510               -0.25519631                0.09498210                0.36859304               -0.00370329                0.13743810
               2.01059167                3.99536129               34.03113338                0.01000000               -0.09899170               -0.24897890                0.09817184                0.67285523                0.02209367                0.09701460
               3.00912214                3.99596920               34.03143270                0.01021469               -0.19239278               -0.20431086                0.10241893                0.84693668                0.05315942                0.06184224
               4.00674382                3.99866690               34.03206483                0.01000000               -0.25766080               -0.20919992                0.10746123                1.01297821                0.07395965                0.05197429
               5.00396892                4.00288747               34.03301994                0.01000001               -0.27953466               -0.22229153                0.11163266                1.11867075                0.08762609                0.06623252
               6.00115312                4.00784962               34.03418750                0.01000001               -0.28515907               -0.27649224                0.11488103                1.19064018                0.08508596                0.09106120
               6.99826574                4.01280225               34.03533512                0.01000003               -0.22085111               -0.30585872                0.12127717                1.17399676                0.07003584                0.12881959
               7.99673610                4.01594532               34.03641417                0.01000000               -0.14061059               -0.41306441                0.11742849                1.26449637                0.05100672                0.18703213
               8.99545353                4.01679083               34.03735813                0.01000000                0.02286140               -0.49080759                0.13071739                0.91419523                0.02615273                0.18669300
               9.99719333                4.01224399               34.03802433                0.01000000                0.17398021               -0.78171860                0.13479932                0.68965998                0.02298948                0.14033797
               0.02073216                5.00296214               34.03324143                0.01016580                0.01914913               -0.39341540                0.09425679                0.46432370               -0.00229628                0.24220520
               1.02092365                4.99462149               34.03266108                0.01000000               -0.05345983               -0.25574472                0.09575686                0.76981625                0.00238266                0.15468696
               2.01966297                4.99262959               34.03216436                0.01000001               -0.20316499               -0.21847381                0.10402072                0.91644104                0.02045434                0.07450850
               3.01686035                4.99376704               34.03206030                0.01000000               -0.27623116               -0.23826232                0.10835127                1.02932228                0.05847768                0.04769365
               4.01413834                4.99636186               34.03257272                0.01000001               -0.28458328               -0.22808467                0.11332053                1.09863175                0.10193436                0.05214211
               5.01116869                5.00045897               34.03360372                0.01000001               -0.28711789               -0.23824585                0.11819846                1.15136704                0.12901348                0.08075717
               6.00839598                5.00502550               34.03495016                0.01000003               -0.23773711               -0.27750596                0.12294159                1.11888950                0.13886632                0.12359680
               7.00641395                5.00905963               34.03643518                0.01000000               -0.15254099               -0.36165259                0.12706289                1.04060073                0.13399932                0.17821191
               8.00534517                5.01168818               34.03786032                0.01000001               -0.04072506               -0.42223867                0.13288812                0.86671794                0.11028560                0.22636301
               9.00559944                5.01180347               34.03894485                0.01000000                0.03978848               -0.45108601                0.13903806                0.58818674                0.06631994                0.25549059
              10.00614093                5.00758138               34.03943033                0.01000001                0.05414899               -0.31276408                0.14619565                0.28885449                0.04208708                0.23158090
               0.03715836                5.99583938               34.03592375                0.34254685               -0.03275108               -0.37120364                0.10496892                0.64353039               -0.00322230                0.15741519
               1.03683084                5.99227417               34.03460623                0.01000001               -0.36917062               -0.13384647                0.11003107                0.73176215               -0.02177578                0.10083061
               2.02977494                5.99099182               34.03291024                0.01000000               -0.54272650               -0.21413945                0.11053765                0.96666161               -0.00723181                0.04372571
               3.02597631                5.99120395               34.03258155                0.01000001               -0.38752101               -0.23215527                0.11490489                1.01038171                0.08560033                0.02000938
               4.02202452                5.99410521               34.03310936                0.01000001               -0.38218478               -0.22237489                0.11916198                1.12519496                0.14395250                0.03834256
               5.01833262                5.99812255               34.03434466                0.01000003               -0.35471385               -0.18959806                0.12504115                1.07236306                0.18473060                0.08159359
               6.01493025                6.00229950               34.03607179                0.01000000               -0.29587715               -0.22828988                0.13125531                0.92731991                0.20658265                0.14205496
               7.01241508                6.00556920               34.03807781                0.01000001               -0.18018090               -0.30265664                0.13762697                0.72587179                0.20478808                0.21110646
               8.01132663                6.00750055               34.03998518                0.01000000               -0.05455073               -0.38455603                0.14471699                0.50555145                0.17854623                0.29473190
               9.01132406                6.00776911               34.04152079                0.01063899                0.00439818               -0.35631865                0.15183610                0.27854122                0.11203390                0.32848171
              10.01141459                6.00598871               34.04204280                0.01000001                0.00905301               -0.09555694                0.15666360                0.13239961                0.06580242                0.31928441
               0.04073320                6.99553807               34.03639279                0.99999999               -0.03267382               -0.03075363                0.10618112               -0.00057207               -0.00927026                0.03223417
               1.04040646                6.99194456               34.03490263                0.99999999               -0.03333933               -0.03302117                0.11088579               -0.00052931               -0.00945634                0.01058189
               2.04006641                6.98834680               34.03340166                0.01000000               -0.32259330               -0.14959076                0.11567066                0.55394582                0.03682560                0.00812270
               3.03395459                6.98912393               34.03283362                0.01000001               -0.51713854               -0.34093333                0.11642337                1.04239798                0.11261794               -0.02951612
               4.02972364                6.99191436               34.03348704                0.01000095               -0.47664680               -0.13637357                0.12676515                1.06455432                0.20036672                0.01193064
               5.02442166                6.99666700               34.03510139                0.01000000               -0.51139540               -0.07841828                0.13127997                0.93739618                0.25263473                0.07531463
               6.01949573                7.00045970               34.03741929                0.01000001               -0.43456617               -0.09739643                0.14093882                0.65202100                0.28121665                0.14100145
               7.01573034                7.00300650               34.04013856                0.01000000               -0.31197258               -0.19280917                0.14994870                0.32660026                0.30424065                0.24628801
               8.01325628                7.00399706               34.04317074                0.01080460               -0.15241134               -0.27040477                0.15749942                0.10227686                0.25051732                0.34245388
               9.01268211                7.00467709               34.04495337                0.01000002               -0.04532711               -0.28839998                0.16280628               -0.02680305                0.12269573                0.43865502
              10.01234974                7.00567024               34.04539158                0.01162969               -0.03323688               -0.06129802                0.16880067               -0.05197407                0.05760673                0.50913865
               0.04433393                7.99522431               34.03655660                1.00000000               -0.03224107               -0.03123946                0.10479253               -0.00007849               -0.00090674                0.02056619
               1.04401152                7.99161374               34.03503426                0.99999999               -0.03297245               -0.03293479                0.10984297                0.00013268               -0.00063581                0.00320862
               2.04367448                7.98800000               34.03351369                0.12380304               -0.03774042               -0.03461006                0.11498030                0.00020195                0.02719248               -0.01417979
               3.04325671                7.98438529               34.03254763                0.01000001               -0.39509746               -0.25528354                0.16794701                0.81852847                0.16505583               -0.09976860
               4.03577254                7.99137774               34.03361378                0.01000000               -0.73607575               -0.00483405                0.12602276                1.06107429                0.27333124                0.00163826
               5.02853520                7.99655419               34.03575542                0.01000001               -0.70706831                0.08305640                0.13710080                0.70884217                0.31802854                0.06419851
               6.02163117                8.00035157               34.03868131                0.01000000               -0.65627368                0.07255642                0.15170034                0.34966051                0.37257672                0.12903770
               7.01540973                8.00171302               34.04276903                0.01082584               -0.49647986               -0.01014887                0.17225430               -0.00994649                0.38385800                0.19913868
               8.01170157                8.00209245               34.04655239                0.01000002               -0.31474543               -0.10783551                0.16606939               -0.36768280                0.36484883                0.40517825
               9.00911482                8.00200111               34.05003186                0.01096193               -0.16563792               -0.21026334                0.18295784               -0.48942139                0.25756059                0.67442252
              10.00838881                8.00476275               34.05189352                0.01000000               -0.07260037               -0.28546919                0.18960820               -0.35621078                0.18210135                0.65361936
               0.04795276                8.99491328               34.03678521                1.00000000               -0.03193387               -0.03101714                0.10387038               -0.00007991                0.00251076                0.01913832
               1.04763342                8.99128586               34.03517954                0.99999998               -0.03269256               -0.03267608                0.10896314                0.00003488                0.00181623                0.00265308
               2.04729891                8.98765460               34.03355952                0.99999997               -0.03429970               -0.03434618                0.11428708               -0.00011194               -0.00380179               -0.01021956
               3.04694743                8.98401826               34.03184436                0.01000001               -0.42613413               -0.03624374                0.11988268                0.57500309                0.16707536               -0.05398115
               4.03877623                8.99181768               34.03364917                0.01000000               -0.86613793                0.19626627                0.13833522                0.74642432                0.33605769               -0.00437855
               5.02962467                8.99832813               34.03615654                0.01000000               -0.87230570                0.22015697                0.14070573                0.43169447                0.36754610                0.04413853
               6.02133011                9.00191083               34.03974516                0.01071183               -0.79170713                0.18601770                0.16107101                0.12358577                0.41475757                0.09006683
               7.01379053                9.00280352               34.04421550                0.01000002               -0.78577910                0.17112147                0.18717099               -0.09875337                0.53750582                0.08715012
               8.00561453                9.00184035               34.05129696                0.01372600               -0.67835704                0.07045768                0.20740017               -0.46684396                0.65058932                0.32860093
               9.00022338                9.00047183               34.05843823                0.99999998               -0.29561358               -0.10248250                0.17326457               -0.51284532                0.35780212                0.41889130
               9.99970226                8.99996086               34.05841778                1.00000000               -0.05211267               -0.26629350                0.17426156               -0.45983397               -0.00032491                0.32417385
               0.05158717                9.99460397               34.03691670                1.00000000               -0.03162711               -0.03093132                0.10295345               -0.00093348                0.01333907                0.01430896
               1.05127090                9.99096022               34.03529987                1.00000000               -0.03236611               -0.03256407                0.10805563               -0.00079667                0.01675051                0.00124141
               2.05093985                9.98731308               34.03375439                0.99999999               -0.03386004               -0.03415235                0.11314509               -0.00089668                0.01666589               -0.00309529
               3.05059370                9.98366041               34.03214254                0.30337955               -0.72743485               -0.03578502                0.11817870                0.76412633                0.15918714               -0.00439271
               4.03639115                9.99530306               34.03345778                0.01000003               -1.17588800                0.34853835                0.14990185                0.62633818                0.30631983                0.00809709
               5.02707594               10.00095733               34.03608564                0.01023557               -0.83818277                0.26291931                0.14687131                0.18357000                0.38211988                0.03665990
               6.01962749               10.00407193               34.03997270                0.01000001               -0.67853975                0.21610937                0.16459887                0.03864436                0.43439437                0.06260367
               7.01350514               10.00513545               34.04448594                0.01000000               -0.74655523                0.23319245                0.18871795               -0.05705438                0.65149994                0.05415887
               8.00469639               10.00350161               34.05350252                0.01000002               -0.63838699                0.16612567                0.19941790               -0.35101314                0.62193495                0.19289153
               9.00073740                9.99995146               34.05847251                1.00000000               -0.22411588               -0.05203620                0.17388931               -0.15183465                0.24977801                0.00025590
              10.00021407                9.99943688               34.05845205                1.00000000               -0.05233298               -0.05239800                0.17489003               -0.00027727                0.00029639               -0.00029575
              -0.00020121                0.00358066               35.02870567                1.00000000               -0.02404454               -0.02262074                0.07568118                0.00137586               -0.00351423                0.00404543
               0.99955835                0.00190517               35.02911443                1.00000000               -0.02533754               -0.02535437                0.08445895                0.00137153               -0.00378818               -0.00133007
               1.99929204                0.00022994               35.02951505                0.01000000               -0.05632000               -0.02808798                0.09323749                0.02487224                0.00965658               -0.00163635
               2.99843195               -0.00097482               35.03019484                0.01000001               -0.08890039               -0.00731427                0.16919826               -0.00269565                0.05028955                0.03597204
               3.99751404                0.00072809               35.03223836                0.01000000               -0.15927292                0.04929379                0.09247176                0.15803030                0.12319473                0.02972296
               4.99524649                0.00652459               35.03473620                0.01000000               -0.45028385                0.09194829                0.09086948                0.46376518                0.17259940               -0.01278711
               5.98850836                0.01851585               35.03739841                0.13857010               -0.35149419               -0.02829643                0.09358175                0.51575930                0.09768329               -0.00105969
               6.98821661                0.02022018               35.03863211                0.99877011               -0.03035112               -0.03048262                0.10156969                0.00128891                0.01613931               -0.00445420
               7.98790134                0.02192256               35.03965699                1.00000000               -0.03256010               -0.03265177                0.10850716                0.00106073                0.00764197               -0.00046080
               8.98756540                0.02362593               35.04071650                1.00000000               -0.03462402               -0.03473573                0.11546815                0.00105135                0.00761303                0.00094648
               9.98720886                0.02533202               35.04173855                1.00000000               -0.03565489               -0.03690016                0.12242690                0.00097944                0.00574166                0.00528928
               0.00148805                1.00335445               35.02855648                1.00000000               -0.02406256               -0.02261089                0.07578203                0.00005761                0.00145912                0.00463602
               1.00124742                1.00165162               35.02896244                0.01000000               -0.02536449               -0.02544170                0.08456124                0.00005358                0.00362473               -0.00335613
               2.00098076                0.99994906               35.02941029                0.01000000               -0.15457505               -0.06372437                0.09334298               -0.03341160                0.03556395                0.05104839
               2.99815592                0.99895204               35.03045852                0.01000001               -0.28180634               -0.00406093                0.15706536                0.12437057                0.02284906                0.05287196
               3.99534463                1.00122102               35.03227803                0.01000000               -0.35828302                0.03953928                0.08975542                0.37004564                0.08902618                0.02303899
               4.99099026                1.00744408               35.03424495                0.01000000               -0.42632368                0.02958438                0.09462414                0.72280542                0.12027512               -0.00732316
               5.98681816                1.01823288               35.03656744                0.01000001               -0.22320610               -0.25917931                0.09422500                0.67788471                0.07224569               -0.02340968
               6.98652614                1.01991536               35.03772180                0.99690890               -0.03045438               -0.03057156                0.10216000                0.00019240                0.00736412               -0.00433058
               7.98620907                1.02159604               35.03874060                1.00000000               -0.03274752               -0.03273779                0.10912507               -0.00000335                0.00111659               -0.00036758
               8.98587119                1.02327857               35.03976735                0.99999999               -0.03482566               -0.03483063                0.11608810               -0.00002804                0.00109193                0.00065181
               9.98551256                1.02496302               35.04078509                1.00000000               -0.03586314               -0.03697995                0.12303086               -0.00011923                0.00055601                0.00656717
               0.00320561                2.00312844               35.02841444                0.01000000               -0.02408002                0.00481436                0.07588316                0.02064304                0.00197335                0.11017325
               1.00296481                2.00139633               35.02877035                0.01000000               -0.09411072               -0.09119664                0.08466342               -0.01729266                0.06390652                0.09945504
               2.00132339                1.99895546               35.03036473                0.01000001               -0.16587043               -0.11386600                0.12128140                0.06466852                0.14872501                0.13874813
               2.99964740                1.99894396               35.03104740                0.01000000               -0.24502433               -0.05170933                0.08802484                0.37148874                0.07882323                0.07732349
               3.99642291                2.00151887               35.03237373                0.01000000               -0.34783312               -0.02694048                0.10129079                0.66544327                0.08257340                0.03341583
               4.99269074                2.00711628               35.03386497                0.01000001               -0.34140670               -0.11280959                0.09983039                0.91556229                0.06880560                0.01322344
               5.98959477                2.01333226               35.03528577                0.01000000               -0.39167220               -0.35766065                0.10299674                0.97652145                0.05864916               -0.01624737
               6.98485729                2.01960875               35.03680954                0.01000000               -0.25283604               -0.20246227                0.10275498                0.57958004                0.02121009                0.00731851
               7.98453805                2.02126781               35.03782414                0.11042475               -0.03297130               -0.03333026                0.10977022                0.00085308               -0.00550674                0.00013843
               8.98419787                2.02292932               35.03881233                0.99999998               -0.03502401               -0.03496495                0.11671604               -0.00001662               -0.00393374               -0.00156888
               9.98383757                2.02459242               35.03985902                1.00000000               -0.03602947               -0.03714736                0.12353857               -0.00009091               -0.00118346                0.00648001
               0.00536513                3.00345074               35.03037242                0.01000005               -0.02905763                0.03405838                0.08272820                0.03916998                0.01506982                0.22342698
               1.00507456                2.99982769               35.03067647                0.01000001               -0.03193169               -0.19714441                0.09027264                0.12269316                0.01855037                0.18506927
               2.00472650                2.99767174               35.03102443                0.01000000               -0.10261372               -0.18129111                0.08946280                0.37315267                0.03315618                0.10432976
               3.00302228                2.99791785               35.03177111                0.01000000               -0.21226610               -0.14880397                0.10111968                0.62669453                0.06799670                0.08578388
               4.00048118                3.00068221               35.03268813                0.01021802               -0.27670826               -0.13835694                0.10259434                0.87575090                0.06833463                0.05408031
               4.99748812                3.00518789               35.03380137                0.01000000               -0.33125291               -0.19976076                0.10729995                1.07310437                0.06567691                0.04414178
               5.99385612                3.01107967               35.03502269                0.01000001               -0.36529603               -0.25346875                0.10901611                1.09421777                0.04815220                0.05588137
               6.99018220                3.01586611               35.03612936                0.01000001               -0.54752756               -0.31080538                0.11479979                1.13908943                0.00717621                0.05755846
               7.98290557                3.02092944               35.03691700                0.01000001               -0.38179779               -0.22815953                0.13795670                0.91943813               -0.03004714                0.08717330
               8.98254624                3.02257927               35.03782023                0.01000000               -0.03605209               -0.27035204                0.11733555                0.69947068               -0.01060293                0.08925067
               9.98218452                3.02422007               35.03890722                0.62365045               -0.03617146               -0.59144432                0.12404377                0.80885145               -0.00168168                0.07554220
               0.01123511                4.00380961               35.03231318                0.01000000               -0.00374436               -0.02564997                0.07693769                0.16566012               -0.01108698                0.21650592
               1.01119767                3.99745344               35.03219525                0.01000000               -0.02694131               -0.26875181                0.08886701                0.39662097               -0.00698284                0.16786929
               2.01069629                3.99532963               35.03211912                0.01000000               -0.10134237               -0.25802545                0.10002099                0.69715433                0.02211265                0.10440490
               3.00917082                3.99596788               35.03245521                0.01021526               -0.20141972               -0.21222710                0.10400007                0.88102169                0.05318057                0.06998075
               4.00666789                3.99875173               35.03314613                0.01000000               -0.27077263               -0.21579599                0.10961408                1.05181021                0.07475242                0.06167563
               5.00375537                4.00312107               35.03414020                0.01000001               -0.29334932               -0.22912499                0.11344383                1.16333136                0.08553633                0.07406352
               6.00080090                4.00826289               35.03534635                0.01000001               -0.29830270               -0.28785291                0.11734450                1.23766046                0.08174378                0.10059067
               6.99778931                4.01339264               35.03655390                0.01000003               -0.22936254               -0.31920747                0.12280826                1.22624520                0.06426177                0.13998787
               7.99621365                4.01670462               35.03766955                0.01000000               -0.14463331               -0.43764434                0.12674925                1.31922336                0.05007612                0.18917185
               8.99489665                4.01752228               35.03868387                0.01000000                0.02596736               -0.51474088                0.13234057                0.94821862                0.02618042                0.19924244
               9.99673300                4.01276354               35.03936842                0.01000000                0.18363533               -0.81698967                0.13531670                0.71748779                0.01988605                0.15049860
               0.02139067                5.00293774               35.03423658                0.01000000                0.00962822               -0.39836897                0.10985429                0.51064676                0.01026622                0.23678796
               1.02148695                4.99445265               35.03362418                0.01000000               -0.06177618               -0.26436958                0.09976319                0.82351329                0.00641173                0.16965011
               2.02015514                4.99251124               35.03319871                0.01000001               -0.21331672               -0.22580024                0.10285360                0.96055757                0.02639660                0.08123500
               3.01722062                4.99367331               35.03314785                0.01000000               -0.28954747               -0.24735213                0.11028357                1.06996525                0.06036846                0.05610683
               4.01436420                4.99636629               35.03371499                0.01000001               -0.29885140               -0.23642540                0.11567591                1.14151034                0.10241745                0.05974170
               5.01124359                5.00060539               35.03479631                0.01000001               -0.30132225               -0.24674389                0.12071339                1.19433880                0.12868816                0.08914183
               6.00833775                5.00532261               35.03619081                0.01000003               -0.24891089               -0.28892137                0.12542199                1.15941687                0.13733031                0.13333187
               7.00626537                5.00948196               35.03771921                0.01000000               -0.15886743               -0.37815770                0.12981674                1.07780170                0.13190512                0.18902423
               8.00516040                5.01217655               35.03918614                0.01000001               -0.04068398               -0.44526570                0.13447479                0.89804028                0.11005441                0.23857870
               9.00545169                5.01228446               35.04034127                0.01000000                0.04456781               -0.47379712                0.14057388                0.61040603                0.06819039                0.26581270
              10.00605176                5.00788028               35.04088898                0.01000000                0.06000672               -0.32885155                0.14629552                0.29957803                0.04376555                0.24089513
               0.03841822                5.99584223               35.03696409                0.31285842               -0.03237839               -0.36944812                0.10305259                0.66810126               -0.00324558                0.16096070
               1.03809444                5.99216605               35.03570000                0.01000001               -0.38657216               -0.13057701                0.10867397                0.76332819               -0.02377429                0.10847997
               2.03068678                5.99081363               35.03401761                0.01000000               -0.56896866               -0.21901715                0.11167036                1.00718576               -0.00722024                0.05090789
               3.02671507                5.99102084               35.03374580                0.01000001               -0.40603797               -0.24528985                0.11638875                1.05012972                0.08657125                0.02483166
               4.02256602                5.99402322               35.03431368                0.01000001               -0.40146205               -0.23053414                0.12229737                1.17046222                0.14570067                0.04633477
               5.01868583                5.99818619               35.03561013                0.01000003               -0.37266771               -0.19533458                0.12783482                1.11095318                0.18785654                0.08963101
               6.01511267                6.00248446               35.03739867                0.01000000               -0.30972085               -0.23720820                0.13393360                0.95612331                0.20966019                0.15258629
               7.01249141                6.00582949               35.03946347                0.01000001               -0.18703507               -0.31728453                0.13958603                0.74678066                0.20775515                0.22369642
               8.01137197                6.00779930               35.04143381                0.01000000               -0.05451835               -0.40298534                0.14513543                0.52087696                0.18182974                0.30777976
               9.01140104                6.00804633               35.04303683                0.01064507                0.00804734               -0.37472738                0.15202705                0.28627346                0.11509086                0.33951860
              10.01153291                6.00618651               35.04360636                0.01000001                0.01318710               -0.10342147                0.15694637                0.13618119                0.06767136                0.32747899
               0.04210505                6.99554878               35.03744719                0.99999999               -0.03229368               -0.03017526                0.10461372               -0.00059401               -0.00964102                0.03303828
               1.04178212                6.99184111               35.03600721                0.99999999               -0.03304905               -0.03267878                0.10990855               -0.00056283               -0.00974963                0.01137454
               2.04144407                6.98813089               35.03455675                0.01000000               -0.33842503               -0.15147229                0.11530363                0.57020565                0.03403478                0.01101833
               3.03501362                6.98876751               35.03398746                0.01000001               -0.54179908               -0.36491356                0.12417250                1.09334749                0.11655342               -0.00241358
               4.03060809                6.99175561               35.03477614                0.01000391               -0.50060994               -0.13550597                0.12685145                1.11793363                0.20724109                0.01536986
               5.02500142                6.99669869               35.03643675                0.01000000               -0.53955869               -0.07777274                0.13560128                0.96905865                0.26208877                0.08230771
               6.01981692                7.00057845               35.03884527                0.01000001               -0.45576375               -0.10002363                0.14321727                0.66432536                0.29479683                0.15545712
               7.01588614                7.00313627               35.04164927                0.01000000               -0.32279094               -0.20057859                0.15005132                0.33025425                0.31294518                0.26431039
               8.01336110                7.00411685               35.04474491                0.01080413               -0.15480927               -0.28473494                0.15728409                0.09733615                0.25711677                0.35324155
               9.01278996                7.00478991               35.04659089                0.01000002               -0.04330304               -0.30546300                0.16421228               -0.03126626                0.12753203                0.45112602
              10.01249504                7.00581185               35.04707308                0.01000001               -0.02949195               -0.07029226                0.16877025               -0.05631806                0.06315284                0.52181147
               0.04582168                7.99523873               35.03760006                1.00000000               -0.03206061               -0.03095717                0.10385350                0.00002011               -0.00096686                0.02037938
               1.04550107                7.99151248               35.03613094                0.99999999               -0.03285911               -0.03281493                0.10948297                0.00010417               -0.00059223                0.00322144
               2.04516449                7.98778418               35.03466555                0.23147694               -0.02718865               -0.03465291                0.11508546               -0.01654736                0.05264826               -0.01378676
               3.04495730                7.98372257               35.03426115                0.01000001               -0.40854912               -0.25396594                0.10252457                0.85320450                0.15918115               -0.07956877
               4.03699351                7.99131311               35.03486982                0.01000000               -0.78565677                0.00307262                0.13525959                1.11414486                0.26328764                0.00350320
               5.02924416                7.99663073               35.03717683                0.01000001               -0.75159567                0.09265111                0.14301433                0.72703555                0.34247375                0.06826783
               6.02196160                8.00048399               35.04022990                0.01000000               -0.68430324                0.07850851                0.15416659                0.34836973                0.40403452                0.14371676
               7.01555810                8.00181792               35.04443842                0.01082458               -0.51482731               -0.00946685                0.16134323               -0.02082135                0.42099821                0.23499687
               8.01166505                8.00210460               35.04824574                0.01000002               -0.32386921               -0.11257151                0.16625648               -0.36568455                0.37793612                0.42151477
               9.00908071                8.00193707               35.05185810                0.01121669               -0.16511930               -0.21761162                0.18418581               -0.49389490                0.27559768                0.67132356
              10.00836267                8.00478066               35.05379200                0.01000000               -0.07180465               -0.29458701                0.19214295               -0.35467327                0.19120570                0.65495980
               0.04955795                8.99492964               35.03782220                1.00000000               -0.03192133               -0.03091238                0.10353870                0.00001732                0.00248793                0.01918604
               1.04923874                8.99118481               35.03627027                0.99999998               -0.03274616               -0.03274949                0.10920764                0.00003618                0.00193144                0.00278271
               2.04890303                8.98743783               35.03470721                0.99999996               -0.03449788               -0.03453861                0.11503584               -0.00011432               -0.00332974               -0.01000837
               3.04854878                8.98368819               35.03305299                0.01000000               -0.44601051               -0.01980102                0.12114402                0.58644228                0.17376066               -0.07878098
               4.03998282                8.99181706               35.03503549                0.01000000               -0.90887691                0.20945336                0.13712697                0.76761363                0.35133470                0.00199962
               5.03037125                8.99855172               35.03763523                0.01000000               -0.91928469                0.23483015                0.14986790                0.44251790                0.39748348                0.04377336
               6.02159713                9.00214862               35.04139928                0.01071495               -0.82610735                0.19872117                0.16401347                0.11725928                0.46204765                0.09742126
               7.01384910                9.00294693               35.04607095                0.01000002               -0.78344382                0.17585489                0.17329057               -0.11242561                0.60533647                0.11533854
               8.00592825                9.00186542               35.05305811                0.01342107               -0.68065490                0.08071552                0.16717164               -0.45550572                0.73709329                0.35360164
               9.00023600                9.00043768               35.06017195                0.99999998               -0.31069274               -0.10101540                0.17347325               -0.51352533                0.35596668                0.41403506
               9.99971440                8.99992011               35.06016056                0.99999999               -0.05216042               -0.26920653                0.17428847               -0.45825843               -0.00033612                0.31612445
               0.05331166                9.99462048               35.03794725                1.00000000               -0.03180704               -0.03091572                0.10323410               -0.00092819                0.01331902                0.01433778
               1.05299359                9.99085749               35.03638449                1.00000000               -0.03264186               -0.03273280                0.10891556               -0.00086803                0.01664985                0.00136062
               2.05265883                9.98709341               35.03489252                0.99999998               -0.03433411               -0.03444226                0.11461053               -0.00096726                0.01640957               -0.00313222
               3.05230691                9.98332655               35.03333316                0.33928602               -0.75882836               -0.03616451                0.12025293                0.79625088                0.16944372               -0.00490890
               4.03748226                9.99550217               35.03491393                0.01019217               -1.22719740                0.36851083                0.14430170                0.64998338                0.32520660                0.00545133
               5.02776296               10.00132734               35.03763642                0.01000000               -0.87853469                0.27756208                0.15525217                0.18698377                0.41075908                0.03514400
               6.01991157               10.00445841               35.04166307                0.01000001               -0.70850884                0.23097913                0.16729128                0.03182781                0.47665605                0.06468377
               7.01359279               10.00533502               35.04634104                0.01000000               -0.74236853                0.23880817                0.17300429               -0.06260597                0.70350960                0.05357626
               8.00506420               10.00371891               35.05514949                0.01000002               -0.64186380                0.18534975                0.16171607               -0.35731803                0.72779671                0.23249977
               9.00075551                9.99991677               35.06021125                0.99999999               -0.24157845               -0.05209099                0.17386837               -0.16416808                0.25392664                0.00026666
              10.00023263                9.99939653               35.06019988                1.00000000               -0.05228844               -0.05235802                0.17468326               -0.00020045                0.00030987               -0.00030270
              -0.00068901                0.00376979               36.02945823                1.00000000               -0.02391145               -0.02238669                0.07483661                0.00153380               -0.00352008                0.00404732
               0.99907188                0.00204333               36.02995885                1.00000000               -0.02532427               -0.02537473                0.08442727                0.00150124               -0.00379354               -0.00133139
               1.99880451                0.00031782               36.03045134                0.01000000               -0.05629998               -0.02836156                0.09401958                0.01599053                0.03624527               -0.00162801
               2.99794588               -0.00111678               36.03175478                0.01000001               -0.09914477                0.01404184                0.14580704                0.03259856                0.12647067                0.00885057
               3.99682161                0.00092027               36.03330416                0.01000000               -0.17529307                0.05189025                0.10327570                0.17740373                0.14659660               -0.00297166
               4.99444002                0.00687194               36.03554604                0.01000000               -0.46594591                0.09508734                0.08713961                0.48385815                0.18089375               -0.00741863
               5.98750269                0.01933304               36.03832955                0.12900118               -0.36129871               -0.02816781                0.09274870                0.53701224                0.10068725               -0.00106816
               6.98721404                0.02108279               36.03964353                0.99816712               -0.03009167               -0.03026482                0.10071390                0.00134430                0.01658981               -0.00447727
               7.98690086                0.02283121               36.04073960                1.00000000               -0.03240254               -0.03253835                0.10800989                0.00111971                0.00763791               -0.00046532
               8.98656599                0.02458143               36.04187039                1.00000000               -0.03457429               -0.03471524                0.11532428                0.00111895                0.00760434                0.00095620
               9.98620937                0.02633522               36.04296375                1.00000000               -0.03566178               -0.03698228                0.12264103                0.00101172                0.00572156                0.00528201
               0.00105279                1.00354592               36.02931106                1.00000000               -0.02399137               -0.02240457                0.07513240                0.00009348                0.00145999                0.00463611
               1.00081287                1.00178958               36.02980890                0.04615380               -0.02541596               -0.02549860                0.08472562                0.00006268                0.00362980               -0.00335832
               2.00054447                1.00003421               36.03034868                0.01000000               -0.14211175               -0.01546401                0.09433391                0.05316402                0.05451940                0.06959281
               2.99797064                0.99902364               36.03186785                0.01000001               -0.29715906                0.00922420                0.12334564                0.14669349                0.14867996                0.02255498
               3.99460129                1.00143918               36.03320415                0.01000000               -0.39492126                0.04153354                0.09786709                0.39320314                0.11272358                0.02578448
               4.99007221                1.00782282               36.03514585                0.01000000               -0.44169473                0.03090316                0.09358087                0.75524977                0.12897261                0.00473006
               5.98576739                1.01905137               36.03750627                0.01000001               -0.22969055               -0.26928879                0.09363232                0.70699941                0.07099830               -0.01936099
               6.98547840                1.02078014               36.03874040                0.99604805               -0.03023268               -0.03038606                0.10154384                0.00029378                0.00778310               -0.00435371
               7.98516274                1.02250583               36.03983054                1.00000000               -0.03266135               -0.03266305                0.10886057                0.00001398                0.00112851               -0.00034760
               8.98482517                1.02423428               36.04092879                0.99999999               -0.03485208               -0.03484296                0.11617496                0.00001420                0.00110493                0.00065484
               9.98446570                1.02596540               36.04201783                1.00000000               -0.03594785               -0.03710820                0.12348378               -0.00013346                0.00056191                0.00649424
               0.00282553                2.00332170               36.02917102                0.01091196               -0.02406899                0.01368838                0.07543697                0.02826773                0.00197859                0.11278668
               1.00258484                2.00153336               36.02961885                0.01000000               -0.00959016               -0.08938433                0.08502244                0.03991843                0.08245835                0.10006222
               2.00263373                2.00000854               36.03167593                0.01000001               -0.15550337               -0.10464158                0.07631419                0.06721824                0.14842072                0.12324239
               2.99947478                1.99906770               36.03202721                0.01000000               -0.33736190               -0.04312612                0.11099433                0.33476119                0.05615324                0.06006578
               3.99588649                2.00175094               36.03339760                0.01000000               -0.37709784               -0.02920561                0.10411953                0.69772486                0.08909371                0.05238444
               4.99193282                2.00749001               36.03486186                0.01000001               -0.36005697               -0.11552078                0.10232570                0.95405423                0.06974425                0.02688826
               5.98868535                2.01394727               36.03631447                0.01000000               -0.40836828               -0.37194869                0.10397929                1.01753472                0.05558126               -0.00663310
               6.98376546                2.02047507               36.03783527                0.01000000               -0.26191745               -0.20982630                0.10237630                0.60156029                0.01751769                0.01348742
               7.98344701                2.02217795               36.03892157                0.12323147               -0.03293769               -0.03291526                0.10969804               -0.00006178               -0.00548101                0.00844863
               8.98310670                2.02388457               36.03998093                0.99820752               -0.03512751               -0.03505909                0.11708212                0.00009346               -0.00395504               -0.00158736
               9.98274446                2.02559306               36.04109813                1.00000000               -0.03622463               -0.03740998                0.12440786               -0.00011351               -0.00123133                0.00634419
               0.00519482                3.00381969               36.03118323                0.01009443               -0.02704194                0.04259725                0.07509543                0.03717841                0.01138389                0.22226373
               1.00492440                3.00000190               36.03153913                0.01000001               -0.04201641               -0.18673112                0.08354413                0.13466064                0.01496369                0.18067812
               2.00435449                2.99794138               36.03192295                0.01000000               -0.10004684               -0.23667170                0.10093087                0.31497252                0.03393404                0.08907613
               3.00292346                2.99816112               36.03279785                0.01000000               -0.21105038               -0.15378152                0.10298647                0.62988236                0.06915640                0.08950848
               4.00013348                3.00085506               36.03373474                0.01021911               -0.29832433               -0.14386947                0.10818561                0.90093342                0.06423864                0.06175400
               4.99695697                3.00551240               36.03488297                0.01000000               -0.35002286               -0.20581025                0.11009500                1.11519675                0.06340138                0.05500187
               5.99313302                3.01161239               36.03613077                0.01000001               -0.38390237               -0.26269803                0.11204646                1.13800801                0.04508430                0.06502509
               6.98927892                3.01658362               36.03728582                0.01000001               -0.56905096               -0.32314543                0.11624524                1.18487256                0.01043336                0.06928305
               7.98175200                3.02184752               36.03818761                0.01000001               -0.39334955               -0.23591648                0.11391327                0.95550622               -0.03230651                0.09245885
               8.98141193                3.02353309               36.03899554                0.01000000               -0.03527784               -0.28149611                0.11805742                0.72706217               -0.01887615                0.09615107
               9.98104645                3.02521720               36.04015276                0.65399022               -0.03654879               -0.61604313                0.12533134                0.84228588               -0.00170701                0.08092618
               0.01120469                4.00417364               36.03314435                0.01000000               -0.00483143               -0.03863515                0.09298872                0.21088303               -0.01011435                0.23945238
               1.01115637                3.99779874               36.03304796                0.01000000               -0.02153614               -0.27460806                0.09110416                0.41334159               -0.00130611                0.16254361
               2.01077396                3.99527511               36.03313380                0.01000000               -0.09988179               -0.27927880                0.10198770                0.72530409                0.03045287                0.10514246
               3.00915874                3.99599207               36.03351270                0.01021633               -0.21100437               -0.22812650                0.10877426                0.91132131                0.05246939                0.07501114
               4.00655388                3.99887355               36.03425711                0.01000000               -0.28396544               -0.22329594                0.11288028                1.08932402                0.07281837                0.06919989
               5.00347943                4.00337380               36.03528882                0.01000001               -0.30897885               -0.23702619                0.11660089                1.20647056                0.08252021                0.08274383
               6.00037430                4.00869331               36.03653439                0.01000001               -0.31258257               -0.29862872                0.12016726                1.28625141                0.07919542                0.11006500
               6.99722778                4.01401216               36.03779128                0.01000635               -0.23833231               -0.33265340                0.12384346                1.27720569                0.06166401                0.14925948
               7.99560765                4.01745962               36.03894915                0.01000000               -0.14747551               -0.45760139                0.12858257                1.37073382                0.04703180                0.19234053
               8.99427827                4.01825465               36.04000494                0.01000000                0.03071535               -0.53831680                0.13159723                0.98305251                0.02377078                0.21090393
               9.99622196                4.01327220               36.04073066                0.01008180                0.19436939               -0.85279296                0.13695551                0.74547370                0.01798415                0.16043634
               0.02216229                5.00304699               36.03543851                0.01000000               -0.00725238               -0.41628292                0.10294378                0.56712151                0.02127485                0.24623622
               1.02208976                4.99450974               36.03465634                0.01000000               -0.07475267               -0.28690006                0.11028729                0.87271392                0.03030412                0.15165975
               2.02066723                4.99235580               36.03422143                0.01000001               -0.22691616               -0.23115877                0.10578536                0.99498136                0.03276606                0.08712984
               3.01755144                4.99359859               36.03426597                0.01000000               -0.30645005               -0.25655523                0.11336681                1.11431404                0.06295543                0.06216703
               4.01453823                4.99638914               36.03488623                0.01000001               -0.31424038               -0.24514003                0.11862971                1.18468131                0.10194192                0.06782346
               5.01126663                5.00077188               36.03601798                0.01000001               -0.31592701               -0.25495368                0.12339521                1.23880010                0.12774268                0.09804813
               6.00821969                5.00563982               36.03745860                0.01000003               -0.26049525               -0.29982687                0.12785971                1.20272384                0.13601051                0.14345241
               7.00605673                5.00993055               36.03903152                0.01000000               -0.16477485               -0.39495470                0.13232427                1.11814716                0.13074074                0.19957224
               8.00492419                5.01269549               36.04054981                0.01000001               -0.03981590               -0.46811281                0.13717337                0.93092072                0.10969568                0.24884186
               9.00526041                5.01276676               36.04175633                0.01000000                0.04983137               -0.49723924                0.14228051                0.63204539                0.06835256                0.27564450
              10.00592082                5.00816134               36.04235624                0.01026869                0.06604134               -0.34590059                0.14763448                0.30980879                0.04421923                0.24970261
               0.03962162                5.99584798               36.03798481                0.28404889               -0.03197787               -0.37420634                0.10099031                0.68417791               -0.00328903                0.15271691
               1.03930184                5.99206074               36.03677971                0.01000001               -0.40184376               -0.13843125                0.10716397                0.79080488               -0.02437937                0.11148569
               2.03158474                5.99065193               36.03514365                0.01000000               -0.59450831               -0.22182840                0.11259446                1.04499284               -0.00731803                0.05780005
               3.02741167                5.99086097               36.03490933                0.01000001               -0.42552655               -0.25191384                0.11803702                1.09168259                0.08813842                0.03810319
               4.02307421                5.99397075               36.03555531                0.01000001               -0.42034573               -0.23617617                0.12433840                1.21473515                0.14753515                0.05323206
               5.01900476                5.99827473               36.03690135                0.01000003               -0.39020527               -0.20127097                0.12997090                1.15268465                0.18982308                0.09994524
               6.01527011                6.00269677               36.03875046                0.01000000               -0.32348570               -0.24511005                0.13593047                0.98988995                0.21237631                0.16413414
               7.01253504                6.00611307               36.04086953                0.01000001               -0.19401232               -0.33063966                0.14111499                0.77167313                0.20968781                0.23531077
               8.01138986                6.00809736               36.04288789                0.01000000               -0.05408581               -0.42227665                0.14613419                0.53647984                0.18446849                0.31841431
               9.01145333                6.00830986               36.04456133                0.01065628                0.01195554               -0.39442066                0.15296986                0.29504959                0.11814890                0.34966070
              10.01162897                6.00635418               36.04518173                0.01017813                0.01756428               -0.11202572                0.15857870                0.14081183                0.06993142                0.33626819
               0.04342034                6.99556286               36.03848507                0.99999999               -0.03184288               -0.02955485                0.10284425               -0.00061347               -0.00998292                0.03365772
               1.04310191                6.99174111               36.03710081                0.99999999               -0.03267417               -0.03228135                0.10872660               -0.00056363               -0.00993737                0.01204480
               2.04276686                6.98791923               36.03570774                0.01000000               -0.35178207               -0.15390622                0.11473876                0.59158480                0.04004497                0.01229731
               3.03606627                6.98856031               36.03531707                0.01000001               -0.56738405               -0.35662924                0.12335770                1.12853946                0.11679013               -0.03059887
               4.03141917                6.99166562               36.03602407                0.01000802               -0.52359804               -0.13911510                0.12611503                1.16172761                0.20490805                0.03006962
               5.02559431                6.99674646               36.03781341                0.01000000               -0.56200119               -0.07768317                0.13734465                1.00459140                0.27143682                0.09254885
               6.02017915                7.00073762               36.04028364                0.01000001               -0.47523569               -0.10124346                0.14348415                0.68757279                0.30382242                0.16948549
               7.01608959                7.00331776               36.04313958                0.01000000               -0.33610773               -0.20608951                0.14936709                0.33955784                0.32138418                0.27647138
               8.01345700                7.00424996               36.04631642                0.01080921               -0.15925075               -0.29439049                0.15516364                0.10056724                0.26490461                0.36200438
               9.01290458                7.00487834               36.04823761                0.01000002               -0.04042914               -0.32316660                0.16386841               -0.03509782                0.13336687                0.46647027
              10.01264841                7.00592083               36.04876698                0.01000001               -0.02561658               -0.07898567                0.17098200               -0.05994383                0.06651410                0.53753622
               0.04725284                7.99525689               36.03863367                1.00000000               -0.03186495               -0.03065248                0.10282252                0.00012384               -0.00095572                0.02018998
               1.04693419                7.99141511               36.03722392                0.99999999               -0.03278019               -0.03265717                0.10903198                0.00010268               -0.00065956                0.00324842
               2.04659724                7.98757381               36.03581540                0.24630707               -0.03490616               -0.03458831                0.11503622               -0.00019909                0.00900879               -0.01355078
               3.04623607                7.98372838               36.03459812                0.01000001               -0.42373132               -0.25948390                0.06758312                0.88213641                0.15812159               -0.06890908
               4.03812261                7.99118845               36.03631897                0.01000000               -0.81057404                0.00739675                0.13616455                1.13970924                0.30675473                0.00980078
               5.03002459                7.99672107               36.03861571                0.01000001               -0.78361749                0.09987760                0.14417260                0.75498482                0.35164360                0.07667039
               6.02245026                8.00067190               36.04176464                0.01000000               -0.71053672                0.08442377                0.15267548                0.36132033                0.42347638                0.15845983
               7.01581386                8.00199128               36.04599590                0.01082897               -0.53048243               -0.00550387                0.14842593               -0.01567582                0.44122634                0.24864428
               8.01184061                8.00220955               36.04987752                0.01000002               -0.33666755               -0.11206653                0.16245300               -0.36731734                0.39548001                0.42513664
               9.00908050                8.00184653               36.05371557                0.01149703               -0.17477430               -0.22394800                0.18718220               -0.50496966                0.29023775                0.67690827
              10.00834513                8.00477447               36.05573637                0.01000000               -0.07353757               -0.30226805                0.19813408               -0.35371060                0.19642514                0.65376882
               0.05110637                8.99494981               36.03885599                1.00000000               -0.03193288               -0.03081350                0.10321964                0.00012755                0.00251077                0.01923711
               1.05078704                8.99108797               36.03736369                0.99999998               -0.03283865               -0.03280519                0.10945543                0.00010455                0.00195851                0.00286456
               2.05044960                8.98722747               36.03586023                0.99999996               -0.03463446               -0.03469971                0.11569169                0.00023947               -0.00323971               -0.00968355
               3.05009435                8.98337063               36.03426724                0.01000000               -0.46144598               -0.03632474                0.12203921                0.61555888                0.17792178               -0.03474440
               4.04122068                8.99181356               36.03639171                0.01000000               -0.94418987                0.22333816                0.13518049                0.79213968                0.36519419               -0.00034934
               5.03121056                8.99874401               36.03915389                0.01000000               -0.95426667                0.24683853                0.15025879                0.45649654                0.41814018                0.04753047
               6.02213535                9.00242609               36.04302543                0.01072482               -0.84860658                0.20830611                0.15949164                0.12346987                0.48733073                0.10661155
               7.01423842                9.00320768               36.04768131                0.01000002               -0.79399741                0.18377598                0.15674425               -0.10712017                0.62661127                0.12688771
               8.00625540                9.00200863               36.05464040                0.01315811               -0.69990775                0.08796441                0.16433710               -0.46333959                0.72970308                0.35185140
               9.00024027                9.00039938               36.06190769                0.99999998               -0.32685387               -0.09841631                0.17368031               -0.52240648                0.36326945                0.40780101
               9.99971832                8.99987547               36.06190355                0.99999999               -0.05219498               -0.27111497                0.17430518               -0.45749856               -0.00033935                0.30591028
               0.05497908                9.99464062               36.03898138                1.00000000               -0.03204484               -0.03091933                0.10363026               -0.00089046                0.01332543                0.01438412
               1.05465863                9.99075901               36.03747818                1.00000000               -0.03298564               -0.03289628                0.10987675               -0.00088139                0.01666475                0.00142579
               2.05431937                9.98687981               36.03604660                0.99999998               -0.03487366               -0.03476509                0.11621365               -0.00087904                0.01643530               -0.00294370
               3.05396116                9.98300189               36.03454760                0.36619212               -0.78636692               -0.03687416                0.12254667                0.82545043                0.17721481               -0.00475892
               4.03859203                9.99565522               36.03634382                0.01000000               -1.27095860                0.38416591                0.14204934                0.66993216                0.34302177                0.00837301
               5.02854198               10.00165784               36.03919068                0.01000000               -0.90680172                0.29138252                0.15360597                0.19228327                0.42893058                0.03489118
               6.02045599               10.00483802               36.04331853                0.01000001               -0.72265356                0.24119308                0.16140320                0.03251282                0.49738678                0.06717228
               7.01408891               10.00566680               36.04794603                0.01000000               -0.75369381                0.24591185                0.15766492               -0.05841010                0.72281141                0.06389959
               8.00538212               10.00396884               36.05673684                0.01000002               -0.66616871                0.19602121                0.15557387               -0.37675768                0.73798086                0.23414182
               9.00076554                9.99987820               36.06194987                0.99999999               -0.25695606               -0.05211811                0.17385617               -0.17830654                0.26113145                0.00027264
              10.00024300                9.99935217               36.06194571                1.00000000               -0.05225437               -0.05232942                0.17447925               -0.00013562                0.00030775               -0.00030844
              -0.00127285                0.00395595               37.03020240                1.00000000               -0.02377838               -0.02215683                0.07401169                0.00168990               -0.00354472                0.00406252
               0.99848936                0.00217844               37.03080297                0.99999999               -0.02530636               -0.02539859                0.08439342                0.00164069               -0.00381389               -0.00134410
               1.99822102                0.00040271               37.03139544                0.01000000               -0.01904094               -0.02863720                0.09477093                0.01899818                0.05184680               -0.00161862
               2.99810854               -0.00102395               37.03311098                0.01000001               -0.07831524                0.01546621                0.09402123                0.03984858                0.12107963               -0.01373435
               3.99665471                0.00086867               37.03430388                0.01000000               -0.21347806                0.07746070                0.10515899                0.17666579                0.14379695               -0.01223958
               4.99383898                0.00717659               37.03647899                0.01000000               -0.51150501                0.10462642                0.10163380                0.50647956                0.17886875               -0.00509848
               5.98642461                0.02014103               37.03925339                0.11977826               -0.38503147               -0.02802957                0.09194004                0.55991149                0.09674965               -0.00112258
               6.98613835                0.02193689               37.04064639                0.99755951               -0.02986928               -0.03003579                0.09984430                0.00143496                0.01678295               -0.00449740
               7.98582723                0.02373137               37.04181719                1.00000000               -0.03225060               -0.03242478                0.10750992                0.00117089                0.00763258               -0.00045818
               8.98549334                0.02552826               37.04302299                1.00000000               -0.03453261               -0.03471300                0.11520585                0.00117154                0.00760244                0.00092926
               9.98513658                0.02732949               37.04419138                1.00000000               -0.03567647               -0.03709728                0.12289373                0.00103626                0.00571124                0.00521827
               0.00052156                1.00373438               37.03005913                1.00000000               -0.02391663               -0.02219763                0.07448852                0.00012534                0.00147516                0.00464722
               1.00028239                1.00192445               37.03065695                0.06215994               -0.02546816               -0.02555459                0.08488995                0.00008277                0.00364563               -0.00337849
               2.00001219                1.00011634               37.03129697                0.01000000               -0.10041717               -0.02783366                0.09535001                0.04343491                0.05498527                0.03273554
               2.99827405                0.99913071               37.03292544                0.01000001               -0.28455459                0.01196157                0.08808155                0.12335961                0.17573050                0.01309457
               3.99432110                1.00164328               37.03423537                0.01000000               -0.45032263                0.05836532                0.10713478                0.39037765                0.12218410                0.02489636
               4.98926760                1.00822285               37.03611656                0.01000000               -0.48387627                0.03701686                0.10331784                0.77736149                0.12095652                0.01254441
               5.98464358                1.01986074               37.03844008                0.01000001               -0.24550309               -0.27829632                0.09305366                0.73610264                0.06558433               -0.01400338
               6.98435753                1.02163653               37.03975267                0.99517173               -0.03001630               -0.03019062                0.10090580                0.00042933                0.00795890               -0.00435470
               7.98404325                1.02340712               37.04091781                1.00000000               -0.03257696               -0.03258291                0.10858416                0.00000750                0.00111921               -0.00035747
               8.98370599                1.02518113               37.04209085                0.99999999               -0.03487725               -0.03487225                0.11626785                0.00001298                0.00108593                0.00068426
               9.98334571                1.02695852               37.04325476                1.00000000               -0.03602879               -0.03725557                0.12395014               -0.00016290                0.00054841                0.00654010
               0.00234951                2.00351200               37.02992318                0.01000000               -0.02404474                0.00941507                0.07501031                0.03350773                0.00199987                0.10952555
               1.00210907                2.00166735               37.03047080                0.01000000               -0.02330284               -0.09561526                0.08535394                0.03428758                0.04562616                0.09764193
               2.00188346                1.99984603               37.03189101                0.01000001               -0.15301359               -0.10604675                0.04975521                0.08411005                0.07310766                0.08263329
               2.99904879                1.99921528               37.03326728                0.01000000               -0.32566650               -0.04540945                0.11104172                0.32547577                0.06853614                0.05435553
               3.99537013                2.00203598               37.03445612                0.01000000               -0.39400222               -0.02927456                0.10881641                0.70306812                0.07198380                0.05767811
               4.99116875                2.00791693               37.03591149                0.01000001               -0.38185702               -0.11809425                0.10736829                0.98158268                0.06360468                0.03640965
               5.98773299                2.01457511               37.03736535                0.01000000               -0.42840979               -0.38502416                0.10648995                1.05637667                0.04774478                0.00363330
               6.98260055                2.02133308               37.03885707                0.01000000               -0.27251036               -0.21703837                0.10197708                0.62405468                0.01230858                0.02035326
               7.98228278                2.02307971               37.04001810                0.12929427               -0.03291761               -0.03280453                0.10964508                0.00021013               -0.00542658                0.00352053
               8.98194220                2.02483082               37.04115398                0.99999999               -0.03521199               -0.03514228                0.11737061                0.00011206               -0.00385878               -0.00140539
               9.98157854                2.02658438               37.04234718                1.00000000               -0.03636624               -0.03762279                0.12509470               -0.00013124               -0.00110728                0.00651849
               0.00488102                3.00392269               37.03187433                0.01000000               -0.02469078                0.04156890                0.08036926                0.05275112                0.01010682                0.23412385
               1.00463411                3.00001215               37.03234736                0.01000001               -0.03672782               -0.20401216                0.08644762                0.15728739                0.02138592                0.17492698
               2.00414646                2.99799540               37.03304304                0.01000000               -0.10202434               -0.23560131                0.10410870                0.35837582                0.04330388                0.11010724
               3.00259362                2.99822252               37.03383084                0.01000000               -0.22328194               -0.16076492                0.10631927                0.65552429                0.05041805                0.07184543
               3.99968082                3.00105779               37.03485184                0.01022114               -0.31167523               -0.15258702                0.11271912                0.93082306                0.05603270                0.06536978
               4.99636012                3.00586097               37.03600327                0.01000000               -0.36629318               -0.21379966                0.11358239                1.15311047                0.05563851                0.06247915
               5.99235496                3.01216025               37.03726362                0.01000001               -0.40130478               -0.27193762                0.11426633                1.17920805                0.04076379                0.07374915
               6.98833402                3.01729577               37.03845427                0.01000001               -0.59026211               -0.33504720                0.11596853                1.22990291               -0.00056090                0.07944708
               7.98054972                3.02275103               37.03919526                0.01000001               -0.40652280               -0.24452465                0.10261184                0.99201876               -0.03790893                0.10078173
               8.98020357                3.02447829               37.04018138                0.01000001               -0.03568826               -0.29256262                0.11851798                0.75516912               -0.01382039                0.10207195
               9.97983595                3.02620607               37.04141384                0.67757481               -0.03676150               -0.64077991                0.12623706                0.87591238               -0.00163149                0.08638543
               0.01122561                4.00434338               37.03417295                0.01000001               -0.00435109               -0.04503385                0.10181769                0.24934741               -0.00980971                0.25058501
               1.01118210                3.99758710               37.03401733                0.01000000               -0.01925065               -0.31290274                0.10533334                0.47333193                0.00651196                0.14243060
               2.01084060                3.99513401               37.03415887                0.01000000               -0.10426019               -0.28757107                0.10550138                0.77336284                0.03051910                0.10151627
               3.00909690                3.99599998               37.03463070                0.01021779               -0.22462264               -0.23512505                0.11266838                0.95357617                0.04929381                0.07777094
               4.00634814                3.99898424               37.03540374                0.01000000               -0.29842027               -0.23166114                0.11603147                1.13055720                0.06618102                0.07196977
               5.00312849                4.00364093               37.03647222                0.01000001               -0.32328973               -0.24535781                0.11944082                1.25090405                0.07765842                0.08936189
               5.99988235                4.00913635               37.03774969                0.01000001               -0.32603275               -0.30923333                0.12224788                1.33403356                0.07506656                0.11843741
               6.99660783                4.01463214               37.03903077                0.01001307               -0.24708579               -0.34503061                0.12418758                1.32539065                0.05923315                0.15728520
               7.99494063                4.01818922               37.04024120                0.01000000               -0.15086419               -0.47681901                0.12817496                1.42136087                0.04395843                0.20855875
               8.99359055                4.01897956               37.04131582                0.01000000                0.03502977               -0.56186663                0.13091821                1.01941592                0.02050472                0.22166001
               9.99564123                4.01376878               37.04210753                0.01000000                0.20506783               -0.88913989                0.13833019                0.77394092                0.01687845                0.17058209
               0.02338051                5.00302201               37.03629546                0.01178050               -0.00703942               -0.42466816                0.08941677                0.55005972                0.02213845                0.26426388
               1.02331012                4.99375409               37.03582993                0.01000000               -0.10898370               -0.28179033                0.11179361                0.92439403                0.03381769                0.13952123
               2.02120084                4.99224398               37.03531442                0.01000001               -0.27475996               -0.23253432                0.11405345                1.06680673                0.02135498                0.09156896
               3.01781492                4.99352002               37.03541518                0.01000000               -0.32749102               -0.26340896                0.11583796                1.15749308                0.05983166                0.06573187
               4.01465102                4.99642456               37.03608759                0.01000001               -0.32944197               -0.25171003                0.12077076                1.23051720                0.09941009                0.07297758
               5.01122608                5.00095381               37.03726421                0.01000001               -0.33032948               -0.26256345                0.12530026                1.28548343                0.12539597                0.10516994
               6.00804443                5.00597559               37.03874801                0.01000226               -0.27185543               -0.30971249                0.12950015                1.24755026                0.13439762                0.15241649
               7.00578897                5.01039515               37.04036570                0.01000000               -0.17074618               -0.41022480                0.13377865                1.15894846                0.12925127                0.20966205
               8.00462950                5.01321465               37.04192960                0.01000001               -0.03883253               -0.48941174                0.13824341                0.96373533                0.10803941                0.25851338
               9.00501232                5.01324095               37.04318688                0.01000000                0.05534130               -0.52106513                0.14312890                0.65441224                0.06672170                0.28680626
              10.00573633                5.00842327               37.04384167                0.01077789                0.07240104               -0.36338316                0.14910923                0.32070688                0.04303387                0.25955781
               0.04076263                5.99585001               37.03898390                0.25663460               -0.03146249               -0.37244680                0.09861986                0.67479854               -0.00336630                0.16001695
               1.04044801                5.99195130               37.03784328                0.01000001               -0.41759162               -0.10581474                0.10536759                0.78419438               -0.02444387                0.10604191
               2.03241080                5.99048332               37.03626950                0.01000000               -0.61909179               -0.22694449                0.11130025                1.08041903               -0.00828813                0.05945043
               3.02806617                5.99073181               37.03610654                0.01000001               -0.44430511               -0.25266398                0.11881985                1.13424420                0.08780602                0.03880920
               4.02352470                5.99395003               37.03680045                0.01000001               -0.43895204               -0.24156113                0.12471322                1.26083721                0.14727914                0.05844113
               5.01928713                5.99838966               37.03820954                0.01000211               -0.40663431               -0.20592497                0.13094967                1.19682875                0.19149006                0.10813978
               6.01539201                6.00294211               37.04011728                0.01000000               -0.33696962               -0.25108031                0.13674100                1.02803717                0.21394797                0.17395100
               7.01254774                6.00642764               37.04228577                0.01000001               -0.20112364               -0.34279110                0.14155863                0.79754767                0.21160461                0.24687814
               8.01136954                6.00840098               37.04435649                0.01000000               -0.05387798               -0.44236726                0.14811551                0.55311389                0.18600694                0.32862009
               9.01147018                6.00855826               37.04609623                0.01067375                0.01605996               -0.41379424                0.15464421                0.30472713                0.12047973                0.35970565
              10.01169074                6.00650112               37.04677793                0.01000000                0.02205591               -0.12076694                0.16072338                0.14579839                0.07162527                0.34676502
               0.04467392                6.99557307               37.03950408                0.99999999               -0.03132173               -0.02892045                0.10084827               -0.00055633               -0.01026782                0.03405836
               1.04436070                6.99163780               37.03818174                0.99999999               -0.03226022               -0.03183701                0.10738134               -0.00049232               -0.01011331                0.01249752
               2.04402871                6.98770509               37.03685153                0.01000000               -0.36638045               -0.15613253                0.11399734                0.61943067                0.03648980                0.01285562
               3.03703309                6.98846674               37.03645462                0.01000001               -0.59094043               -0.36687970                0.11589441                1.17191146                0.11681349               -0.03846610
               4.03220990                6.99159334               37.03729844                0.01001335               -0.54312529               -0.14042775                0.12717796                1.19774414                0.21287278                0.03285353
               5.02617058                6.99683531               37.03918365                0.01000000               -0.58213533               -0.07830001                0.13636092                1.04524379                0.27724415                0.10199546
               6.02056720                7.00095398               37.04171495                0.01000001               -0.49447697               -0.10153588                0.14223899                0.71814716                0.31153421                0.18210817
               7.01628104                7.00353933               37.04463661                0.01000000               -0.35030185               -0.20892830                0.14998884                0.35676668                0.32511197                0.28202789
               8.01356116                7.00436731               37.04784819                0.01082102               -0.16371590               -0.30588139                0.14924259                0.09555883                0.27212679                0.37297613
               9.01300673                7.00496507               37.04986826                0.01000002               -0.03972896               -0.33765504                0.16247407               -0.04014750                0.13837576                0.48203595
              10.01276658                7.00600793               37.05049272                0.01000001               -0.02401464               -0.08908224                0.17362932               -0.06777289                0.07259398                0.55760215
               0.04862205                7.99527161               37.03965651                1.00000000               -0.03159082               -0.03032040                0.10167703                0.00023730               -0.00096339                0.02002668
               1.04830615                7.99131456               37.03831158                0.99999999               -0.03257923               -0.03249793                0.10847014                0.00010153               -0.00069875                0.00325295
               2.04797047                7.98736067               37.03696627                0.25932673               -0.03449972               -0.03460638                0.11514218               -0.00071850               -0.00101663               -0.01341403
               3.04761615                7.98339421               37.03561281                0.01000001               -0.44297283               -0.27114587                0.10825263                0.91617331                0.16530563               -0.08109467
               4.03911101                7.99114148               37.03759311                0.01000551               -0.83923929                0.00959466                0.12874612                1.18098021                0.32265170                0.01624516
               5.03083137                7.99682366               37.04006028                0.01000001               -0.80300379                0.10460210                0.14195058                0.78498245                0.36479308                0.08330741
               6.02305094                8.00091139               37.04328341                0.01000000               -0.72808086                0.08864919                0.14886387                0.38372674                0.43092035                0.16864172
               7.01626975                8.00224907               37.04740694                0.01000002               -0.55979789               -0.00023875                0.13971670               -0.00713571                0.46759686                0.26317924
               8.01185498                8.00228336               37.05149480                0.01000002               -0.36215700               -0.11620941                0.16384494               -0.38545679                0.41754927                0.43318865
               9.00902661                8.00180516               37.05560175                0.01180215               -0.18027085               -0.23028378                0.19556036               -0.51661832                0.29719372                0.67273736
              10.00824956                8.00471948               37.05775468                0.01000000               -0.07770460               -0.30894749                0.20043953               -0.36110225                0.20068858                0.65393384
               0.05259276                8.99496666               37.03988659                1.00000000               -0.03190936               -0.03071152                0.10287413                0.00024300                0.00252951                0.01929303
               1.05227366                8.99098784               37.03845938                0.99999998               -0.03290347               -0.03287694                0.10968724                0.00009094                0.00199596                0.00293712
               2.05193469                8.98701296               37.03702104                0.99999997               -0.03489585               -0.03494322                0.11651814                0.00018182               -0.00317365               -0.00952110
               3.05157575                8.98304383               37.03549377                0.01000000               -0.47673169               -0.03617758                0.12340077                0.63550543                0.18063585               -0.02473326
               4.04240005                8.99178523               37.03773910                0.01000000               -0.97377109                0.23119648                0.13447324                0.82360628                0.37307659                0.00427406
               5.03210032                8.99892736               37.04064041                0.01000000               -0.97918663                0.25639596                0.14598556                0.47386174                0.43209095                0.04991003
               6.02281632                9.00272697               37.04458911                0.01074008               -0.86669822                0.21521400                0.15345423                0.13301092                0.49891973                0.10957848
               7.01476636                9.00353456               37.04920584                0.01000002               -0.82601932                0.19172511                0.15014769               -0.11614477                0.65246244                0.14217361
               8.00629593                9.00204312               37.05634485                0.01293984               -0.72640601                0.09627508                0.16919641               -0.46050862                0.73175716                0.34773195
               9.00023824                9.00035939               37.06364555                0.99999998               -0.32900155               -0.09836523                0.17389855               -0.52357390                0.36467433                0.40035861
               9.99971590                8.99982898               37.06364666                0.99999999               -0.05223363               -0.27067235                0.17431643               -0.45316432               -0.00034482                0.29211305
               0.05658456                9.99465738               37.04001986                1.00000000               -0.03228945               -0.03092892                0.10407840               -0.00085504                0.01339290                0.01444515
               1.05626167                9.99065702               37.03858202                1.00000000               -0.03332214               -0.03308213                0.11091605               -0.00097795                0.01677715                0.00148529
               2.05591812                9.98666181               37.03721679                0.99999998               -0.03538396               -0.03511550                0.11783786               -0.00097474                0.01660842               -0.00284220
               3.05555399                9.98267066               37.03578409                0.41505832               -0.81092546               -0.03731674                0.12473077                0.85300441                0.18281762               -0.00477054
               4.03969961                9.99576541               37.03775492                0.01015196               -1.30935604                0.39801762                0.14015895                0.69400188                0.35496525                0.01064309
               5.02936687               10.00195158               37.04070853                0.01012948               -0.92978283                0.30242281                0.14916775                0.19916729                0.43991326                0.03439046
               6.02110395               10.00521567               37.04489113                0.01000001               -0.73680838                0.24887017                0.15532288                0.03536292                0.50420636                0.06620237
               7.01463070               10.00608358               37.04949434                0.01000000               -0.76419919                0.25490184                0.15637890               -0.06390641                0.72017779                0.07155492
               8.00581997               10.00420886               37.05826096                0.01000002               -0.69307149                0.21657398                0.15296916               -0.35988237                0.75230440                0.22029259
               9.00076927                9.99983786               37.06368837                0.99999999               -0.27864322               -0.05215373                0.17384614               -0.19203840                0.27158763                0.00027235
              10.00024711                9.99930603               37.06368947                1.00000000               -0.05221645               -0.05229496                0.17426437               -0.00006247                0.00031075               -0.00030978
              -0.00196105                0.00413757               38.03093846                1.00000000               -0.02363929               -0.02194821                0.07318335                0.00186074               -0.00361021                0.00403452
               0.99780256                0.00230849               38.03164672                0.99999999               -0.02527607               -0.02542996                0.08431985                0.00178029               -0.00387390               -0.00141375
               1.99753343                0.00048240               38.03234676                0.01733588               -0.01717654               -0.02890529                0.09544304                0.01778271                0.02506753               -0.00158342
               2.99745903               -0.00102038               38.03363521                0.01000001               -0.06019451                0.01496033                0.02398126                0.12528617                0.08018652               -0.00668088
               3.99632954                0.00081250               38.03540734                0.01000000               -0.21955736                0.09723655                0.11893845                0.17819023                0.12146919               -0.00019135
               4.99306788                0.00749483               38.03757871                0.01007838               -0.55296278                0.11463809                0.11085504                0.52810993                0.14725639               -0.00228556
               5.98527029                0.02093720               38.04016835                0.11103162               -0.40409910               -0.02778666                0.09096779                0.58154010                0.08367733               -0.00118525
               6.98498590                0.02278027               38.04164041                0.99694088               -0.02966865               -0.02979010                0.09892724                0.00157562                0.01682406               -0.00449045
               7.98467691                0.02462080               38.04288980                1.00000000               -0.03210241               -0.03230350                0.10700362                0.00120457                0.00766313               -0.00044567
               8.98434385                0.02646429               38.04417451                1.00000000               -0.03450459               -0.03473208                0.11512513                0.00120920                0.00762375                0.00094009
               9.98398682                0.02831281               38.04542162                1.00000000               -0.03570311               -0.03724144                0.12317077                0.00105347                0.00571024                0.00522783
              -0.00011335                1.00391809               38.03080083                1.00000000               -0.02386958               -0.02202791                0.07396127                0.00017602                0.00154869                0.00462865
               0.99964795                1.00205419               38.03150670                0.07853140               -0.02554790               -0.02563451                0.08514553                0.00011109                0.00371222               -0.00348628
               1.99937569                1.00019334               38.03225568                0.01000000               -0.05505554               -0.02836328                0.09642392                0.04205055                0.03688546                0.02347146
               2.99854684                0.99912923               38.03362948                0.01000001               -0.27609241                0.01348941                0.05393897                0.12064413                0.11925380                0.02586613
               3.99385384                1.00178486               38.03534685                0.01000000               -0.51301055                0.07377691                0.11992027                0.39322048                0.09441567                0.02279641
               4.98828663                1.00864121               38.03721221                0.01000000               -0.52054381                0.04183310                0.10744255                0.80511354                0.09475268                0.01186118
               5.98344296                1.02065933               38.03936735                0.01000001               -0.25633881               -0.28703987                0.09232177                0.76327720                0.05324377               -0.00703792
               6.98315985                1.02248237               38.04075851                0.99429568               -0.02980083               -0.02998631                0.10025451                0.00057102                0.00796680               -0.00434450
               7.98284695                1.02429777               38.04200222                1.00000000               -0.03249572               -0.03249491                0.10830455               -0.00003742                0.00113310               -0.00034053
               8.98250994                1.02611697               38.04325414                0.99999999               -0.03490572               -0.03491817                0.11638231               -0.00003889                0.00110023                0.00065636
               9.98214883                1.02794040               38.04449684                0.99999998               -0.03611052               -0.03742320                0.12442344               -0.00020292                0.00055578                0.00650488
               0.00177028                2.00369701               38.03067123                0.01000001               -0.02407524                0.01671495                0.07482236                0.03809028                0.00205960                0.11754231
               1.00152953                2.00179580               38.03132593                0.01000000               -0.02354406               -0.10501416                0.08589158                0.03767800                0.03644938                0.10044200
               2.00129940                1.99991513               38.03267103                0.01000001               -0.16245683               -0.11588407                0.08380652                0.09075048                0.08163153                0.09377101
               2.99828039                1.99924941               38.03424804                0.01000000               -0.33087164               -0.04473081                0.10528155                0.29745411                0.06548518                0.06281338
               3.99468197                2.00228803               38.03557393                0.01000000               -0.39923558               -0.02850082                0.11006904                0.71549687                0.05517179                0.05124451
               4.99029568                2.00833149               38.03700923                0.01000001               -0.39936501               -0.12199791                0.11003491                1.01398537                0.04557792                0.03706324
               5.98669467                2.01519640               38.03844427                0.01000000               -0.44683991               -0.39781489                0.10802027                1.09516975                0.03350132                0.01366917
               6.98135888                2.02218055               38.03987482                0.01000000               -0.28265519               -0.22417572                0.10160793                0.64753555                0.00531932                0.02641417
               7.98104156                2.02397091               38.04111447                0.13296422               -0.03292199               -0.03288569                0.10962829                0.00025711               -0.00547283                0.00034940
               8.98070044                2.02576593               38.04232834                0.99999999               -0.03528289               -0.03521384                0.11757945                0.00002262               -0.00391939               -0.00151222
               9.98033591                2.02756435               38.04360003                1.00000000               -0.03645373               -0.03779188                0.12559934               -0.00015495               -0.00114703                0.00644830
               0.00445089                3.00425239               38.03279062                0.01005858               -0.02674946                0.05335984                0.08839170                0.04762355               -0.00179956                0.25278322
               1.00418340                2.99995390               38.03326808                0.01000001               -0.03569045               -0.23155089                0.09525017                0.16972159                0.01293215                0.18823490
               2.00373708                2.99787566               38.03400513                0.01000000               -0.10301887               -0.24405339                0.09875677                0.38761448                0.03613090                0.12225443
               3.00212302                2.99823461               38.03492423                0.01000000               -0.23276910               -0.16431326                0.10820997                0.69792700                0.04446872                0.07609467
               3.99908170                3.00121484               38.03598912                0.01022300               -0.32325246               -0.16054130                0.11428157                0.96603238                0.04543933                0.06368886
               4.99565797                3.00620125               38.03715462                0.01000000               -0.37921975               -0.22156957                0.11546732                1.19395725                0.04514595                0.06568213
               5.99149730                3.01270303               38.03841609                0.01000001               -0.41609550               -0.28093678                0.11538305                1.22100083                0.03191097                0.08005910
               6.98733606                3.01799886               38.03960519                0.01000001               -0.61152985               -0.34670547                0.11508583                1.27495362               -0.01316298                0.08960042
               7.97926671                3.02364005               38.04023984                0.01000001               -0.42095560               -0.25372246                0.10635890                1.02870243               -0.04433661                0.10820110
               8.97891695                3.02541269               38.04136590                0.01000000               -0.03589074               -0.30417893                0.11870142                0.78330474               -0.01078072                0.10754972
               9.97854889                3.02718456               38.04267750                0.70130870               -0.03680547               -0.66541693                0.12678508                0.90919678               -0.00164595                0.09208530
               0.01131973                4.00476421               38.03518070                0.01196139               -0.00190362               -0.03655350                0.08884389                0.19431768               -0.00470399                0.25256684
               1.01130069                3.99716478               38.03515462                0.01000000               -0.02743722               -0.32398449                0.10889459                0.49168054                0.00070458                0.15734707
               2.01077098                3.99503406               38.03524382                0.01000000               -0.12004704               -0.28995546                0.10776771                0.82851814                0.01000534                0.12021648
               3.00889975                3.99596315               38.03576607                0.01021936               -0.23675035               -0.23986149                0.11332628                0.99475133                0.03978029                0.07832712
               4.00603598                3.99907721               38.03657774                0.01000000               -0.31065563               -0.23814291                0.11743130                1.17663282                0.05870528                0.07375489
               5.00268664                4.00390010               38.03767763                0.01000001               -0.33594478               -0.25316494                0.12087271                1.29783090                0.07114064                0.09342768
               5.99931708                4.00957766               38.03897935                0.01000001               -0.33828511               -0.31912359                0.12313268                1.38275969                0.06906367                0.12515764
               6.99592094                4.01524644               38.04027503                0.01001954               -0.25576521               -0.35650328                0.12446782                1.37214433                0.05403002                0.16608880
               7.99420178                4.01889646               38.04151265                0.01001727               -0.15494515               -0.49447921                0.12730794                1.47165015                0.03943279                0.22367594
               8.99282203                4.01968235               38.04262330                0.01000000                0.03871663               -0.58451124                0.13087418                1.05626906                0.01622821                0.23580570
               9.99497611                4.01425601               38.04349727                0.01018061                0.21540758               -0.92512342                0.13746022                0.80351719                0.01418807                0.18530076
               0.02353611                5.00352132               38.03722685                0.01057410                0.02110446               -0.44622540                0.07213317                0.52107887               -0.05461426                0.29902677
               1.02374716                4.99347421               38.03689221                0.01000000               -0.10135184               -0.26675093                0.09501539                0.93909491               -0.04136312                0.20107493
               2.02150908                4.99207655               38.03650250                0.01000001               -0.28861284               -0.23651148                0.11419028                1.11739536                0.00142571                0.08752336
               3.01797490                4.99343738               38.03658273                0.01000000               -0.34158356               -0.26827134                0.11607911                1.20562654                0.04987938                0.06712923
               4.01467740                4.99645199               38.03730165                0.01000001               -0.34303850               -0.25742438                0.12140716                1.27906930                0.09503738                0.07535008
               5.01111413                5.00113795               38.03852399                0.01000001               -0.34356212               -0.26910034                0.12610315                1.33498315                0.12212548                0.11000744
               6.00780616                5.00632056               38.04004860                0.01000562               -0.28269872               -0.31844102                0.13016928                1.29432984                0.13167660                0.15964335
               7.00546016                5.01086879               38.04170709                0.01000000               -0.17711820               -0.42333621                0.13395863                1.20184492                0.12679182                0.21874351
               8.00426380                5.01375047               38.04331468                0.01000001               -0.03886903               -0.50726368                0.13818985                0.99757195                0.10446459                0.27122381
               9.00468277                5.01372247               38.04461891                0.01000000                0.06040589               -0.54298779                0.14348824                0.67755347                0.06374977                0.30013549
              10.00547192                5.00868209               38.04533842                0.01131843                0.07891407               -0.38087893                0.15071141                0.33206058                0.04166600                0.27047508
               0.04183552                5.99583970               38.03995720                0.23068805               -0.03081604               -0.39749550                0.09587872                0.71518243               -0.00345135                0.16167489
               1.04152736                5.99182976               38.03888706                0.01000001               -0.43398981               -0.09757237                0.10328739                0.81345839               -0.02514453                0.10463037
               2.03315572                5.99030383               38.03736965                0.01000000               -0.64452556               -0.22984902                0.10895291                1.12413315               -0.00933513                0.05633346
               3.02863685                5.99059772               38.03728573                0.01000001               -0.46194658               -0.25763330                0.11769720                1.18028035                0.08654651                0.03733774
               4.02391679                5.99392872               38.03804957                0.01000001               -0.45595607               -0.24609771                0.12475626                1.30952854                0.14717266                0.06045063
               5.01951772                5.99851809               38.03952035                0.01000632               -0.42219757               -0.21011594                0.13103533                1.24443388                0.19144959                0.11314817
               6.01547284                6.00320884               38.04148528                0.01000000               -0.34948997               -0.25534558                0.13643815                1.07061625                0.21436629                0.18062368
               7.01252792                6.00677971               38.04370071                0.01000001               -0.20866511               -0.35158239                0.14120868                0.82703908                0.21390781                0.25817509
               8.01129954                6.00875118               38.04585020                0.01000000               -0.05432228               -0.45896459                0.14849017                0.57234844                0.18763207                0.33769160
               9.01144148                6.00882259               38.04765421                0.01069615                0.01992681               -0.43544601                0.15573281                0.31160160                0.11991235                0.37133267
              10.01169807                6.00663843               38.04839620                0.01000000                0.02565931               -0.12929869                0.16261465                0.15055631                0.07064743                0.35784810
               0.04585965                6.99557141               38.04050203                0.99900190               -0.03074533               -0.02823993                0.09865246               -0.00046808               -0.01051740                0.03431663
               1.04555220                6.99152277               38.03924843                1.00000000               -0.03179360               -0.03136147                0.10589953               -0.00043679               -0.01027838                0.01279299
               2.04522378                6.98747957               38.03798768                0.01000000               -0.37982884               -0.15839101                0.11321420                0.64409510                0.03513425                0.01387177
               3.03795562                6.98828472               38.03763495                0.01000001               -0.61380873               -0.37651919                0.11874868                1.21644823                0.11807195               -0.04521375
               4.03294760                6.99153003               38.03856762                0.01001979               -0.56164684               -0.14280119                0.12728496                1.24311555                0.21639223                0.03500180
               5.02672268                6.99693563               38.04054063                0.01000000               -0.59953678               -0.07938195                0.13515712                1.08980209                0.28018083                0.10635446
               6.02095687                7.00121365               38.04312842                0.01000001               -0.51320415               -0.10191327                0.14088974                0.75753389                0.31555537                0.18719189
               7.01645860                7.00383714               38.04613936                0.01000000               -0.36444912               -0.20470353                0.14850787                0.38920052                0.32794572                0.28379910
               8.01366788                7.00457118               38.04930127                0.01000002               -0.17155209               -0.31872584                0.14622231                0.09368323                0.28242771                0.39689793
               9.01302756                7.00501355               38.05148710                0.01000002               -0.04082593               -0.36493049                0.16413879               -0.05760243                0.15092915                0.51240082
              10.01285137                7.00609612               38.05223957                0.01000001               -0.01761916               -0.09696095                0.17540857               -0.07399534                0.08230848                0.57302511
               0.04992344                7.99527490               38.04066721                1.00000000               -0.03129842               -0.02995410                0.10040223                0.00034920               -0.00097534                0.01990439
               1.04961046                7.99120253               38.03939332                0.99999999               -0.03238853               -0.03232488                0.10785930                0.00007124               -0.00073301                0.00324206
               2.04927567                7.98713601               38.03811824                0.26995598               -0.03475551               -0.03465225                0.11524337               -0.00036181               -0.00469817               -0.01332568
               3.04891535                7.98306734               38.03676317                0.01000001               -0.45737457               -0.27900148                0.11701615                0.94850361                0.16525748               -0.07897485
               4.04012818                7.99107270               38.03889390                0.01002560               -0.86426009                0.01035969                0.13105571                1.22255462                0.33273785                0.01832999
               5.03163015                7.99693045               38.04145472                0.01000001               -0.82030875                0.10791606                0.13878592                0.81887853                0.37067618                0.08607767
               6.02372201                8.00117058               38.04474192                0.01000000               -0.73378704                0.08981459                0.14357959                0.41733158                0.42830245                0.17342158
               7.01695441                8.00268564               38.04879023                0.01000001               -0.58626061                0.00633066                0.14421323                0.01397099                0.47026675                0.26242109
               8.01199680                8.00237667               38.05315441                0.01000002               -0.40949583               -0.11870388                0.16855389               -0.41893609                0.45978709                0.45119105
               9.00876449                8.00152398               38.05762678                0.01212815               -0.19718846               -0.23468069                0.20447624               -0.52365328                0.30861354                0.67350426
              10.00805303                8.00469921               38.05974517                0.01000000               -0.07114649               -0.31565877                0.19781758               -0.33958485                0.19545116                0.65372451
               0.05401138                8.99497233               38.04091347                1.00000000               -0.03188695               -0.03059563                0.10247660                0.00035209                0.00254809                0.01936615
               1.05369251                8.99087627               38.03955744                0.99999998               -0.03298243               -0.03295495                0.10993348                0.00004893                0.00203024                0.00299986
               2.05335173                8.98678653               38.03819060                0.99999996               -0.03517532               -0.03522695                0.11740534                0.00011036               -0.00312171               -0.00940126
               3.05298901                8.98270469               38.03673526                0.01000000               -0.49080783               -0.03707489                0.12490817                0.65573653                0.18214126               -0.02097655
               4.04353558                8.99173723               38.03908117                0.01000000               -0.99933187                0.23818764                0.13414190                0.85139894                0.38272021                0.00507924
               5.03300237                8.99909396               38.04207360                0.01000000               -0.99936335                0.26394675                0.14272456                0.49233038                0.43949019                0.05133864
               6.02354831                9.00300994               38.04609452                0.01076091               -0.87352184                0.21937251                0.14841568                0.14510561                0.49923897                0.11319770
               7.01553193                9.00396376               38.05068427                0.01000002               -0.85487452                0.19176260                0.15215134               -0.13223064                0.65607757                0.15124332
               8.00645082                9.00219710               38.05802432                0.01275817               -0.76499940                0.10829000                0.16558437               -0.47032220                0.75595358                0.35022687
               9.00023195                9.00031993               38.06538566                0.99999997               -0.33708042               -0.08629805                0.17412992               -0.52049300                0.36754676                0.38620023
               9.99970921                8.99978294               38.06538987                0.99999999               -0.05227330               -0.27194254                0.17432396               -0.44399981               -0.00035019                0.27982847
               0.05812261                9.99466299               38.04106295                1.00000000               -0.03253653               -0.03093357                0.10454761               -0.00083388                0.01347220                0.01452379
               1.05779724                9.99054343               38.03969650                1.00000000               -0.03365713               -0.03328371                0.11201342               -0.00110330                0.01688045                0.00153816
               2.05744946                9.98643147               38.03840336                0.99999997               -0.03589297               -0.03550533                0.11951233               -0.00110676                0.01670720               -0.00277521
               3.05707938                9.98232584               38.03704221                0.46052232               -0.83412858               -0.03788472                0.12696960                0.87928616                0.18600222               -0.00479063
               4.04076689                9.99583645               38.03914700                0.01000001               -1.34376709                0.40992232                0.13658645                0.71730886                0.36831251                0.00951446
               5.03020404               10.00220939               38.04217404                0.01000001               -0.95062865                0.31154332                0.14629303                0.20624594                0.44528434                0.03513917
               6.02175432               10.00555803               38.04642498                0.01000001               -0.75407018                0.25480875                0.15286955                0.03617600                0.50766729                0.06811817
               7.01512264               10.00652089               38.05107361                0.01024041               -0.77600731                0.25571371                0.15783844               -0.09170797                0.71980539                0.07917524
               8.00623417               10.00454247               38.05979622                0.01000002               -0.71769235                0.23453644                0.15693358               -0.35780834                0.75564070                0.20950850
               9.00076879                9.99979802               38.06542680                0.99999999               -0.29935796               -0.05219122                0.17384133               -0.21042086                0.28159172                0.00027354
              10.00024701                9.99926036               38.06543100                1.00000000               -0.05217753               -0.05225816                0.17403532                0.00001398                0.00031300               -0.00031237
              -0.00276157                0.00431192               39.03166607                1.00000000               -0.02348422               -0.02177218                0.07230849                0.00206487               -0.00369119                0.00398763
               0.99700358                0.00243021               39.03248937                0.99999999               -0.02522714               -0.02546894                0.08416424                0.00188381               -0.00394897               -0.00149598
               1.99673388                0.00055320               39.03330430                0.01000000               -0.01759448               -0.02917058                0.09601809                0.01050749               -0.03084648               -0.00154314
               2.99665169               -0.00114612               39.03359061                0.01000001               -0.07966453                0.01813218                0.12759492                0.11325765                0.06221064                0.05379781
               3.99514059                0.00098583               39.03668265                0.01000000               -0.23142942                0.09467918                0.10918754                0.19910993                0.12536205                0.01375575
               4.99202310                0.00786388               39.03869609                0.01000000               -0.55520661                0.11656783                0.09766657                0.54858010                0.09633898                0.00741049
               5.98403646                0.02171933               39.04107274                0.10266097               -0.41348596               -0.02752773                0.08996205                0.59991839                0.06904417               -0.00128506
               6.98375339                0.02361088               39.04262493                0.99529134               -0.02950334               -0.02956373                0.09808968                0.00177415                0.01683413               -0.00439553
               7.98344639                0.02549760               39.04395726                1.00000000               -0.03196989               -0.03219630                0.10655923                0.00123483                0.00779082               -0.00038074
               8.98311399                0.02738779               39.04532549                1.00000000               -0.03449196               -0.03473653                0.11507821                0.00124105                0.00770012                0.00093950
               9.98275655                0.02928363               39.04665479                1.00000000               -0.03574343               -0.03734110                0.12344388                0.00107208                0.00572294                0.00522521
              -0.00085922                1.00409419               39.03153836                0.99627863               -0.02390046               -0.02194303                0.07368849                0.00027562                0.00164486                0.00460219
               0.99890178                1.00217552               39.03235986                0.09581691               -0.02568319               -0.02576994                0.08559113                0.00009815                0.00379857               -0.00362444
               1.99862712                1.00026149               39.03322544                0.01000000               -0.06669116               -0.02905946                0.09755209                0.03598913                0.00141125                0.01922080
               2.99756796                0.99903520               39.03400422                0.01000001               -0.30002151                0.01614604                0.12147096                0.12375175                0.00059619                0.08727773
               3.99262669                1.00193262               39.03663378                0.01000000               -0.52129012                0.07163836                0.11168310                0.42830714                0.07765464                0.01123006
               4.98714215                1.00902956               39.03826541                0.01000000               -0.52322715                0.04259478                0.10296229                0.83491477                0.04151838                0.02278664
               5.98216215                1.02144406               39.04028652                0.01000001               -0.26300806               -0.29597939                0.09151019                0.78933209                0.04238999                0.00029576
               6.98188199                1.02331524               39.04175777                0.99325652               -0.02959319               -0.02980948                0.09968622                0.00074712                0.00791902               -0.00428776
               7.98157028                1.02517564               39.04308390                1.00000000               -0.03243028               -0.03242609                0.10808198               -0.00007034                0.00118423               -0.00029546
               8.98123339                1.02704043               39.04441849                0.99999999               -0.03494208               -0.03494876                0.11649707               -0.00005781                0.00112070                0.00063256
               9.98087144                1.02891021               39.04574323                0.99999998               -0.03619452               -0.03754702                0.12485175               -0.00023756                0.00054455                0.00649744
               0.00108129                2.00387306               39.03141962                0.01000000               -0.02430468                0.01873399                0.07514177                0.04164091                0.00212628                0.12207158
               1.00083825                2.00191481               39.03218863                0.01000000               -0.02436568               -0.11136803                0.08694838                0.04377094                0.03232268                0.10577629
               2.00059398                1.99997201               39.03356714                0.01000001               -0.16913214               -0.11968973                0.09192515                0.09239007                0.08291089                0.09481174
               2.99745560                1.99917680               39.03537292                0.01000000               -0.34408017               -0.04044068                0.10738378                0.31888146                0.07561497                0.09272628
               3.99371238                2.00241859               39.03665750                0.01000000               -0.41228193               -0.03024333                0.11205501                0.76357529                0.03215563                0.03555435
               4.98920996                2.00871578               39.03811218                0.01000001               -0.40874759               -0.12616780                0.10933336                1.05375311                0.03190955                0.04106585
               5.98553742                2.01579974               39.03952576                0.01000000               -0.45866103               -0.41088476                0.10716744                1.13396851                0.01813578                0.02276828
               6.98003674                2.02301469               39.04088923                0.01000000               -0.29088129               -0.23138403                0.10132938                0.67071773               -0.00216990                0.03252498
               7.97971980                2.02484908               39.04221066                0.13593142               -0.03292439               -0.03293834                0.10963655                0.00030608               -0.00555825               -0.00101354
               8.97937826                2.02668882               39.04350557                0.99999999               -0.03537850               -0.03530532                0.11787648                0.00002573               -0.00399639               -0.00158671
               9.97901223                2.02853269               39.04485917                1.00000000               -0.03660283               -0.03798425                0.12622231               -0.00019355               -0.00120178                0.00644117
               0.00389010                3.00446887               39.03364216                0.01030906               -0.02118557                0.05427149                0.08175566                0.05304806                0.00166849                0.24830511
               1.00367824                2.99994816               39.03425236                0.01000001               -0.03385856               -0.24024455                0.09601492                0.18468248                0.00956983                0.20863155
               2.00321293                2.99786770               39.03501818                0.01000000               -0.10896207               -0.24655215                0.10073593                0.40567554                0.02484979                0.13819494
               3.00149900                2.99822639               39.03599504                0.01000000               -0.24268542               -0.16343847                0.10817787                0.72815181                0.03620121                0.07479616
               3.99835922                3.00132775               39.03713748                0.01022474               -0.33314676               -0.16358949                0.11372905                1.00890639                0.03907022                0.06534119
               4.99483607                3.00650621               39.03831262                0.01000000               -0.39083049               -0.22878301                0.11577068                1.24191672                0.03418460                0.06808646
               5.99054261                3.01322636               39.03957128                0.01000001               -0.42945274               -0.28963729                0.11525464                1.26550768                0.02231360                0.08599982
               6.98624701                3.01868756               39.04075598                0.01000001               -0.63201673               -0.35813384                0.11507799                1.32044512               -0.02586476                0.09968566
               7.97790227                3.02451687               39.04132244                0.01000001               -0.43483573               -0.26305903                0.10937089                1.06539928               -0.05074922                0.11580248
               8.97755030                3.02633432               39.04255541                0.01011774               -0.03612196               -0.31230735                0.11920852                0.80929498               -0.00953908                0.11283700
               9.97717983                3.02815053               39.04394954                0.72607970               -0.03704614               -0.68594044                0.12760733                0.93986230               -0.00168908                0.09578435
               0.01118369                4.00495848               39.03594983                0.01118736               -0.00506196               -0.01214147                0.06563871                0.16851314               -0.01663443                0.22902293
               1.01113307                3.99710992               39.03619523                0.01000000               -0.03772162               -0.29525010                0.09157523                0.48057228               -0.02303246                0.19609009
               2.01042926                3.99504097               39.03631423                0.01000000               -0.12872419               -0.29995417                0.10495284                0.85620125               -0.00556337                0.12625068
               3.00855859                3.99590803               39.03689722                0.01022084               -0.24092852               -0.24417179                0.11155017                1.03100945                0.03222843                0.08118316
               4.00561069                3.99914681               39.03775236                0.01000000               -0.32044471               -0.24340124                0.11724962                1.22416847                0.05190555                0.07460116
               5.00214969                4.00414012               39.03888967                0.01000001               -0.34722312               -0.25974788                0.12108474                1.34728826                0.06474740                0.09677544
               5.99866622                4.01000700               39.04021235                0.01000001               -0.34972790               -0.32819201                0.12334279                1.43320706                0.06191693                0.13117699
               6.99515513                4.01585201               39.04152013                0.01002716               -0.26426017               -0.36716041                0.12454934                1.41963079                0.04774250                0.17445527
               7.99338102                4.01958790               39.04278736                0.01003995               -0.16123178               -0.51076465                0.12755822                1.52476826                0.03447644                0.23739034
               8.99193050                4.02044267               39.04393330                0.01000000                0.03980178               -0.60607845                0.13220953                1.09696279                0.01242834                0.24601800
               9.99417706                4.01481388               39.04485673                0.01000000                0.22465584               -0.96083446                0.14022847                0.83466001                0.01086019                0.19539855
               0.02295750                5.00422604               39.03773812                0.01000000                0.02497066               -0.45750782                0.07018936                0.56422094               -0.02654260                0.28699944
               1.02320721                4.99404315               39.03773024                0.01000000               -0.07093316               -0.27111159                0.08315301                0.95210848               -0.03756053                0.21747231
               2.02153884                4.99186862               39.03759822                0.01000001               -0.25969264               -0.24580816                0.10405976                1.13479889                0.00206473                0.08960620
               3.01801335                4.99334295               39.03773677                0.01000000               -0.34641670               -0.27408497                0.11429202                1.25748543                0.04472469                0.06705984
               4.01461050                4.99645973               39.03851573                0.01000001               -0.35458577               -0.26268663                0.12107999                1.32955701                0.09135892                0.07687559
               5.01092164                5.00131125               39.03978628                0.01000001               -0.35578217               -0.27520673                0.12630958                1.38667571                0.11824779                0.11342253
               6.00749486                5.00666252               39.04135139                0.01001183               -0.29314557               -0.32661173                0.13040137                1.34329291                0.12749478                0.16512099
               7.00505873                5.01134435               39.04304487                0.01000000               -0.18439397               -0.43465696                0.13369052                1.24724537                0.12260187                0.22648294
               8.00380698                5.01430158               39.04469340                0.01000001               -0.03975751               -0.52098351                0.13742404                1.03280280                0.10053374                0.28143645
               9.00426358                5.01421275               39.04605664                0.01000000                0.06618222               -0.56629721                0.14339078                0.70120972                0.06176916                0.31067788
              10.00513062                5.00893384               39.04685590                0.01000001                0.08670478               -0.40284720                0.15118479                0.34424203                0.04108067                0.28129833
               0.04283389                5.99580833               39.04090147                0.20624961               -0.03012214               -0.43383214                0.09290892                0.78859890               -0.00354261                0.18234840
               1.04253267                5.99168768               39.03990903                0.01000001               -0.45042267               -0.13278775                0.10106988                0.88893746               -0.02624751                0.11276738
               2.03382544                5.99012480               39.03844856                0.01000000               -0.67077424               -0.23173396                0.10765745                1.17723437               -0.00999820                0.05737081
               3.02911718                5.99042633               39.03846048                0.01000001               -0.47959518               -0.26289650                0.11689293                1.22847511                0.08686246                0.03670085
               4.02423353                5.99389307               39.03929557                0.01000001               -0.47183842               -0.25053371                0.12455548                1.36156086                0.14633334                0.06164392
               5.01968041                5.99863598               39.04083025                0.01001157               -0.43672760               -0.21416113                0.13110577                1.29367320                0.18994391                0.11583900
               6.01549898                6.00347476               39.04284604                0.01000000               -0.36097163               -0.26106670                0.13624647                1.11538023                0.21258110                0.18482214
               7.01246098                6.00715887               39.04510994                0.01000001               -0.21651524               -0.36092823                0.14104638                0.86509223                0.21243057                0.26454119
               8.01116868                6.00916823               39.04732629                0.01000000               -0.05692753               -0.46502645                0.14638818                0.60064268                0.18815406                0.34344066
               9.01132243                6.00911673               39.04921089                0.01072456                0.02255225               -0.44861167                0.15473833                0.32060668                0.11982951                0.38279387
              10.01161972                6.00675693               39.05003023                0.01020331                0.02972890               -0.14071894                0.16331329                0.15287944                0.07095518                0.36762425
               0.04697077                6.99554940               39.04147713                0.99712315               -0.03012867               -0.02750356                0.09627441               -0.00037886               -0.01073730                0.03448868
               1.04666948                6.99138740               39.04029973                0.99989379               -0.03129454               -0.03086446                0.10430028               -0.00038405               -0.01041096                0.01297640
               2.04634487                6.98723394               39.03911581                0.01000000               -0.39274459               -0.16167800                0.11240010                0.66894229                0.03453614                0.01509509
               3.03881459                6.98808502               39.03882959                0.01000001               -0.63564033               -0.38559608                0.11972505                1.26217901                0.11865715               -0.04658319
               4.03363207                6.99144905               39.03984414                0.01002801               -0.58005887               -0.14492698                0.12793503                1.28918447                0.21786774                0.03695361
               5.02721341                6.99702803               39.04188679                0.01000000               -0.61762461               -0.08118689                0.13491598                1.13542927                0.27984024                0.10842428
               6.02127958                7.00144119               39.04453275                0.01000001               -0.52731522               -0.10305230                0.14065558                0.79401286                0.31431903                0.18670492
               7.01666710                7.00412579               39.04760677                0.01000000               -0.37087993               -0.21031419                0.14688443                0.41807355                0.32725935                0.28707556
               8.01386198                7.00500105               39.05077263                0.01000001               -0.17900493               -0.32920535                0.15295903                0.10801169                0.28472688                0.40823141
               9.01308701                7.00524052               39.05315104                0.01000002               -0.04770886               -0.38700236                0.16865801               -0.07979451                0.16206033                0.53932241
              10.01290780                7.00611946               39.05400090                0.01000001               -0.01792065               -0.10566344                0.17637524               -0.09700102                0.08767098                0.58742588
               0.05115032                7.99525826               39.04166456                1.00000000               -0.03098659               -0.02955769                0.09901806                0.00046460               -0.00097972                0.01984748
               1.05084045                7.99107039               39.04046877                0.99999999               -0.03218300               -0.03213721                0.10719806                0.00003244               -0.00074096                0.00324750
               2.05050666                7.98689124               39.03927114                0.27799227               -0.03474025               -0.03470579                0.11534325               -0.00032126               -0.00675374               -0.01327263
               3.05014565                7.98271441               39.03795314                0.01000001               -0.47162190               -0.28698843                0.12025224                0.98083491                0.16610866               -0.07857530
               4.04107422                7.99099453               39.04021422                0.01004920               -0.88743892                0.00923319                0.13269255                1.26909390                0.33543390                0.02065666
               5.03239687                7.99701225               39.04283600                0.01000001               -0.83963713                0.11033939                0.13829206                0.85412798                0.36987909                0.08773298
               6.02428148                8.00141372               39.04615500                0.01000000               -0.75671398                0.09333347                0.14275123                0.44256013                0.42371623                0.17345710
               7.01726259                8.00295259               39.05029121                0.01000001               -0.60336501                0.00751309                0.15158017                0.02307019                0.46291596                0.25834233
               8.01221418                8.00258412               39.05486587                0.01000002               -0.43272294               -0.12976020                0.17095008               -0.43621369                0.48250639                0.46345299
               9.00860813                8.00137668               39.05969127                0.01246364               -0.21461813               -0.24785689                0.20297420               -0.54019200                0.32869158                0.68743275
              10.00792181                8.00464366               39.06171104                0.01000000               -0.06863159               -0.31898737                0.19891166               -0.33366758                0.18909466                0.64950736
               0.05535578                8.99495825               39.04193613                1.00000000               -0.03186415               -0.03046808                0.10204335                0.00046935                0.00257004                0.01945676
               1.05503714                8.99074465               39.04065805                0.99999998               -0.03306742               -0.03303738                0.11019680               -0.00000053                0.00206404                0.00305401
               2.05469443                8.98653982               39.03936915                0.99999996               -0.03545718               -0.03552309                0.11833067                0.00002494               -0.00307285               -0.00932589
               3.05432800                8.98234525               39.03799194                0.01013651               -0.49891612               -0.03767374                0.12644040                0.67393214                0.18247748               -0.01881151
               4.04471611                8.99163372               39.04042194                0.01000000               -1.02256065                0.24147572                0.13671013                0.88746881                0.38667771                0.00381441
               5.03387678                8.99923481               39.04349490                0.01000000               -1.02628369                0.27206274                0.14340519                0.51359195                0.43954828                0.05336037
               6.02419044                9.00330786               39.04755742                0.01078602               -0.89593397                0.22516892                0.14583191                0.15587437                0.49547405                0.11746089
               7.01595810                9.00427605               39.05224886                0.01000002               -0.87384129                0.19679063                0.15665228               -0.12545146                0.64686508                0.14890552
               8.00671361                9.00240585               39.05965654                0.01260489               -0.78672395                0.11355522                0.16462418               -0.48136231                0.76643820                0.34632028
               9.00022363                9.00028338               39.06712815                0.99999997               -0.35065660               -0.08078087                0.17437492               -0.52539652                0.37301763                0.37030885
               9.99970048                8.99973971               39.06713314                0.99999999               -0.05231460               -0.27130658                0.17432693               -0.43820927               -0.00035592                0.26889703
               0.05958689                9.99464890               39.04211081                1.00000000               -0.03280230               -0.03093521                0.10502789               -0.00081398                0.01352586                0.01459508
               1.05925887                9.99040965               39.04082229                1.00000000               -0.03401671               -0.03350075                0.11317500               -0.00123296                0.01693936                0.00157531
               2.05890656                9.98618078               39.03960704                0.99999997               -0.03642373               -0.03590387                0.12126342               -0.00122327                0.01673506               -0.00276349
               3.05853039                9.98196094               39.03832349                0.49351616               -0.84862598               -0.03843181                0.12933394                0.90240284                0.18498191               -0.00482687
               4.04193404                9.99582405               39.04048665                0.01000003               -1.37679118                0.41903297                0.13980519                0.74642077                0.37412093                0.00529011
               5.03099457               10.00245350               39.04363440                0.01000000               -0.97881536                0.32186876                0.14784028                0.21643101                0.44722801                0.03717369
               6.02235773               10.00591710               39.04794852                0.01000001               -0.76695006                0.26092413                0.14942428                0.03847416                0.50497778                0.07345010
               7.01565557               10.00688840               39.05265111                0.01060096               -0.78890662                0.26123519                0.15851089               -0.08334712                0.72476818                0.07461629
               8.00657960               10.00485523               39.06139964                0.01000002               -0.74446184                0.24493807                0.16363628               -0.36976833                0.75707928                0.20347948
               9.00076633                9.99976106               39.06716520                0.99999999               -0.31673179               -0.05223191                0.17384083               -0.22761418                0.28830344                0.00027467
              10.00024496                9.99921753               39.06717017                1.00000000               -0.05213700               -0.05221824                0.17379284                0.00009521                0.00031568               -0.00031499
              -0.00368148                0.00447274               40.03238463                1.00000000               -0.02331773               -0.02161637                0.07142239                0.00228398               -0.00373580                0.00400696
               0.99608535                0.00253757               40.03333001                0.99999999               -0.02516309               -0.02551409                0.08396112                0.00197393               -0.00399009               -0.00150189
               1.99581526                0.00060924               40.03426712                0.01000001               -0.03802272               -0.02943293                0.09652272                0.02896930                0.04470277               -0.00153891
               2.99532489               -0.00077164               40.03618711                0.01000001               -0.10419824               -0.01358890                0.21683986                0.01135921                0.08126000               -0.00317976
               3.99373130                0.00118535               40.03759109                0.01000000               -0.23601637                0.08492567                0.10131157                0.20524521                0.07206533               -0.00416914
               4.99060457                0.00850439               40.03953204                0.01096874               -0.55044867                0.11764567                0.09576057                0.55089855                0.09351293                0.01788629
               5.98272232                0.02248394               40.04196759                0.09475041               -0.40832503               -0.02717130                0.08892576                0.60372411                0.06778277               -0.00138179
               6.98243807                0.02442670               40.04360221                0.99209287               -0.02950759               -0.02943754                0.09759028                0.00207694                0.01684511               -0.00424194
               7.98213217                0.02635991               40.04502098                1.00000000               -0.03188709               -0.03214510                0.10630449                0.00129174                0.00796033               -0.00029150
               8.98180032                0.02829707               40.04647607                1.00000000               -0.03447481               -0.03475268                0.11504148                0.00129617                0.00778918                0.00093095
               9.98144268                0.03024043               40.04789050                1.00000000               -0.03576465               -0.03744627                0.12369126                0.00109353                0.00573194                0.00522444
              -0.00172347                1.00425658               40.03227460                0.99202085               -0.02396955               -0.02190492                0.07357669                0.00039873                0.00169659                0.00462593
               0.99803684                1.00228243               40.03321852                0.11379087               -0.02584849               -0.02593748                0.08614114                0.00007244                0.00383975               -0.00365906
               1.99775956                1.00031491               40.03420672                0.01000000               -0.14432028               -0.02953068                0.09872391                0.03840558                0.04898828                0.01636298
               2.99515043                0.99909247               40.03605890                0.01000001               -0.33069134               -0.00576237                0.19317588                0.15485680                0.08902793                0.00093655
               3.99114574                1.00203461               40.03758051                0.01000000               -0.48430881                0.06550353                0.10237484                0.47214446                0.05184023                0.02135607
               4.98546425                1.00968085               40.03927145                0.01000000               -0.51736614                0.03006052                0.10468394                0.88193364                0.03379392                0.03218894
               5.98079841                1.02221223               40.04119755                0.01000001               -0.24717010               -0.30584682                0.09058953                0.80047452                0.03336634                0.00696758
               6.98052085                1.02413232               40.04275224                0.99283080               -0.02942545               -0.02969349                0.09928988                0.00093711                0.00788900               -0.00417595
               7.98020990                1.02603846               40.04416386                1.00000000               -0.03239156               -0.03239077                0.10795649               -0.00004461                0.00123349               -0.00022809
               8.97987302                1.02794954               40.04558409                0.99999999               -0.03498272               -0.03498968                0.11663238               -0.00003977                0.00113752                0.00060315
               9.97951025                1.02986597               40.04699387                0.99999998               -0.03627723               -0.03767875                0.12527311               -0.00025755                0.00053224                0.00648718
               0.00027479                2.00403464               40.03217406                0.01000000               -0.02463272                0.02158528                0.07577944                0.04778458                0.00216723                0.12262911
               1.00002846                2.00201882               40.03306490                0.01000000               -0.02507268               -0.10812474                0.08829709                0.04729612                0.02954092                0.10780206
               1.99977334                2.00001863               40.03450954                0.01000001               -0.16630635               -0.12112184                0.09585064                0.09130634                0.07833251                0.09422063
               2.99670233                1.99911311               40.03639572                0.01000000               -0.35937615               -0.04431239                0.10778641                0.40270539                0.06807550                0.04676107
               3.99258581                2.00249542               40.03781503                0.01000000               -0.43183596               -0.03038998                0.11588452                0.81961379                0.03310667                0.04816259
               4.98806562                2.00910560               40.03919589                0.01000001               -0.41527355               -0.14476788                0.10925156                1.11575952                0.02326860                0.04661293
               5.98428034                2.01636701               40.04058762                0.01000000               -0.47175169               -0.42378950                0.10559406                1.17145137                0.00701917                0.03315825
               6.97863058                2.02383283               40.04190140                0.01000000               -0.29831410               -0.23853270                0.10102642                0.69459161               -0.00897358                0.03869289
               7.97831406                2.02571209               40.04330720                0.13900407               -0.03292845               -0.03295238                0.10963567                0.00034205               -0.00568254               -0.00135363
               8.97797201                2.02759728               40.04468587                0.99999997               -0.03546936               -0.03539225                0.11819360                0.00004050               -0.00409050               -0.00165040
               9.97760467                2.02948686               40.04612447                1.00000000               -0.03673409               -0.03816449                0.12682167               -0.00021223               -0.00123491                0.00642574
               0.00326386                3.00468828               40.03442573                0.01000001               -0.02650873                0.06070329                0.07667288                0.05423830                0.00631485                0.24228815
               1.00299877                3.00011994               40.03518838                0.01000001               -0.03862309               -0.22050610                0.08853093                0.18256874                0.00386385                0.21481379
               2.00249140                2.99789248               40.03601985                0.01000000               -0.11355138               -0.25197979                0.09902713                0.41353345                0.01647030                0.14312212
               3.00072775                2.99820623               40.03708779                0.01000000               -0.24729378               -0.16340166                0.10813412                0.74690902                0.03274350                0.07635028
               3.99754552                3.00142681               40.03826370                0.01022571               -0.34099434               -0.16522228                0.11296277                1.05375449                0.03220893                0.06410020
               4.99390786                3.00678549               40.03947004                0.01000000               -0.40226550               -0.23718261                0.11575813                1.28828079                0.02672170                0.07303967
               5.98950021                3.01373644               40.04072118                0.01000001               -0.44201296               -0.29729587                0.11502795                1.31104009                0.01340783                0.09328847
               6.98506760                3.01936167               40.04190675                0.01000001               -0.65239592               -0.36930864                0.11527538                1.36565811               -0.03684585                0.11023433
               7.97645230                3.02537941               40.04242726                0.01000001               -0.44842679               -0.27193937                0.11084566                1.10220513               -0.05714779                0.12328384
               8.97609906                3.02724170               40.04375007                0.01000000               -0.03627266               -0.32479015                0.11971308                0.83762426               -0.00933241                0.11901569
               9.97572684                3.02910268               40.04522964                0.75131844               -0.03722223               -0.71146165                0.12838143                0.97318705               -0.00170184                0.10328944
               0.01049624                4.00524871               40.03649348                0.01002976               -0.00206008               -0.01893083                0.06576006                0.22385774               -0.01690520                0.24432428
               1.01047564                3.99760870               40.03698613                0.01000000               -0.02692636               -0.30050421                0.07883115                0.49336974               -0.02227841                0.20644789
               2.00995772                3.99497903               40.03734288                0.01000000               -0.11847302               -0.30790660                0.10028385                0.86444091                0.00089962                0.11975698
               3.00810618                3.99584508               40.03799707                0.01022249               -0.24380407               -0.24954541                0.10957421                1.07180405                0.02950187                0.08123765
               4.00508164                3.99919098               40.03892273                0.01000000               -0.32922925               -0.24902599                0.11676216                1.27132088                0.04811888                0.07630619
               5.00152160                4.00436195               40.04009933                0.01000001               -0.35783357               -0.26598323                0.12113466                1.39828388                0.05882747                0.10024535
               5.99792496                4.01042109               40.04144620                0.01000001               -0.36104115               -0.33735769                0.12375108                1.48409791                0.05481945                0.13756318
               6.99430078                4.01644666               40.04276602                0.01003592               -0.27234171               -0.37765180                0.12492526                1.46774000                0.04070297                0.18257017
               7.99247813                4.02027330               40.04406382                0.01006610               -0.16497754               -0.52695729                0.12737391                1.57326098                0.02958825                0.25067601
               8.99100122                4.02110147               40.04526749                0.01000000                0.04341589               -0.62916302                0.13238621                1.13204585                0.01582989                0.24855849
               9.99334645                4.01525763               40.04630184                0.01007228                0.23452238               -0.99840584                0.14351276                0.86402397                0.01739067                0.19800343
               0.02302103                5.00430967               40.03863063                0.01000000                0.01148163               -0.47505219                0.09419596                0.64268378                0.00464907                0.27634789
               1.02313585                4.99410985               40.03855527                0.01000000               -0.07385949               -0.30465472                0.08977468                1.02021762                0.00067060                0.19374808
               2.02154384                4.99173434               40.03858369                0.01000001               -0.25919805               -0.25226863                0.09935199                1.17760241                0.01639281                0.09311690
               3.01795188                4.99321532               40.03886857                0.01000000               -0.35443831               -0.28030845                0.11258627                1.30664210                0.04757327                0.06720799
               4.01445507                4.99644629               40.03972325                0.01000001               -0.36542307               -0.26788954                0.12079431                1.38212817                0.08945688                0.07832811
               5.01064342                5.00146583               40.04105018                0.01000001               -0.36788033               -0.28137946                0.12681398                1.43937656                0.11468590                0.11662693
               6.00709747                5.00698929               40.04265663                0.01001766               -0.30366187               -0.33485785                0.13117171                1.39313045                0.12233512                0.17005090
               7.00457019                5.01180863               40.04438090                0.01000000               -0.19173853               -0.44690117                0.13415871                1.29232431                0.11643911                0.23369198
               8.00326270                5.01484026               40.04606316                0.01000001               -0.04072630               -0.53662710                0.13675691                1.06666746                0.09542516                0.28938580
               9.00375566                5.01465844               40.04748672                0.01000000                0.07161615               -0.58586984                0.14097734                0.72136075                0.05807109                0.31834985
              10.00469502                5.00913456               40.04836212                0.01000001                0.09393591               -0.42058534                0.14907403                0.35421512                0.03762332                0.28769012
               0.04374955                5.99574767               40.04181538                0.18340117               -0.02942257               -0.44057859                0.08994832                0.82572719               -0.00367252                0.18195591
               1.04345532                5.99151561               40.04090846                0.01000001               -0.46726209               -0.14436481                0.09879382                0.93777216               -0.02689168                0.11985459
               2.03440430                5.98993366               40.03952280                0.01000000               -0.69641189               -0.23877268                0.10746091                1.22820538               -0.00974857                0.06146041
               3.02952708                5.99023891               40.03962358                0.01000001               -0.49653065               -0.26774585                0.11618320                1.27740338                0.08835039                0.03797593
               4.02447369                5.99383318               40.04054068                0.01000001               -0.48804754               -0.25479166                0.12475799                1.41440682                0.14630601                0.06282225
               5.01976613                5.99873436               40.04214246                0.01001786               -0.45144617               -0.21837264                0.13190808                1.34391040                0.18816387                0.11816642
               6.01544477                6.00372393               40.04421021                0.01000000               -0.37349227               -0.26752485                0.13739380                1.16000349                0.20928409                0.18814951
               7.01229629                6.00750863               40.04652163                0.01000001               -0.22415469               -0.37056205                0.14227874                0.90052726                0.20724644                0.26888945
               8.01096167                6.00954076               40.04877796                0.01000000               -0.05810739               -0.48220179                0.14647121                0.62154534                0.18505970                0.35086826
               9.01113414                6.00938408               40.05074898                0.01075792                0.02584130               -0.46694131                0.15236286                0.32949997                0.11994110                0.39397751
              10.01147850                6.00684592               40.05166246                0.01097659                0.03443617               -0.14853694                0.16021888                0.15668657                0.07338244                0.37787327
               0.04799969                6.99549810               40.04242752                0.99530158               -0.02943934               -0.02674051                0.09371238               -0.00025917               -0.01086362                0.03456539
               1.04770529                6.99122256               40.04133444                0.99742934               -0.03075222               -0.03032233                0.10258667               -0.00027326               -0.01051576                0.01303137
               2.04738464                6.98695889               40.04023569                0.01000000               -0.40524331               -0.16582200                0.11161530                0.69448832                0.03419811                0.01564762
               3.03960043                6.98786040               40.04002946                0.01000001               -0.65684409               -0.39527137                0.11989774                1.30794623                0.11938939               -0.04696394
               4.03424776                6.99135045               40.04112633                0.01003687               -0.59847722               -0.14625770                0.12841869                1.33591413                0.21859399                0.03927275
               5.02763088                6.99709837               40.04323895                0.01000000               -0.63622481               -0.08286784                0.13595638                1.18045763                0.27904164                0.10959310
               6.02152326                7.00163879               40.04594153                0.01000001               -0.54334911               -0.10544432                0.14219497                0.82976867                0.31262835                0.18781846
               7.01676390                7.00439739               40.04907705                0.01000000               -0.38525541               -0.21491176                0.14913203                0.43815034                0.32602510                0.29061682
               8.01381816                7.00519623               40.05236045                0.01000001               -0.18616994               -0.33894701                0.16026135                0.11037026                0.28199060                0.40901745
               9.01304050                7.00531961               40.05486026                0.01000002               -0.04565446               -0.40442778                0.17025131               -0.08366894                0.16207674                0.55620490
              10.01290507                7.00616383               40.05576708                0.01000001               -0.01354346               -0.11444018                0.17636605               -0.09973414                0.08671926                0.60639647
               0.05229544                7.99521286               40.04264757                1.00000000               -0.03063765               -0.02914416                0.09757006                0.00059280               -0.00095762                0.01984449
               1.05198906                7.99090916               40.04153728                0.99999999               -0.03196036               -0.03193679                0.10649101               -0.00000787               -0.00073514                0.00327851
               2.05165623                7.98661722               40.04042511                0.28432627               -0.03473084               -0.03473895                0.11543486               -0.00019635               -0.00797430               -0.01328358
               3.05129444                7.98233349               40.03916822                0.01000001               -0.48511144               -0.29511472                0.12237085                1.01380728                0.16650913               -0.07832908
               4.04195400                7.99090803               40.04154775                0.01007498               -0.91037469                0.00953161                0.13335248                1.31309647                0.33818050                0.02501098
               5.03308695                7.99707700               40.04422056                0.01000001               -0.86064387                0.11321952                0.13880576                0.88669937                0.36848913                0.09143683
               6.02474112                8.00161505               40.04759694                0.01000000               -0.77925468                0.09634255                0.14582790                0.46569779                0.42235236                0.17021796
               7.01750185                8.00321040               40.05182184                0.01000001               -0.62471325                0.00922878                0.15424441                0.03764977                0.47216892                0.25992017
               8.01224686                8.00276182               40.05657342                0.01000002               -0.45043474               -0.13032415                0.16989480               -0.44163690                0.49498082                0.46577453
               9.00849316                8.00129552               40.06168626                0.01280272               -0.22257335               -0.25337127                0.19826197               -0.55147566                0.34243566                0.69156174
              10.00779539                8.00455712               40.06372340                0.01000000               -0.06977696               -0.32310404                0.20173239               -0.33448800                0.18834249                0.64542521
               0.05661893                8.99491521               40.04295434                1.00000000               -0.03181586               -0.03036651                0.10163525                0.00059723                0.00259640                0.01953003
               1.05630077                8.99058382               40.04176137                0.99999998               -0.03312686               -0.03313516                0.11046182               -0.00001798                0.00207570                0.00310546
               2.05595639                8.98626411               40.04055721                0.99815123               -0.03575044               -0.03583974                0.11936344                0.00005120               -0.00309813               -0.00932525
               3.05558576                8.98195811               40.03926407                0.01007139               -0.50951106               -0.03836410                0.12834593                0.69409706                0.18428783               -0.01757972
               4.04576617                8.99154109               40.04181537                0.01000000               -1.04639539                0.24524047                0.13950368                0.91945296                0.37903789                0.01282553
               5.03465785                8.99936276               40.04494171                0.01000000               -1.05311721                0.27984312                0.14483377                0.53121657                0.43735118                0.05821075
               6.02470383                9.00356564               40.04901115                0.01081765               -0.91438671                0.23148946                0.14361936                0.16576226                0.50033470                0.11147862
               7.01637012                9.00458197               40.05381731                0.01000002               -0.89017672                0.19991677                0.16137455               -0.11554337                0.63955270                0.14798438
               8.00690029                9.00258974               40.06131681                0.01247107               -0.80772128                0.11820176                0.16616853               -0.48574848                0.76691225                0.34403989
               9.00021570                9.00025219               40.06887316                0.99999997               -0.36040861               -0.07830458                0.17463390               -0.53084201                0.37733685                0.35814375
               9.99969212                8.99970175               40.06887641                0.99999999               -0.05235743               -0.26885617                0.17432541               -0.43264528               -0.00036200                0.25576611
               0.06097016                9.99460553               40.04316350                1.00000000               -0.03303592               -0.03096870                0.10550987               -0.00078373                0.01355653                0.01462552
               1.06063980                9.99024646               40.04196000                1.00000000               -0.03435949               -0.03373639                0.11433390               -0.00135213                0.01692233                0.00160278
               2.06028297                9.98590043               40.04082862                0.99999998               -0.03701959               -0.03636861                0.12321725               -0.00135512                0.01664336               -0.00279808
               3.05989941                9.98156620               40.03962889                0.53984024               -0.86722845               -0.03919027                0.13207915                0.92698528                0.18820412               -0.00483876
               4.04293840                9.99581284               40.04194310                0.01039409               -1.41063410                0.42717532                0.14598496                0.77260606                0.36429190                0.01397467
               5.03168673               10.00267387               40.04513084                0.01000003               -1.00506182                0.33111023                0.15109849                0.22448690                0.44495533                0.03713292
               6.02283716               10.00624484               40.04941347                0.01000001               -0.77599210                0.26791949                0.14250074                0.04007698                0.51268416                0.07336074
               7.01616688               10.00720873               40.05424383                0.01098087               -0.79877484                0.26267651                0.16866075               -0.07627257                0.70298245                0.07375666
               8.00686167               10.00512586               40.06306895                0.01000002               -0.77012827                0.25361131                0.16625527               -0.37782763                0.75480110                0.19914976
               9.00076432                9.99972943               40.06890361                0.99999999               -0.33091489               -0.05227566                0.17384485               -0.24243088                0.29184664                0.00027601
              10.00024337                9.99917999               40.06890686                1.00000000               -0.05209491               -0.05217528                0.17353637                0.00018102                0.00031859               -0.00031789
              -0.00472704                0.00461213               41.03309451                0.99966796               -0.02316748               -0.02148439                0.07064526                0.00249050               -0.00371838                0.00405205
               0.99504129                0.00262313               41.03416859                0.99999999               -0.02510628               -0.02556929                0.08380141                0.00207041               -0.00399704               -0.00147393
               1.99477084                0.00064322               41.03523475                0.01800718               -0.00441822               -0.02968801                0.09699554                0.02074462                0.07689010               -0.00155154
               2.99495292               -0.00095331               41.03792740                0.01000001               -0.07669388               -0.02013681                0.12713098                0.11619949                0.08679457               -0.02629323
               3.99323696                0.00092361               41.03870888                0.01000000               -0.27180278                0.12121985                0.11878130                0.20620293                0.07110734               -0.02334411
               4.98951687                0.00874279               41.04061130                0.01000002               -0.59575037                0.12667035                0.09668439                0.58382096                0.12041579               -0.02239045
               5.98132195                0.02323177               41.04285126                0.08702836               -0.42399861               -0.02684004                0.08792547                0.62683289                0.05372633               -0.00132436
               6.98103690                0.02522597               41.04457674                0.98919398               -0.02951106               -0.02934482                0.09723672                0.00236790                0.01703601               -0.00427374
               7.98073173                0.02720601               41.04608335                1.00000000               -0.03183226               -0.03211492                0.10613838                0.00135821                0.00799737               -0.00030005
               8.98040025                0.02919039               41.04762632                1.00000000               -0.03446962               -0.03476927                0.11503183                0.00135625                0.00781508                0.00093936
               9.98004234                0.03118138               41.04912862                0.99999999               -0.03579121               -0.03753889                0.12393918                0.00111685                0.00574684                0.00522707
              -0.00271314                1.00439728               41.03300989                0.98776940               -0.02404171               -0.02188124                0.07353156                0.00051551                0.00174364                0.00465059
               0.99704645                1.00236744               41.03408269                0.13235476               -0.02601785               -0.02610711                0.08670173                0.00006794                0.00387612               -0.00365625
               1.99676651                1.00034634               41.03519992                0.01000000               -0.05358594               -0.02999598                0.09989102                0.02684286                0.08335988                0.01415580
               2.99597473                0.99884532               41.03786773                0.01000001               -0.31577817                0.00182226                0.13938264                0.11740802                0.18065078               -0.04752360
               3.99045094                1.00213581               41.03868127                0.01000000               -0.58868659                0.08875245                0.11801803                0.47507684                0.05121056                0.01494645
               4.98420099                1.01000949               41.04035909                0.01000000               -0.55511263                0.03533356                0.10453891                0.91067218                0.06867055               -0.00110722
               5.97934869                1.02296337               41.04209831                0.01000001               -0.25637678               -0.31462501                0.08975668                0.82866889                0.01981065                0.01349523
               6.97907346                1.02493252               41.04374356                0.99222769               -0.02927918               -0.02959681                0.09896718                0.00111405                0.00804480               -0.00419482
               7.97876311                1.02688486               41.04524303                1.00000000               -0.03236648               -0.03236986                0.10787750                0.00000600                0.00125085               -0.00022850
               8.97842613                1.02884269               41.04675114                0.99999999               -0.03502935               -0.03502801                0.11677924                0.00000252                0.00114533                0.00059283
               9.97806252                1.03080599               41.04824869                0.99989932               -0.03636108               -0.03779747                0.12567677               -0.00027142                0.00053307                0.00646921
              -0.00065704                2.00417450               41.03293521                0.01000000               -0.02493708                0.02989688                0.07646130                0.05286060                0.00217406                0.12080718
               0.99909359                2.00210099               41.03395457                0.01000000               -0.02565734               -0.10221183                0.08960474                0.04918796                0.02738653                0.10377464
               1.99882981                2.00004330               41.03548416                0.01000001               -0.17909841               -0.12247719                0.09871326                0.09292809                0.07783179                0.09101083
               2.99551162                1.99908314               41.03752864                0.01000000               -0.36277413               -0.03466426                0.11223297                0.32953204                0.06338131                0.00771306
               3.99157433                2.00269866               41.03897519                0.01000000               -0.43044383               -0.03168756                0.11394028                0.82682652                0.03509817                0.04727321
               4.98690274                2.00944946               41.04029722                0.01000001               -0.43010163               -0.14729617                0.11030575                1.14763204                0.01070126                0.04437895
               5.98297230                2.01693927               41.04163764                0.01000000               -0.48825251               -0.43649144                0.10577440                1.21049692               -0.00332062                0.04607951
               6.97713769                2.02463403               41.04290975                0.01000000               -0.30753088               -0.24524458                0.10071926                0.71749472               -0.01545141                0.04514125
               7.97682168                2.02655861               41.04440338                0.14201068               -0.03292603               -0.03294619                0.10962517                0.00043422               -0.00571389               -0.00140465
               8.97647917                2.02848983               41.04586944                0.99941086               -0.03556773               -0.03548396                0.11854171                0.00009753               -0.00413125               -0.00169922
               9.97611033                2.03042543               41.04739560                1.00000000               -0.03688476               -0.03835159                0.12744206               -0.00023353               -0.00126514                0.00639630
               0.00249110                3.00499522               41.03517562                0.01000001               -0.03296927                0.07327818                0.07591710                0.05866448                0.00233327                0.24268441
               1.00216140                3.00032320               41.03602298                0.01000001               -0.04240875               -0.21145049                0.08404704                0.18230431                0.00404068                0.20293466
               2.00164292                2.99789680               41.03699872                0.01000000               -0.11256956               -0.25855212                0.09752583                0.42176620                0.01974217                0.13844275
               2.99991001                2.99815204               41.03815772                0.01000000               -0.25108856               -0.16655643                0.10690422                0.78312042                0.03292645                0.07085545
               3.99662115                3.00150205               41.03939673                0.01022750               -0.34984979               -0.17426373                0.11347700                1.09040038                0.02742189                0.06180862
               4.99291302                3.00706357               41.04062778                0.01000000               -0.41235503               -0.24422887                0.11584886                1.33157568                0.02030973                0.07696464
               5.98837405                3.01423355               41.04187184                0.01000001               -0.45544998               -0.30582276                0.11558142                1.35438445                0.00449350                0.10130454
               6.98380402                3.02002763               41.04306149                0.01000001               -0.67290261               -0.38023858                0.11594330                1.41031389               -0.04741225                0.12148861
               7.97491600                3.02622593               41.04353936                0.01000001               -0.46213768               -0.27965456                0.11180594                1.13775083               -0.06371885                0.13033181
               8.97456126                3.02813301               41.04494967                0.01000002               -0.03646747               -0.34063194                0.12031498                0.86714604               -0.00935813                0.12383591
               9.97418665                3.03003895               41.04651717                0.77706127               -0.03746154               -0.73919762                0.12920862                1.00788662               -0.00171322                0.10932952
               0.00986028                4.00564007               41.03726503                0.01000000               -0.00221856               -0.02820617                0.08038914                0.25869698               -0.00848486                0.25463646
               1.00983810                3.99787198               41.03777185                0.01000000               -0.02119900               -0.31637101                0.08354344                0.51691745               -0.00615714                0.18517180
               2.00943630                3.99487226               41.03831990                0.01000000               -0.11346626               -0.31728833                0.09784308                0.88952496                0.01176177                0.11659879
               3.00756877                3.99575201               41.03908871                0.01022313               -0.24827470               -0.25457176                0.10908379                1.11281842                0.03134404                0.08040164
               4.00447081                3.99921338               41.04008761                0.01000000               -0.33830029               -0.25468590                0.11669176                1.32048732                0.04605404                0.07774987
               5.00080277                4.00456488               41.04131237                0.01000001               -0.36874437               -0.27314566                0.12186229                1.44891981                0.05393969                0.10408031
               5.99709592                4.01082282               41.04268737                0.01000001               -0.37255919               -0.34670084                0.12490118                1.53505866                0.04810263                0.14455620
               6.99335158                4.01702926               41.04401863                0.01004656               -0.28123045               -0.38825273                0.12624244                1.51598277                0.03266423                0.19128954
               7.99147131                4.02096552               41.04533484                0.01009517               -0.16712547               -0.54253933                0.12757993                1.61707932                0.02059170                0.26299468
               8.99000907                4.02167719               41.04658102                0.01000000                0.04924325               -0.65173762                0.12936494                1.16203667                0.00345066                0.27088713
               9.99245618                4.01564147               41.04772699                0.01062268                0.24471044               -1.03559679                0.13900048                0.89371129                0.00603431                0.22330491
               0.02320121                5.00443110               41.03962204                0.01000206                0.00663531               -0.49947525                0.09342350                0.69216848               -0.00353707                0.28925202
               1.02326756                4.99399578               41.03952573                0.01000000               -0.08239054               -0.32831863                0.09727104                1.07846239                0.00455730                0.19165113
               2.02155340                4.99155103               41.03958526                0.01000001               -0.27211498               -0.25851206                0.10188682                1.22719272                0.02067332                0.09243264
               3.01782526                4.99306060               41.03998849                0.01000000               -0.36676853               -0.28635221                0.11264092                1.35774204                0.05131282                0.06792817
               4.01421803                4.99640834               41.04093162                0.01000001               -0.37716418               -0.27334700                0.12142025                1.43550075                0.08922325                0.08016418
               5.01028198                5.00160065               41.04232256                0.01000001               -0.38035922               -0.28771695                0.12815155                1.49312934                0.11200706                0.12038964
               6.00661084                5.00729953               41.04397483                0.01002544               -0.31505014               -0.34349816                0.13309007                1.44357456                0.11740445                0.17573162
               7.00398097                5.01226258               41.04572804                0.01000000               -0.20005903               -0.45943753                0.13620948                1.33810986                0.10891580                0.24190248
               8.00260966                5.01537515               41.04742854                0.01000001               -0.04274654               -0.55386053                0.13766546                1.10034481                0.08479715                0.30220223
               9.00312604                5.01509826               41.04887619                0.01000000                0.07613213               -0.60272221                0.13928606                0.73897758                0.04972395                0.33613465
              10.00413230                5.00932702               41.04983738                0.01000001                0.10062597               -0.43660173                0.14876795                0.36308686                0.03442972                0.30197416
               0.04457428                5.99565056               41.04270044                0.16203877               -0.02868694               -0.45112876                0.08712410                0.85242719               -0.00386700                0.17457037
               1.04428741                5.99130561               41.04188491                0.01000001               -0.48294709               -0.14882906                0.09648036                0.97174477               -0.02670224                0.11805477
               2.03491534                5.98970202               41.04059778                0.01000000               -0.72105517               -0.24532230                0.10757782                1.27498892               -0.00800137                0.06245814
               3.02986631                5.99002496               41.04078415                0.01000001               -0.51372827               -0.27297452                0.11641084                1.32654487                0.08972583                0.03818850
               4.02464077                5.99374644               41.04179073                0.01000001               -0.50460734               -0.25904457                0.12591312                1.46810010                0.14714866                0.06401915
               5.01977416                5.99881054               41.04346841                0.01002561               -0.46676420               -0.22294339                0.13389250                1.39517389                0.18726525                0.12078353
               6.01530549                6.00395286               41.04559392                0.01000000               -0.38680001               -0.27443514                0.14008225                1.20565884                0.20663593                0.19223504
               7.01203816                6.00784051               41.04795552                0.01000001               -0.23314834               -0.38123286                0.14538265                0.93615815                0.20312127                0.27628927
               8.01064252                6.00988831               41.05025572                0.01000000               -0.06007037               -0.49946006                0.15009649                0.64455762                0.17831288                0.36352423
               9.01083675                6.00962274               41.05225814                0.01079536                0.03089394               -0.48354647                0.14884093                0.34085010                0.11361776                0.41106504
              10.01126040                6.00690944               41.05323460                0.01000001                0.04236481               -0.15702818                0.15009543                0.16348175                0.07074347                0.38918231
               0.04893966                6.99540852               41.04335137                0.98987207               -0.02886580               -0.02611149                0.09161095               -0.00005940               -0.01072982                0.03450884
               1.04865100                6.99101920               41.04235147                0.99521644               -0.03029179               -0.02982892                0.10107852               -0.00015699               -0.01047761                0.01300702
               2.04833382                6.98664459               41.04134812                0.01000000               -0.41696315               -0.16989853                0.11078760                0.71914037                0.03383473                0.01526024
               3.04031173                6.98760111               41.04122755                0.01000001               -0.67696849               -0.40558719                0.11901841                1.35348690                0.12034228               -0.04764351
               4.03479445                6.99122745               41.04241252                0.01004785               -0.61663471               -0.14703691                0.12896206                1.38426900                0.22060789                0.04011926
               5.02797904                6.99714179               41.04460592                0.01000000               -0.65502019               -0.08361568                0.13811810                1.22633367                0.27984430                0.11021262
               6.02169405                7.00181083               41.04737665                0.01000001               -0.56051779               -0.11022030                0.14567307                0.86589473                0.31336433                0.18999555
               7.01676868                7.00463792               41.05058941                0.01000000               -0.39877323               -0.22148931                0.15342428                0.46332263                0.32771787                0.29464016
               8.01371858                7.00538595               41.05397786                0.01000001               -0.19233852               -0.34725265                0.16261654                0.11981283                0.28577224                0.42071717
               9.01292191                7.00542733               41.05655606                0.01000002               -0.04450176               -0.42138671                0.17218714               -0.08646924                0.16475450                0.57129352
              10.01282855                7.00618646               41.05752822                0.01000001               -0.00933680               -0.12333037                0.17941348               -0.10638827                0.08644114                0.61762570
               0.05335173                7.99512833               41.04361596                1.00000000               -0.03035244               -0.02878055                0.09641152                0.00076881               -0.00084789                0.01998765
               1.05304821                7.99070903               41.04259859                0.99999999               -0.03177480               -0.03175802                0.10588290                0.00002492               -0.00072063                0.00339253
               2.05271624                7.98630405               41.04157984                0.29078813               -0.03475112               -0.03473940                0.11544212                0.00000738               -0.00873672               -0.01326929
               3.05235319                7.98191322               41.04040055                0.01000001               -0.49653782               -0.30340636                0.12231829                1.04727548                0.16659936               -0.07847419
               4.04278548                7.99080570               41.04288127                0.01010379               -0.93178662                0.01337148                0.13206484                1.35248916                0.34118121                0.02693776
               5.03371745                7.99713823               41.04561211                0.01000001               -0.88291150                0.11734820                0.13961199                0.91958662                0.37276437                0.09327614
               6.02512725                8.00174845               41.04907156                0.01000000               -0.79939805                0.09550380                0.15041052                0.49499891                0.42452930                0.16555117
               7.01772949                8.00341073               41.05337609                0.01000001               -0.64389425                0.00879136                0.15775612                0.04348129                0.48041575                0.26269177
               8.01224937                8.00294326               41.05826377                0.01000002               -0.47113166               -0.12974178                0.16940164               -0.44691451                0.51384282                0.46707140
               9.00830686                8.00119501               41.06365651                0.01315195               -0.23174870               -0.25992132                0.19580327               -0.56057904                0.35444881                0.69213050
              10.00761439                8.00444283               41.06574568                0.01000000               -0.06924683               -0.32574377                0.19893406               -0.33230819                0.18878691                0.64126366
               0.05779363                8.99483291               41.04396883                1.00000000               -0.03178548               -0.03026316                0.10126427                0.00077736                0.00257167                0.01958564
               1.05747578                8.99038404               41.04286729                0.99999998               -0.03319278               -0.03322953                0.11074464                0.00004348                0.00211924                0.00314103
               2.05712978                8.98594980               41.04175642                0.99927933               -0.03600951               -0.03610285                0.12033873                0.00016205               -0.00283921               -0.00920899
               3.05675559                8.98153298               41.04055886                0.01000000               -0.52552764               -0.03893554                0.13003278                0.71859444                0.18506696               -0.01654688
               4.04661923                8.99149487               41.04321202                0.01000000               -1.06637811                0.25211915                0.13682596                0.94441030                0.38016364                0.01597177
               5.03542803                8.99948875               41.04639157                0.01000000               -1.06488501                0.28398314                0.14171852                0.54659398                0.44352696                0.06190121
               6.02532153                9.00372090               41.05042981                0.01000001               -0.94922607                0.24156159                0.14292582                0.18480875                0.52689297                0.10308338
               7.01644351                9.00481375               41.05547635                0.01000002               -0.91627586                0.20498913                0.16770489               -0.12997745                0.64121485                0.15365692
               8.00699601                9.00279111               41.06297991                0.01236044               -0.81163741                0.11953411                0.16529171               -0.49091868                0.76738687                0.34188904
               9.00021076                9.00022891               41.07062083                0.99999997               -0.36546353               -0.07446644                0.17490721               -0.53305167                0.38178224                0.34747897
               9.99968674                8.99967158               41.07061965                0.99999999               -0.05240194               -0.26462716                0.17431933               -0.42420994               -0.00036837                0.24226674
               0.06226502                9.99452307               41.04422101                1.00000000               -0.03328269               -0.03098433                0.10592087               -0.00072426                0.01352871                0.01457533
               1.06193219                9.99004444               41.04310897                1.00000000               -0.03472417               -0.03396022                0.11546613               -0.00141249                0.01701606                0.00157646
               2.06157054                9.98558199               41.04207138                0.99741192               -0.03760971               -0.03678063                0.12513618               -0.00142078                0.01680199               -0.00269368
               3.06118000                9.98113451               41.04096507                0.58981643               -0.89263067               -0.03984759                0.13468170                0.95574574                0.19001467               -0.00477807
               4.04371792                9.99584809               41.04340635                0.01090162               -1.43783457                0.43532119                0.14474320                0.79403877                0.36843044                0.01591034
               5.03242331               10.00281789               41.04665637                0.01025328               -1.01097467                0.33291409                0.14744918                0.23610781                0.45091143                0.03623497
               6.02349843               10.00657968               41.05079854                0.01000001               -0.81817857                0.28587799                0.13990149                0.05232131                0.55732032                0.06872567
               7.01605974               10.00751051               41.05602432                0.01137625               -0.82412985                0.26967626                0.18154980               -0.10066416                0.69924440                0.08787079
               8.00701583               10.00533394               41.06472474                0.01000002               -0.76471888                0.25428267                0.16324794               -0.38825902                0.74767031                0.19504970
               9.00076536                9.99970568               41.07064209                0.99999999               -0.33854927               -0.05232260                0.17385342               -0.25372234                0.29620432                0.00027758
              10.00024485                9.99915029               41.07064090                1.00000000               -0.05205114               -0.05212913                0.17326555                0.00027172                0.00032172               -0.00032111
              -0.00590400                0.00472303               42.03379754                0.99782833               -0.02308365               -0.02141349                0.07011245                0.00266864               -0.00368743                0.00411753
               0.99386517                0.00267990               42.03500603                0.99999999               -0.02508760               -0.02565780                0.08376453                0.00215845               -0.00398641               -0.00142980
               1.99359425                0.00064787               42.03620704                0.03227879               -0.01392542               -0.02992488                0.09744255                0.01184288                0.06166499               -0.00156957
               2.99358666               -0.00117816               42.03872972                0.01000001               -0.05623524               -0.02810774                0.08256175                0.17583378                0.04733189               -0.00974231
               3.99246955                0.00077368               42.03996672                0.01000000               -0.23580783                0.12935445                0.11319115                0.20786218                0.03627847               -0.01787085
               4.98887050                0.00856100               42.04146573                0.01000000               -0.63190667                0.14117890                0.09508738                0.61449639                0.08886501               -0.00838548
               5.97983141                0.02396335               42.04372610                0.07945148               -0.46619043               -0.02675991                0.08721770                0.67020290                0.05058565               -0.00130020
               6.97954669                0.02600758               42.04554694                0.98638258               -0.02944364               -0.02921658                0.09679306                0.00259312                0.01727547               -0.00430892
               7.97924254                0.02803454               42.04714375                1.00000000               -0.03176674               -0.03206852                0.10592812                0.00141190                0.00798724               -0.00032338
               8.97891136                0.03006621               42.04877671                1.00000000               -0.03447606               -0.03479312                0.11504041                0.00140426                0.00780552                0.00093745
               9.97855302                0.03210482               42.05036928                0.99999999               -0.03583391               -0.03764466                0.12419979                0.00113922                0.00575210                0.00521213
              -0.00383419                1.00450889               42.03374523                0.98355726               -0.02414859               -0.02189835                0.07361678                0.00062033                0.00180102                0.00468189
               0.99592433                1.00242333               42.03495256                0.15153493               -0.02620506               -0.02629390                0.08730335                0.00009058                0.00391557               -0.00363103
               1.99564171                1.00034863               42.03620454                0.01000000               -0.03211170               -0.03039145                0.10098510                0.01395422                0.07539117                0.01229023
               2.99528209                0.99854076               42.03884656                0.01000001               -0.29815629                0.00777748                0.09282616                0.13054319                0.09229564               -0.03064025
               3.98967859                1.00206722               42.03994087                0.01000000               -0.59307326                0.09758746                0.11483171                0.47408429                0.02154410               -0.00086358
               4.98342063                1.00997279               42.04136223                0.01000000               -0.59342162                0.05817452                0.10126142                0.91876101                0.03519099                0.00976729
               5.97781016                1.02369575               42.04299268                0.01000001               -0.29418005               -0.32241410                0.08937917                0.87562978                0.00999156                0.02099323
               6.97753703                1.02571541               42.04473158                0.99161986               -0.02914066               -0.02949249                0.09862702                0.00136154                0.00821204               -0.00421814
               7.97722734                1.02771386               42.04632141                1.00000000               -0.03233820               -0.03234359                0.10778610                0.00002138                0.00125065               -0.00024110
               8.97689026                1.02971828               42.04791967                0.99999999               -0.03507680               -0.03507247                0.11693560                0.00001591                0.00114068                0.00061741
               9.97652581                1.03172837               42.04950741                0.99976213               -0.03644586               -0.03792565                0.12609219               -0.00028956                0.00053012                0.00648347
              -0.00172045                2.00428506               42.03370329                0.01000000               -0.02522986                0.03516295                0.07715456                0.05939600                0.00218738                0.11922317
               0.99802725                2.00215403               42.03485699                0.01000000               -0.02618220               -0.10309849                0.09083498                0.05435696                0.02555090                0.09937910
               1.99775590                2.00004005               42.03648380                0.01000001               -0.17741605               -0.12615209                0.10081386                0.09665749                0.07499284                0.08622260
               2.99447893                1.99897739               42.03864038                0.01000000               -0.36183485               -0.02387459                0.10669929                0.31957766                0.06867252                0.00624240
               3.99051920                2.00272543               42.04009383                0.01000000               -0.44308664               -0.02583279                0.10990200                0.83462085                0.02222013                0.03181528
               4.98561719                2.00972449               42.04140201                0.01000001               -0.44589075               -0.13315793                0.10879911                1.16039803               -0.00167196                0.04780880
               5.98160139                2.01751507               42.04270311                0.01000000               -0.50306876               -0.44914757                0.10712224                1.25197278               -0.01744349                0.05693457
               6.97555582                2.02541773               42.04391579                0.01000000               -0.31806456               -0.25164236                0.10048248                0.73937057               -0.02294060                0.05213650
               7.97524010                2.02738767               42.04549970                0.14553231               -0.03293265               -0.03296374                0.10964993                0.00047154               -0.00568827               -0.00093258
               8.97489716                2.02936476               42.04705670                0.99999995               -0.03565251               -0.03557250                0.11885690                0.00012264               -0.00408837               -0.00161489
               9.97452705                2.03134631               42.04867331                1.00000000               -0.03701172               -0.03852441                0.12799627               -0.00025734               -0.00121921                0.00643914
               0.00161581                3.00521215               42.03594407                0.01000001               -0.03593214                0.08049778                0.07874546                0.06658868                0.00069078                0.24155271
               1.00125648                3.00036136               42.03686932                0.01000001               -0.04321521               -0.21723190                0.08674130                0.19419068                0.00732009                0.18960309
               2.00075150                2.99782558               42.03797036                0.01000000               -0.11341090               -0.26577882                0.09749514                0.44110537                0.02468710                0.13139928
               2.99898827                2.99806327               42.03922587                0.01000000               -0.25637998               -0.16775229                0.10668968                0.81057108                0.03186732                0.06640733
               3.99562390                3.00155057               42.04053324                0.01022939               -0.35746588               -0.17571702                0.11292728                1.12531084                0.02419732                0.06104788
               4.99183895                3.00730963               42.04178701                0.01000000               -0.42337626               -0.24878553                0.11605385                1.37728344                0.01239564                0.07968437
               5.98715638                3.01471280               42.04303281                0.01000001               -0.46935556               -0.31529234                0.11654763                1.39761477               -0.00425797                0.10899805
               6.98245184                3.02068256               42.04422562                0.01000001               -0.69333199               -0.39059166                0.11705144                1.45462802               -0.05839942                0.13323730
               7.97328974                3.02705459               42.04466338                0.01000001               -0.47588761               -0.28718292                0.11294923                1.17058713               -0.07064693                0.13773121
               8.97293408                3.02900683               42.04615637                0.01036074               -0.03660808               -0.33860328                0.12082376                0.88421107               -0.00975611                0.12635627
               9.97255757                3.03095788               42.04781382                0.80344154               -0.03765101               -0.74713941                0.12989425                1.02751334               -0.00167919                0.11137047
               0.00931291                4.00589502               42.03810126                0.01000003               -0.00152823               -0.02764252                0.08167980                0.26779223               -0.00469749                0.25264992
               1.00929763                3.99780939               42.03865700                0.01000000               -0.02184080               -0.32657681                0.08911721                0.54183692                0.00157128                0.17456111
               2.00887609                3.99472447               42.03929974                0.01000000               -0.11661324               -0.32602296                0.09918310                0.92779985                0.01664140                0.11478083
               3.00696536                3.99562234               42.04017875                0.01022513               -0.25485182               -0.25924149                0.10941346                1.15650690                0.03364204                0.08039396
               4.00377906                3.99921109               42.04125657                0.01000000               -0.34823681               -0.26020610                0.11735963                1.37040061                0.04462463                0.07943813
               5.00000063                4.00474878               42.04253657                0.01000001               -0.37991529               -0.27960292                0.12301366                1.49997707                0.05008469                0.10867575
               5.99618075                4.01120922               42.04394423                0.01000001               -0.38470165               -0.35577158                0.12662835                1.58704032                0.04206065                0.15215116
               6.99230659                4.01760589               42.04529087                0.01005715               -0.29265901               -0.39863840                0.12877181                1.56388726                0.02512599                0.20110207
               7.99032757                4.02164401               42.04661541                0.01012487               -0.18142537               -0.55455799                0.13025258                1.67537789                0.00797265                0.27577610
               8.98867809                4.02259270               42.04785479                0.01000000                0.04238187               -0.66514099                0.12831067                1.20833580               -0.02471093                0.30947070
               9.99117521                4.01640352               42.04908185                0.01118977                0.24971226               -1.06457261                0.13446057                0.92626499               -0.02381436                0.26542773
               0.02314291                5.00465930               42.04049910                0.01000003                0.01208622               -0.51926389                0.08582424                0.71656957               -0.00943846                0.29207618
               1.02326377                4.99382982               42.04050069                0.01000000               -0.08241823               -0.33792108                0.09571220                1.11860652                0.00100035                0.18980020
               2.02149454                4.99130512               42.04062143                0.01000001               -0.28159923               -0.26522498                0.10403973                1.27587800                0.02079777                0.09204611
               3.01763179                4.99287844               42.04112139                0.01000000               -0.37945343               -0.29293570                0.11392226                1.41023004                0.05312818                0.06903453
               4.01390547                4.99634645               42.04215165                0.01000001               -0.38957158               -0.27892101                0.12300289                1.48962378                0.08928866                0.08305593
               5.00984035                5.00171757               42.04361321                0.01000001               -0.39327022               -0.29410548                0.13020252                1.54792727                0.11032233                0.12516527
               6.00604007                5.00759737               42.04531843                0.01003319               -0.32727816               -0.35212047                0.13589426                1.49509247                0.11390281                0.18274297
               7.00329479                5.01270980               42.04710509                0.01000000               -0.21147901               -0.47164230                0.13978378                1.38781866                0.10263437                0.25141391
               8.00181049                5.01596343               42.04881647                0.01000000               -0.04767463               -0.56910447                0.14185764                1.14459744                0.07371887                0.31972986
               9.00234130                5.01570401               42.05027244                0.01000000                0.08253728               -0.63335957                0.14286342                0.77262637                0.04250590                0.36346467
              10.00346124                5.00966643               42.05133748                0.01000001                0.11199374               -0.47323946                0.14984559                0.38450410                0.03366048                0.32188765
               0.04530327                5.99550974               42.04355786                0.14195627               -0.02793299               -0.46932760                0.08446271                0.88622250               -0.00388516                0.17128023
               1.04502394                5.99105097               42.04283807                0.01000001               -0.49791155               -0.15303998                0.09436205                1.00727306               -0.02544140                0.11471325
               2.03534503                5.98941997               42.04167436                0.01000000               -0.74476460               -0.25115451                0.10800001                1.32016891               -0.00626310                0.06115437
               3.03012864                5.98976363               42.04195180                0.01000001               -0.53063172               -0.27936573                0.11912381                1.37618916                0.09086538                0.03761286
               4.02473240                5.99363267               42.04305895                0.01000001               -0.52101977               -0.26420722                0.12819136                1.52395592                0.14874647                0.06518071
               5.01970825                5.99886667               42.04482031                0.01003529               -0.48210103               -0.22793235                0.13695761                1.44787164                0.18722834                0.12450718
               6.01509038                6.00416681               42.04701186                0.01000000               -0.40056681               -0.28181549                0.14378301                1.25366809                0.20567529                0.19796509
               7.01169691                6.00817305               42.04942929                0.01000001               -0.24325375               -0.39200883                0.14972493                0.97586831                0.20136497                0.28562179
               8.01022530                6.01026193               42.05177989                0.01000000               -0.06346521               -0.51804530                0.15534442                0.67544596                0.17172842                0.37772383
               9.01042761                6.00992551               42.05372580                0.01000002                0.03575735               -0.51784473                0.15141522                0.35603706                0.10426952                0.44145275
              10.01094045                6.00693873               42.05466437                0.01000001                0.05128439               -0.18305858                0.15100963                0.16273956                0.06071590                0.41991609
               0.04978490                6.99527275               42.04425974                0.98227405               -0.02859028               -0.02572933                0.09052736                0.00012508               -0.01069400                0.03458432
               1.04949900                6.99076902               42.04335601                0.99341995               -0.02998222               -0.02948872                0.10003825               -0.00019410               -0.01051562                0.01318185
               2.04918526                6.98628203               42.04245144                0.01000000               -0.42780649               -0.17382183                0.10978813                0.74282987                0.03284384                0.01414458
               3.04094287                6.98729113               42.04240982                0.01000001               -0.69518546               -0.41654681                0.11718981                1.39883097                0.12232361               -0.05475522
               4.03528155                6.99106230               42.04370557                0.01005762               -0.63396156               -0.14926896                0.13121076                1.43507331                0.22367211                0.03908643
               5.02826364                6.99715893               42.04600131                0.01000000               -0.67372471               -0.08549010                0.14180992                1.27712288                0.28270699                0.10995369
               6.02180706                7.00196106               42.04885499                0.01000001               -0.57732972               -0.11469533                0.15053481                0.90440196                0.31571114                0.19434744
               7.01671705                7.00486962               42.05214553                0.01000000               -0.41200528               -0.22978782                0.15807833                0.49312539                0.33101480                0.30082632
               8.01356695                7.00560252               42.05561278                0.01000001               -0.19659046               -0.35803609                0.16535007                0.12477453                0.29080539                0.43060789
               9.01278524                7.00534712               42.05830400                0.01000002               -0.04386836               -0.44260710                0.17646346               -0.09623223                0.17280377                0.59158151
              10.01268958                7.00600526               42.05935535                0.01000001               -0.00956534               -0.13238850                0.18958005               -0.11156914                0.09562922                0.64700257
               0.05431323                7.99499515               42.04457580                1.00000000               -0.03024569               -0.02854357                0.09574731                0.00103112               -0.00088494                0.01991811
               1.05401077                7.99046119               42.04365494                0.99999999               -0.03168494               -0.03163802                0.10554240                0.00024748               -0.00082709                0.00350380
               2.05367953                7.98594353               42.04273395                0.30082596               -0.03428861               -0.03468234                0.11530401               -0.00028582               -0.01085563               -0.01317803
               3.05332500                7.98143269               42.04161458                0.01000001               -0.50567308               -0.31142364                0.11086973                1.07961937                0.16287500               -0.07687995
               4.04356607                7.99064729               42.04418904                0.01013412               -0.94865251                0.01365726                0.13000785                1.39896774                0.34859981                0.02168613
               5.03435195                7.99715687               42.04701280                0.01000000               -0.90491697                0.11988043                0.14468138                0.96362899                0.38238155                0.08524748
               6.02546773                8.00187291               42.05060515                0.01000000               -0.82169930                0.09696363                0.15555856                0.53851364                0.43338587                0.16350640
               7.01791796                8.00357729               42.05497696                0.01000001               -0.66122144                0.00686302                0.16289448                0.05777858                0.48405925                0.26971222
               8.01224330                8.00310120               42.05996145                0.01000002               -0.49088691               -0.13179830                0.17027254               -0.44836621                0.52951508                0.46539143
               9.00810022                8.00107336               42.06560233                0.01349842               -0.24252569               -0.25654661                0.19230963               -0.56919405                0.36634051                0.69327293
              10.00739278                8.00429096               42.06770208                0.01000000               -0.07074388               -0.31766991                0.18885246               -0.32836372                0.18889133                0.63684348
               0.05887345                8.99470188               42.04497962                1.00000000               -0.03178773               -0.03012369                0.10085749                0.00101733                0.00261120                0.01944137
               1.05855557                8.99013626               42.04397627                0.99999998               -0.03327025               -0.03332826                0.11109063                0.00027434                0.00215365                0.00317347
               2.05820804                8.98558839               42.04296398                0.99860355               -0.03620332               -0.03634553                0.12128275                0.00048877               -0.00284760               -0.00910783
               3.05783150                8.98106265               42.04186472                0.01007280               -0.53356574               -0.03872387                0.13133561                0.73933991                0.18194818               -0.01439134
               4.04753673                8.99133545               42.04455189                0.01000000               -1.07604515                0.25475487                0.13106342                0.97717651                0.40438760                0.00147141
               5.03631060                8.99955653               42.04777608                0.01000000               -1.06899100                0.28560557                0.14046085                0.57628531                0.45636917                0.05288476
               6.02615691                9.00390033               42.05186967                0.01000001               -0.98331398                0.25044955                0.15266075                0.22991172                0.53666401                0.09793017
               7.01664432                9.00500688               42.05717141                0.01000002               -0.95266774                0.21464611                0.17031030               -0.13130866                0.66374301                0.16569988
               8.00710355                9.00296655               42.06462264                0.01225463               -0.82163604                0.12179902                0.16421592               -0.49183453                0.77348853                0.33527157
               9.00021160                9.00021619               42.07237131                0.99999997               -0.37082158               -0.06904525                0.17519533               -0.53213344                0.38753074                0.33831148
               9.99968712                8.99965186               42.07236280                0.99999999               -0.05244793               -0.25799480                0.17430880               -0.41346218               -0.00037527                0.23219206
               0.06346481                9.99439268               42.04528192                0.99999999               -0.03350623               -0.03091995                0.10611366               -0.00066901                0.01365053                0.01446904
               1.06312975                9.98979463               42.04426933                0.99999998               -0.03509493               -0.03416334                0.11646508               -0.00138513                0.01722460                0.00156288
               2.06276291                9.98521662               42.04333135                0.99995173               -0.03825048               -0.03717653                0.12702311               -0.00133378                0.01694465               -0.00266313
               3.06236474                9.98065821               42.04232253                0.63751002               -0.90735984               -0.04044376                0.13744411                0.97961150                0.18883955               -0.00484491
               4.04461571                9.99574239               42.04483797                0.01143149               -1.45259853                0.44069393                0.13639483                0.81843693                0.40156625               -0.00101178
               5.03331277               10.00286898               42.04807983                0.01062893               -1.00000487                0.33124461                0.14276027                0.25719225                0.45735120                0.03464117
               6.02461562               10.00688190               42.05221150                0.01000000               -0.85435997                0.29815654                0.15331973                0.09593249                0.56801279                0.05997285
               7.01622557               10.00787021               42.05787482                0.01177788               -0.87091572                0.28633337                0.18073166               -0.10911108                0.73413831                0.10189230
               8.00719730               10.00553718               42.06633391                0.01000002               -0.77266609                0.25706306                0.16101796               -0.39951277                0.74717094                0.19317572
               9.00077225                9.99969246               42.07238068                0.99999999               -0.34725574               -0.05237254                0.17386666               -0.26424154                0.30304318                0.00027920
              10.00025219                9.99913106               42.07237217                1.00000000               -0.05200586               -0.05207993                0.17297985                0.00036689                0.00032543               -0.00032430
              -0.00721778                0.00479910               43.03449676                0.99611575               -0.02301606               -0.02139274                0.06975641                0.00283916               -0.00371775                0.00414678
               0.99255206                0.00270149               43.03584388                0.99999999               -0.02508883               -0.02576316                0.08379978                0.00222333               -0.00405387               -0.00140473
               1.99228045                0.00061681               43.03718360                0.04677546               -0.02060922               -0.03014316                0.09784710                0.00582308                0.04833225               -0.00157762
               2.99213988               -0.00138182               43.03957864                0.01000001               -0.05269614               -0.02963167                0.08692548                0.19449691                0.04082531               -0.00517577
               3.99122652                0.00061788               43.04097270                0.01000000               -0.23025436                0.13735360                0.09867920                0.22215669                0.01239333               -0.01145602
               4.98753479                0.00878207               43.04251305                0.01017902               -0.64870333                0.14864850                0.10297142                0.63455718                0.03973712                0.00996112
               5.97825246                0.02467260               43.04459561                0.07230036               -0.47850172               -0.02663722                0.08659134                0.69209313                0.03752454               -0.00139427
               6.97796476                0.02677051               43.04651260                0.98375370               -0.02953751               -0.02911958                0.09636481                0.00300190                0.01741503               -0.00438587
               7.97766171                0.02884421               43.04820191                1.00000000               -0.03169654               -0.03201289                0.10569153                0.00146776                0.00790076               -0.00034076
               8.97733083                0.03092321               43.04992713                1.00000000               -0.03447363               -0.03481660                0.11501412                0.00147075                0.00775645                0.00095396
               9.97697223                0.03300937               43.05161261                0.99999999               -0.03585917               -0.03777488                0.12446980                0.00115800                0.00570910                0.00520213
              -0.00509178                1.00458517               43.03448223                0.97945360               -0.02427842               -0.02194891                0.07380252                0.00072219                0.00182958                0.00467701
               0.99466544                1.00244386               43.03582875                0.17104797               -0.02639464               -0.02648401                0.08790497                0.00011196                0.00395693               -0.00361874
               1.99438033                1.00031538               43.03721962                0.01000000               -0.02905639               -0.03074372                0.10203045                0.00719254                0.06162431                0.01042453
               2.99408431                0.99832187               43.03972426                0.01000001               -0.30070922                0.01052410                0.08975413                0.14056000                0.05840189               -0.01553403
               3.98836615                1.00199142               43.04097791                0.01000000               -0.61156534                0.10623542                0.10194198                0.49886328               -0.00857410                0.00386627
               4.98185300                1.01026856               43.04238432                0.01000000               -0.60934877                0.05993910                0.10244229                0.95700236               -0.01662111                0.02675640
               5.97617917                1.02440623               43.04388589                0.01000001               -0.29720169               -0.33173822                0.08917839                0.90339727               -0.00131737                0.02892279
               6.97590897                1.02647931               43.04571610                0.99102151               -0.02895700               -0.02938875                0.09828762                0.00176920                0.00813181               -0.00426667
               7.97560003                1.02852408               43.04739875                0.99999999               -0.03230100               -0.03231089                0.10767528                0.00005147                0.00125331               -0.00026086
               8.97526295                1.03057505               43.04908985                0.99999999               -0.03511890               -0.03511917                0.11708362                0.00002573                0.00115433                0.00065975
               9.97489765                1.03263163               43.05077054                0.99961545               -0.03652978               -0.03807886                0.12654079               -0.00031769                0.00053929                0.00645578
              -0.00292071                2.00436012               43.03447830                0.01000000               -0.02552000                0.04215658                0.07784090                0.06847868                0.00218832                0.11886184
               0.99682409                2.00217181               43.03577127                0.01000000               -0.02665018               -0.10642973                0.09196218                0.06289476                0.02376123                0.09620959
               1.99654629                2.00000194               43.03750043                0.01000001               -0.17745270               -0.13032684                0.10200886                0.10283177                0.06663576                0.08053890
               2.99327504                1.99882867               43.03966263                0.01000000               -0.36445949               -0.01900281                0.10113436                0.33204110                0.05595339                0.01393627
               3.98925710                2.00274259               43.04117323                0.01000000               -0.45075043               -0.02155696                0.10641407                0.86650006                0.00663511                0.03456899
               4.98426003                2.00998085               43.04247320                0.01000001               -0.45737253               -0.13729336                0.10733252                1.20517996               -0.01323426                0.05325156
               5.98010965                2.01803784               43.04378008                0.01000000               -0.51888711               -0.46169205                0.10727104                1.29364974               -0.03278763                0.06688889
               6.97388229                2.02618273               43.04491940                0.01000000               -0.32713246               -0.25810061                0.10021560                0.76283243               -0.03126606                0.05974710
               7.97356700                2.02819799               43.04659637                0.14974268               -0.03292464               -0.03296162                0.10963160                0.00051870               -0.00562260                0.00000986
               8.97322379                2.03022083               43.04824658                0.99999999               -0.03571380               -0.03564963                0.11915585                0.00012799               -0.00402180               -0.00154531
               9.97285272                2.03224780               43.04995552                1.00000000               -0.03710718               -0.03868973                0.12850926               -0.00027739               -0.00122361                0.00637345
               0.00065442                3.00542830               43.03675053                0.01029723               -0.03729009                0.08889559                0.07810767                0.06747447               -0.00232140                0.23722152
               1.00028152                3.00031526               43.03775780                0.01000001               -0.04371537               -0.22199893                0.08932957                0.20637447                0.00641069                0.18217964
               1.99978011                2.99770884               43.03894862                0.01000000               -0.11485192               -0.27425639                0.09833217                0.46638183                0.02405621                0.12678398
               2.99798448                2.99794181               43.04029151                0.01000000               -0.26180758               -0.16821453                0.10630717                0.84305937                0.02949622                0.06727230
               3.99454396                3.00156028               43.04165528                0.01023067               -0.36615593               -0.17794299                0.11206815                1.16646287                0.01957505                0.06285764
               4.99066136                3.00752269               43.04294886                0.01000000               -0.43468355               -0.25343294                0.11605190                1.42344371                0.00465010                0.08492589
               5.98585029                3.01517239               43.04420279                0.01000001               -0.48279483               -0.32288048                0.11719677                1.44339008               -0.01265464                0.11679928
               6.98100546                3.02131730               43.04540252                0.01000001               -0.71389909               -0.40054510                0.11807561                1.49965457               -0.06942017                0.14623129
               7.97157231                3.02786485               43.04579834                0.01000001               -0.48948794               -0.29350214                0.11417707                1.20223002               -0.07804955                0.14729326
               8.97121570                3.02986205               43.04736615                0.01075794               -0.03670679               -0.32351515                0.12128133                0.89088050               -0.01052232                0.12955252
               9.97083817                3.03185783               43.04911506                0.83053490               -0.03775343               -0.74107138                0.13048438                1.03323038               -0.00172002                0.11194576
               0.00865486                4.00613803               43.03889863                0.01000003                0.00161811               -0.03061425                0.07807713                0.27712212               -0.00471079                0.24800668
               1.00867104                3.99773183               43.03955419                0.01000000               -0.02037406               -0.33522732                0.08964126                0.56312517                0.00227562                0.17244278
               2.00824738                3.99451681               43.04030357                0.01000000               -0.11931260               -0.33457536                0.10077990                0.96505452                0.01830224                0.11364326
               3.00628479                3.99546437               43.04127698                0.01022704               -0.26209507               -0.26367847                0.11025996                1.20200206                0.03394332                0.08145725
               4.00300548                3.99918373               43.04243480                0.01000000               -0.35839956               -0.26466031                0.11818879                1.42079165                0.04290743                0.08285208
               4.99911680                4.00491219               43.04377264                0.01000001               -0.39113182               -0.28512347                0.12407342                1.55283910                0.04658663                0.11417626
               5.99518284                4.01158023               43.04521994                0.01000001               -0.39669400               -0.36428147                0.12826016                1.64031825                0.03744244                0.16081119
               6.99118292                4.01817183               43.04659407                0.01006996               -0.30579989               -0.40824313                0.13145134                1.61389392                0.02075614                0.21219316
               7.98906684                4.02232795               43.04793989                0.01015717               -0.20672481               -0.56297913                0.13621977                1.74615378                0.00105849                0.28787174
               8.98704842                4.02375053               43.04914724                0.01000000                0.02294673               -0.66827530                0.13461791                1.26689367               -0.04140820                0.33814984
               9.98952578                4.01742637               43.05041620                0.01177488                0.24773560               -1.08377917                0.12757909                0.95944823               -0.04096515                0.28865721
               0.02300926                5.00481602               43.04133852                0.01000003                0.01559803               -0.54112505                0.08294065                0.74353549               -0.00801422                0.28688168
               1.02316524                4.99361072               43.04143997                0.01000000               -0.08303025               -0.34936373                0.09350588                1.15961825                0.00147867                0.18625303
               2.02134866                4.99101734               43.04166606                0.01000001               -0.29038227               -0.27108564                0.10462662                1.32432441                0.02177664                0.09210120
               3.01735760                4.99266824               43.04226694                0.01000000               -0.39183429               -0.29877961                0.11549500                1.46319884                0.05422671                0.07226589
               4.01351197                4.99626707               43.04339167                0.01000001               -0.40179745               -0.28437941                0.12466986                1.54468469                0.08945527                0.08718397
               5.00932165                5.00182022               43.04492661                0.01000001               -0.40574766               -0.29998066                0.13227771                1.60343505                0.10921837                0.13146759
               6.00539702                5.00788676               43.04669271                0.01004413               -0.33930146               -0.36023135                0.13847876                1.54796981                0.11250009                0.19100828
               7.00253562                5.01315244               43.04852372                0.01000000               -0.22401673               -0.48296627                0.14367002                1.44165085                0.10119545                0.26141986
               8.00091668                5.01660527               43.05026569                0.01000000               -0.05402310               -0.58407361                0.14816687                1.20289250                0.07012322                0.33321624
               9.00145516                5.01649655               43.05173346                0.01000000                0.08793828               -0.66651420                0.15369586                0.82831136                0.04085448                0.37860346
              10.00267545                5.01018225               43.05283429                0.01000001                0.12202925               -0.50682394                0.15618681                0.42215969                0.03485086                0.33222027
               0.04593617                5.99531553               43.04438969                0.12270475               -0.02740830               -0.48668722                0.08223780                0.91910118               -0.00358736                0.16888287
               1.04566209                5.99074456               43.04377215                0.01000001               -0.51299137               -0.15723764                0.09299263                1.04316546               -0.02307621                0.11223422
               2.03567634                5.98909510               43.04275778                0.01000000               -0.76815297               -0.25747246                0.10884019                1.36662251               -0.00200465                0.05948817
               3.03029903                5.98948878               43.04316663                0.01000001               -0.54645754               -0.29125076                0.12070834                1.42737637                0.09266928                0.03715994
               4.02474719                5.99349614               43.04435456                0.01000001               -0.53666061               -0.26939992                0.13159330                1.57941139                0.14823046                0.06909254
               5.01956582                5.99891258               43.04620756                0.01004345               -0.49685855               -0.23359267                0.13999304                1.50207824                0.18780935                0.13010009
               6.01481002                6.00437560               43.04846958                0.01000000               -0.41341944               -0.28911387                0.14729963                1.30334762                0.20626732                0.20579062
               7.01129743                6.00851250               43.05095002                0.01000001               -0.25147205               -0.40228318                0.15358016                1.01832236                0.20363732                0.29518392
               8.00978058                6.01064648               43.05336261                0.01000000               -0.06298802               -0.53943588                0.16042203                0.71836399                0.17292937                0.38996372
               9.01003767                6.01042024               43.05528645                0.01000001                0.04084964               -0.55570583                0.16332055                0.39118407                0.10500522                0.45674927
              10.01059757                6.00728989               43.05625480                0.01000000                0.05599065               -0.20467249                0.16599361                0.18511424                0.06246990                0.44282120
               0.05053324                6.99508227               43.04516192                0.97604896               -0.02842489               -0.02543599                0.08966565                0.00034804               -0.01126328                0.03502643
               1.05024899                6.99046597               43.04435223                0.98460176               -0.02981768               -0.02928536                0.09972173               -0.00014786               -0.01104321                0.01383901
               2.04993688                6.98586789               43.04354388                0.01000000               -0.43724544               -0.17835783                0.10999459                0.76202009                0.03058956                0.01244429
               3.04150408                6.98684323               43.04357134                0.01000001               -0.71302407               -0.42840297                0.12993910                1.44338754                0.12084553               -0.06427044
               4.03567640                6.99087908               43.04503673                0.01006946               -0.65101596               -0.15515223                0.13365205                1.49586016                0.22874379                0.03667726
               5.02848376                6.99714837               43.04744211                0.01000000               -0.69061758               -0.09220845                0.14740926                1.33042822                0.28411521                0.11470817
               6.02186405                7.00210448               43.05038734                0.01000001               -0.59262848               -0.11858519                0.15491933                0.94895986                0.31855222                0.20043451
               7.01663119                7.00510677               43.05375098                0.01000000               -0.42439122               -0.23667052                0.16222539                0.52345119                0.33556794                0.30891010
               8.01337622                7.00581655               43.05728486                0.01000001               -0.19978824               -0.37026273                0.16866045                0.13546887                0.29958268                0.43748266
               9.01263542                7.00538243               43.06008533                0.01000002               -0.03688930               -0.47135409                0.17725641               -0.09361881                0.19005414                0.61586549
              10.01263844                7.00608880               43.06131982                0.01000001                0.00030145               -0.15588218                0.18634126               -0.09960626                0.11896166                0.66170762
               0.05517575                7.99480681               43.04553091                1.00000000               -0.03022323               -0.02833292                0.09505984                0.00117039               -0.00125227                0.01943934
               1.05487352                7.99015885               43.04470943                0.99999999               -0.03181325               -0.03164199                0.10564351                0.00033151               -0.00124962                0.00370972
               2.05453948                7.98552794               43.04388592                0.31291672               -0.03589630               -0.03488232                0.11585130                0.00046814               -0.02373632               -0.01256397
               3.05415559                7.98092072               43.04261795                0.01000001               -0.50901143               -0.31530060                0.05617661                1.10838625                0.17916983               -0.08396435
               4.04435926                7.99039310               43.04548143                0.01016655               -0.96033072               -0.00018468                0.14751307                1.46334541                0.35557641                0.01648845
               5.03494898                7.99706841               43.04850574                0.01000000               -0.92642210                0.11655273                0.15208243                1.01823347                0.38882121                0.07746517
               6.02583081                8.00200390               43.05218273                0.01000000               -0.84472965                0.09843401                0.16126269                0.57530522                0.43819959                0.16849373
               7.01805438                8.00377909               43.05663398                0.01000001               -0.68082576                0.00615540                0.16749571                0.07857661                0.48782384                0.27796197
               8.01221430                8.00324122               43.06166922                0.01000002               -0.50806714               -0.13462326                0.17247855               -0.44481363                0.54156224                0.46512050
               9.00789304                8.00099316               43.06750270                0.01383510               -0.25107909               -0.25828245                0.18288200               -0.57415923                0.37428456                0.69067006
              10.00719272                8.00417225               43.06952273                0.01000000               -0.07003241               -0.32217320                0.16705784               -0.32920102                0.19612603                0.63512740
               0.05985257                8.99451562               43.04598598                1.00000000               -0.03180795               -0.02994821                0.10030033                0.00112449                0.00273364                0.01907188
               1.05953449                8.98983313               43.04508910                0.99999998               -0.03340982               -0.03346374                0.11154642                0.00041833                0.00226312                0.00316428
               2.05918437                8.98517024               43.04418207                1.00000000               -0.03639221               -0.03669697                0.12243495                0.00104178               -0.00296442               -0.00877013
               3.05880664                8.98053721               43.04318557                0.01052736               -0.51943759               -0.03993611                0.13285357                0.74998617                0.17417449               -0.00201050
               4.04879562                8.99087538               43.04583328                0.01000000               -1.07845058                0.24313038                0.13576021                1.02874492                0.43602561               -0.02246060
               5.03723763                8.99947942               43.04920079                0.01000000               -1.10680733                0.29174025                0.15550205                0.62227994                0.46625463                0.04173848
               6.02665947                9.00407316               43.05348303                0.01000001               -1.01361189                0.25457937                0.16601895                0.24916676                0.52918951                0.10114676
               7.01696539                9.00522988               43.05888256                0.01000002               -0.96967941                0.21812202                0.17107128               -0.11916844                0.66805895                0.17350958
               8.00726588                9.00312408               43.06626423                0.01213867               -0.83720901                0.12668479                0.16251256               -0.48870017                0.78018239                0.33072755
               9.00022121                9.00021678               43.07412474                0.99999997               -0.37848193               -0.06503235                0.17549872               -0.52919125                0.39363665                0.33170250
               9.99969625                8.99964533               43.07410582                0.99661334               -0.05249684               -0.25235897                0.17429275               -0.40336152               -0.00038136                0.22903872
               0.06456322                9.99420785               43.04634328                0.99999999               -0.03359612               -0.03077677                0.10589042               -0.00076215                0.01382393                0.01436162
               1.06422726                9.98948957               43.04543827                0.99999998               -0.03534941               -0.03435504                0.11719407               -0.00141537                0.01773915                0.00146246
               2.06385623                9.98479400               43.04461184                0.99813806               -0.03885424               -0.03762399                0.12880749               -0.00119274                0.01777436               -0.00256382
               3.06345017                9.98012200               43.04371395                0.68849708               -0.89321420               -0.04152131                0.14047995                0.98743821                0.17947871               -0.00474083
               4.04599195                9.99525571               43.04613424                0.01199351               -1.46266877                0.43803249                0.13096401                0.85869356                0.43996117               -0.03175928
               5.03419680               10.00290322               43.04951157                0.01102485               -1.04641286                0.34237966                0.15816215                0.28790528                0.46153056                0.03589928
               6.02506369               10.00709548               43.05386493                0.01000000               -0.87883526                0.30223225                0.16956557                0.10233748                0.54723280                0.05884242
               7.01662009               10.00814153               43.05963895                0.01217181               -0.88051487                0.29116536                0.17380886               -0.10055848                0.73789407                0.10205071
               8.00745339               10.00577492               43.06794510                0.01000002               -0.79160640                0.26508352                0.15968213               -0.40370023                0.75026852                0.19333341
               9.00078796                9.99969251               43.07411943                0.99662764               -0.35925038               -0.05242690                0.17388350               -0.27581751                0.30994389                0.00028216
              10.00026838                9.99912507               43.07410050                1.00000000               -0.05195796               -0.05202659                0.17268040                0.00046925                0.00032790               -0.00032933
              -0.00867259                0.00483504               44.03519267                0.99446911               -0.02301638               -0.02141410                0.06945765                0.00289701               -0.00400190                0.00424468
               0.99109725                0.00268206               44.03668203                0.99999999               -0.02506365               -0.02585052                0.08369777                0.00234455               -0.00408267               -0.00140459
               1.99082614                0.00054428               44.03816398                0.06242947               -0.02415905               -0.03039961                0.09831433                0.00250691                0.03648960               -0.00157404
               2.99061407               -0.00157291               44.04046823                0.01000001               -0.05215681               -0.02809977                0.08598798                0.20727123                0.02925754               -0.00437518
               3.98978300                0.00053415               44.04194030                0.01000000               -0.22858665                0.14098725                0.09476365                0.23593348                0.00409349               -0.00359639
               4.98604233                0.00901768               44.04352516                0.01012158               -0.66003251                0.15300891                0.09757020                0.65482661                0.02750096                0.00613143
               5.97658235                0.02535490               44.04545792                0.06548893               -0.48768201               -0.02651677                0.08625871                0.71172588                0.02616826               -0.00185581
               6.97628869                0.02751285               44.04747424                0.98138407               -0.02981616               -0.02895805                0.09603018                0.00376843                0.01755342               -0.00432697
               7.97598603                0.02963405               44.04925758                1.00000000               -0.03164530               -0.03198693                0.10540896                0.00161198                0.00787514               -0.00044391
               8.97565579                0.03175984               44.05107699                1.00000000               -0.03448987               -0.03478113                0.11500967                0.00152571                0.00754070                0.00106928
               9.97529623                0.03389301               44.05285868                1.00000000               -0.03595558               -0.03784340                0.12468452                0.00121611                0.00553570                0.00508246
              -0.00649065                1.00462089               44.03522128                0.97608468               -0.02432829               -0.02205185                0.07405914                0.00076437                0.00196061                0.00464555
               0.99326607                1.00242356               44.03671066                0.19066373               -0.02653282               -0.02664489                0.08846683                0.00012415                0.00403066               -0.00360403
               1.99297870                1.00024029               44.03824515                0.01000000               -0.02871111               -0.03112299                0.10311799                0.00468257                0.04916916                0.00806119
               2.99269185                0.99814609               44.04064164                0.01000001               -0.30658277                0.01308839                0.08951371                0.15074296                0.03851728               -0.00766033
               3.98684704                1.00194402               44.04197971                0.01000000               -0.62558133                0.11026463                0.09880404                0.52300074               -0.01745012                0.00829705
               4.98018022                1.01054777               44.04341108                0.01000000               -0.61975081                0.06036521                0.10092587                0.99245188               -0.02515424                0.02288982
               5.97445203                1.02508974               44.04477625                0.01000001               -0.29967080               -0.34094762                0.08837887                0.92962899               -0.01327079                0.03635927
               6.97418681                1.02722327               44.04669734                0.99049860               -0.02866839               -0.02933002                0.09811923                0.00249781                0.00797237               -0.00456859
               7.97387866                1.02931418               44.04847492                0.99999999               -0.03226202               -0.03228835                0.10753554                0.00015987                0.00123389               -0.00026478
               8.97354157                1.03141203               44.05026134                0.99999999               -0.03517170               -0.03511373                0.11720671                0.00010927                0.00114345                0.00079766
               9.97317522                1.03351457               44.05203822                0.99946109               -0.03663422               -0.03818773                0.12695109               -0.00032293                0.00056458                0.00632293
              -0.00426263                2.00439400               44.03526011                0.01000000               -0.02570304                0.04576816                0.07840840                0.07779027                0.00219917                0.11540582
               0.99548034                2.00214917               44.03669624                0.01000000               -0.02700548               -0.11007656                0.09281302                0.07241770                0.02153214                0.09277836
               1.99519726                1.99992182               44.03852398                0.01000001               -0.17775721               -0.13410776                0.10097782                0.11299537                0.05666946                0.07441182
               2.99192520                1.99868886               44.04066306                0.01000000               -0.36779609               -0.01758614                0.09981093                0.34986524                0.04457225                0.02114325
               3.98784134                2.00273944               44.04222212                0.01000000               -0.45897702               -0.01989319                0.10449480                0.90235732               -0.00284094                0.03733067
               4.98274565                2.01022499               44.04354866                0.01000001               -0.46709544               -0.14195317                0.10695767                1.25003639               -0.02622681                0.05720228
               5.97849943                2.01853595               44.04484853                0.01000000               -0.53157241               -0.47404005                0.10638028                1.33494333               -0.04731239                0.07909725
               6.97211421                2.02692625               44.04592010                0.01000000               -0.33494779               -0.26453741                0.09963177                0.78667040               -0.03946717                0.06793670
               7.97180047                2.02898828               44.04769234                0.15520212               -0.03283139               -0.03286212                0.10943514                0.00088845               -0.00546280                0.00166832
               8.97145758                2.03105756               44.04943982                0.99821667               -0.03578974               -0.03574034                0.11959006                0.00031637               -0.00382829               -0.00136912
               9.97108468                2.03312925               44.05124350                1.00000000               -0.03729000               -0.03892248                0.12924512               -0.00032457               -0.00117792                0.00619241
              -0.00044518                3.00553626               44.03750623                0.01009714               -0.03682219                0.09365772                0.07605001                0.07708670               -0.00204470                0.22973722
               0.99918660                3.00022203               44.03865591                0.01000001               -0.04279532               -0.22865463                0.08943281                0.22398684                0.00423639                0.17920402
               1.99869892                2.99755813               44.03993701                0.01000000               -0.11575312               -0.28209601                0.09876108                0.49472177                0.02026186                0.12293629
               2.99687154                2.99779437               44.04135202                0.01000000               -0.26704285               -0.17063957                0.10625236                0.87879133                0.02472932                0.06968767
               3.99335806                3.00154615               44.04277461                0.01023361               -0.37435502               -0.18038536                0.11199654                1.21072728                0.01366855                0.06695217
               4.98938444                3.00770871               44.04410805                0.01000000               -0.44542174               -0.25852136                0.11596987                1.47321732               -0.00284453                0.09068040
               5.98444962                3.01560893               44.04537675                0.01000001               -0.49582770               -0.33002135                0.11733863                1.49162813               -0.02104248                0.12554389
               6.97946788                3.02193253               44.04658713                0.01000001               -0.73422536               -0.40988482                0.11848693                1.54677813               -0.07921727                0.16104593
               7.96976512                3.02865694               44.04694692                0.01000001               -0.50304812               -0.30270919                0.11519539                1.23798968               -0.08564023                0.16069340
               8.96940692                3.03069722               44.04858200                0.01120091               -0.03698824               -0.30345910                0.12228564                0.89976106               -0.01171728                0.13780705
               9.96902535                3.03273613               44.05042350                0.85861937               -0.03815692               -0.73359131                0.13156008                1.04055582               -0.00172825                0.10614860
               0.00790756                4.00626715               44.03966280                0.01000003                0.00306402               -0.03151932                0.07858264                0.29213731               -0.00080857                0.24504379
               1.00793820                3.99757607               44.04044982                0.01000000               -0.01941029               -0.34425510                0.09033548                0.58959810                0.00423592                0.16816111
               2.00751936                3.99427990               44.04131534                0.01000000               -0.12126018               -0.34325966                0.10166344                1.00520935                0.01862117                0.11309472
               3.00551300                3.99527606               44.04238395                0.01022901               -0.26889058               -0.26801287                0.11123400                1.24854960                0.03279065                0.08335278
               4.00214154                3.99913173               44.04362034                0.01000000               -0.36828889               -0.26878954                0.11892850                1.47276733                0.04037179                0.08673162
               4.99814722                4.00505456               44.04501804                0.01000001               -0.40166856               -0.28983530                0.12481749                1.60715195                0.04288219                0.12046750
               5.99410817                4.01193552               44.04650943                0.01000001               -0.40727270               -0.37205209                0.12909273                1.69586683                0.03375354                0.17015936
               6.99000177                4.01872856               44.04791989                0.01008196               -0.31563004               -0.41751407                0.13266470                1.66382057                0.02097601                0.22381373
               7.98779557                4.02293410               44.04933981                0.01019221               -0.23140773               -0.57259531                0.14013839                1.82489602                0.00803720                0.30355265
               8.98537361                4.02498838               44.05054715                0.01000000                0.00112065               -0.67801753                0.14718515                1.33530986               -0.01567004                0.30064234
               9.98781799                4.01845743               44.05163343                0.01000001                0.24443734               -1.11319428                0.14722552                0.99346644               -0.01562990                0.23971618
               0.02277972                5.00490587               44.04215792                0.01000003                0.01860870               -0.56015763                0.08043526                0.77105768               -0.00743259                0.28329373
               1.02296581                4.99333693               44.04237081                0.01000000               -0.08383064               -0.35963412                0.09272325                1.20215957                0.00242965                0.18271043
               2.02110311                4.99069294               44.04271396                0.01000001               -0.29875556               -0.27739958                0.10505830                1.37441465                0.02303343                0.09223471
               3.01699070                4.99243411               44.04343129                0.01000000               -0.40341007               -0.30368209                0.11640792                1.51748374                0.05486788                0.07381074
               4.01303491                4.99617036               44.04464505                0.01000001               -0.41335089               -0.28811358                0.12589779                1.59962082                0.08888723                0.09239517
               5.00872368                5.00191200               44.04625877                0.01000001               -0.41709750               -0.30506961                0.13354261                1.65998614                0.10835909                0.13824686
               6.00469296                5.00816789               44.04808800                0.01005339               -0.34889812               -0.36737643                0.13965355                1.60176719                0.11252026                0.19971866
               7.00174572                5.01358224               44.04997849                0.01000000               -0.23448744               -0.49395460                0.14540116                1.49560014                0.10471255                0.27135170
               8.00000321                5.01720503               44.05177981                0.01000000               -0.05779664               -0.59460344                0.15130228                1.25532569                0.08410609                0.33412902
               9.00058979                5.01713687               44.05334636                0.01000000                0.09766879               -0.71398815                0.16279358                0.87645597                0.05407361                0.36210794
              10.00195659                5.01047224               44.05446121                0.01000001                0.13668001               -0.55739012                0.16086703                0.45529550                0.03768711                0.32689057
               0.04646661                5.99506400               44.04520262                0.10432360               -0.02722788               -0.50369035                0.08049157                0.95190370               -0.00355964                0.16678587
               1.04619433                5.99038339               44.04469792                0.01000001               -0.52780701               -0.16142057                0.09257082                1.07991395               -0.02056984                0.11002832
               2.03591047                5.98873191               44.04385116                0.01000000               -0.79045395               -0.26450795                0.10953320                1.41469294                0.00149689                0.05872571
               3.03038525                5.98920242               44.04436597                0.01000001               -0.56271975               -0.29398582                0.12214045                1.47568870                0.09474887                0.04875737
               4.02465607                5.99336946               44.04569081                0.01000001               -0.55179166               -0.27506934                0.13328331                1.63507435                0.14955839                0.07305460
               5.01934941                5.99895317               44.04762017                0.01005289               -0.50913982               -0.23785430                0.14197034                1.55450932                0.18750865                0.13841875
               6.01447327                6.00458800               44.04995785                0.01000000               -0.42363914               -0.29556472                0.14882219                1.35362872                0.20792209                0.21418339
               7.01087663                6.00884947               44.05250089                0.01000000               -0.25629067               -0.41091948                0.15446218                1.06195993                0.20947247                0.30368063
               8.00934746                6.01104203               44.05498833                0.01000000               -0.06205543               -0.55797362                0.16209168                0.75400955                0.18205710                0.39690312
               9.00963552                6.01070862               44.05699221                0.01000001                0.04528479               -0.58443486                0.16869559                0.41145860                0.11017276                0.45064816
              10.01025316                6.00730963               44.05798424                0.01000000                0.06176332               -0.22503819                0.17318976                0.19226350                0.06175863                0.43036742
               0.05117902                6.99483206               44.04605305                0.97053440               -0.02828353               -0.02520597                0.08844049                0.00087106               -0.01181790                0.03582082
               1.05089618                6.99010851               44.04535044                0.96981594               -0.03005374               -0.02924369                0.10041258                0.00035768               -0.01155529                0.01488088
               2.05057794                6.98540278               44.04465133                0.01000000               -0.45146268               -0.18389259                0.11230705                0.79158503                0.04087169                0.01067681
               3.04186693                6.98655439               44.04500861                0.01000001               -0.72961431               -0.45316210                0.13061484                1.50969172                0.12225057               -0.10813149
               4.03598565                6.99066898               44.04637861                0.01008313               -0.66357965               -0.15944769                0.14063960                1.53671266                0.21901789                0.05461266
               5.02859533                6.99715491               44.04894950                0.01000000               -0.70582091               -0.10028342                0.15061428                1.38326371                0.28545467                0.12297733
               6.02186924                7.00225660               44.05195337                0.01000000               -0.60322239               -0.12204477                0.15661380                0.99195698                0.31912965                0.21016950
               7.01653089                7.00536385               44.05539004                0.01000000               -0.43224933               -0.24222578                0.16328676                0.55501386                0.34154264                0.31721714
               8.01322425                7.00604556               44.05898599                0.01000001               -0.19897612               -0.38088898                0.16697590                0.14713403                0.31283586                0.44889118
               9.01255136                7.00544817               44.06184913                0.01000002               -0.03122026               -0.49306293                0.18029144               -0.09886021                0.19547712                0.63120516
              10.01259984                7.00597148               44.06308217                0.01000001                0.00484811               -0.15510624                0.18160680               -0.09656522                0.12234870                0.64567166
               0.05593112                7.99455988               44.04647699                1.00000000               -0.03003598               -0.02805611                0.09409305                0.00100686               -0.00153659                0.01903472
               1.05563076                7.98979852               44.04576781                0.99999999               -0.03174189               -0.03189030                0.10616965                0.00013696               -0.00180322                0.00392976
               2.05529629                7.98505406               44.04505097                0.15098778               -0.01589405               -0.03578601                0.11842464               -0.00924953               -0.08235365               -0.01211906
               3.05531288                7.98013918               44.04273811                0.01000001               -0.52532424               -0.33139772                0.12538207                1.14616504                0.16949582               -0.08222685
               4.04478980                7.99018051               44.04713931                0.01020119               -0.99429084               -0.02177794                0.15386164                1.55323402                0.40017388                0.02379797
               5.03542707                7.99694750               44.05005445                0.01000000               -0.93431642                0.11152793                0.15868406                1.06786065                0.37056953                0.09281414
               6.02610347                8.00214710               44.05383041                0.01000000               -0.86195594                0.09922352                0.16491652                0.61235723                0.43519079                0.17818642
               7.01818795                8.00400495               44.05832687                0.01000001               -0.69488256                0.00541236                0.16737428                0.09852815                0.49170717                0.28397921
               8.01220582                8.00342425               44.06341102                0.01000002               -0.52277735               -0.13701672                0.17578001               -0.44584088                0.55709814                0.46438714
               9.00773240                8.00084736               44.06925997                0.01412210               -0.24652884               -0.26073301                0.14452699               -0.57626882                0.41572201                0.70969160
              10.00727525                8.00420750               44.07104324                0.01000000               -0.04571557               -0.31583027                0.14188049               -0.30811207                0.20546011                0.61561414
               0.06072188                8.99427094               44.04698563                1.00000000               -0.03171375               -0.02972848                0.09957840                0.00098577                0.00289899                0.01876302
               1.06040474                8.98947071               44.04620719                0.99999998               -0.03347952               -0.03364907                0.11201262                0.00006588                0.00216804                0.00316193
               2.06005229                8.98468706               44.04541268                0.99999999               -0.03704797               -0.03741286                0.12443561                0.00010804               -0.00385417               -0.00826912
               3.05966378                8.97992644               44.04452179                0.01102722               -0.49051348               -0.03162744                0.13671452                0.73326936                0.17194769                0.05586526
               4.05024202                8.99023342               44.04726710                0.01000000               -1.08389145                0.21623879                0.15868406                1.11432747                0.39011609               -0.02058117
               5.03798595                8.99938547               44.05088612                0.01000000               -1.15915446                0.30089538                0.17241019                0.66966371                0.44275285                0.05706064
               6.02705893                9.00424107               44.05519005                0.01000001               -1.03808264                0.25739181                0.17185242                0.27080218                0.51745585                0.10642659
               7.01722430                9.00547210               44.06059284                0.01000002               -0.97969536                0.21967443                0.17027275               -0.11102574                0.66019150                0.17628396
               8.00746502                9.00330522               44.06787289                0.01196308               -0.84907818                0.13089267                0.15627816               -0.48611062                0.78932928                0.32521143
               9.00024274                9.00023351               44.07588128                0.99999997               -0.38738497               -0.05693168                0.17581643               -0.52835152                0.40171861                0.33256100
               9.99971732                8.99965487               44.07584865                0.99680605               -0.05254136               -0.25361874                0.17427823               -0.40679654               -0.00039440                0.24102328
               0.06555131                9.99396531               44.04739973                1.00000000               -0.03353404               -0.03056309                0.10520453               -0.00103462                0.01392512                0.01426846
               1.06521597                9.98912554               44.04661321                0.99999138               -0.03542943               -0.03451725                0.11769655               -0.00185290                0.01805859                0.00134357
               2.06484272                9.98430580               44.04590750                0.99956843               -0.03920269               -0.03812567                0.13016195               -0.00190222                0.01845275               -0.00220055
               3.06443191                9.97950663               44.04513212                0.74278761               -0.86127000               -0.04198078                0.14263635                0.98678707                0.16957125               -0.00356953
               4.04761732                9.99450528               44.04745725                0.01000001               -1.48096106                0.42718633                0.16227594                0.91046867                0.37647083               -0.01773540
               5.03481269               10.00296541               44.05124307                0.01142296               -1.10922141                0.35799316                0.17448571                0.32215663                0.44211588                0.03777495
               6.02543289               10.00729494               44.05560281                0.01000000               -0.89547062                0.30538675                0.17571016                0.10904774                0.53309307                0.06006676
               7.01690328               10.00839844               44.06135100                0.01000001               -0.88553448                0.29263367                0.17016117               -0.09474372                0.72356189                0.10049603
               8.00772220               10.00604210               44.06952755                0.01000002               -0.80437767                0.27368790                0.15330921               -0.40876776                0.75545626                0.19530023
               9.00081572                9.99970873               44.07585835                0.99682171               -0.37128000               -0.05247859                0.17391090               -0.28804989                0.31845044                0.00027930
              10.00029660                9.99913513               44.07582577                1.00000000               -0.05191256               -0.05197443                0.17235826                0.00056771                0.00033860               -0.00032663
              -0.01027654                0.00482677               45.03588592                0.99309473               -0.02243614               -0.02161259                0.06909751                0.00345939               -0.00211875                0.00313438
               0.98949910                0.00261614               45.03751784                0.99999999               -0.02497128               -0.02585750                0.08394029                0.00211836               -0.00442947               -0.00083852
               1.98922403                0.00042298               45.03914989                0.07735949               -0.02751973               -0.03063757                0.09869994               -0.00074362                0.02078888               -0.00204583
               2.98894870               -0.00181613               45.04129840                0.01000001               -0.04862824               -0.02100411                0.07652455                0.21934753                0.01187488               -0.00486420
               3.98825147                0.00046714               45.04286797                0.01000002               -0.21907567                0.14084107                0.09022948                0.24707287               -0.00050652                0.00086263
               4.98456719                0.00913286               45.04446445                0.01000000               -0.67123615                0.15699913                0.09220227                0.67520388                0.01854166                0.00580223
               5.97482674                0.02599883               45.04632079                0.05898692               -0.50255088               -0.02560232                0.08605396                0.73532073                0.01734820               -0.00123072
               6.97451617                0.02823777               45.04843320                0.97941803               -0.03051459               -0.02956948                0.09587088                0.00544893                0.01976420               -0.00753457
               7.97421645                0.03040065               45.05031009                1.00000000               -0.03178166               -0.03166230                0.10571471                0.00133108                0.00743711                0.00049198
               8.97388054                0.03257590               45.05222732                1.00000000               -0.03484401               -0.03477254                0.11490404                0.00176234                0.00686470                0.00101116
               9.97351957                0.03475194               45.05410630                1.00000000               -0.03609649               -0.03786756                0.12466635                0.00116598                0.00492323                0.00474811
              -0.00803132                1.00461064               45.03596341                0.97016164               -0.02465019               -0.02217401                0.07417479                0.00107014                0.00134383                0.00482581
               0.99172218                1.00235757               45.03759809                0.21189056               -0.02679728               -0.02670107                0.08908226               -0.00011377                0.00400552               -0.00346242
               1.99143273                1.00011660               45.03928198                0.01000000               -0.03010389               -0.03123279                0.10409121                0.00525420                0.03383113                0.00317174
               2.99112010                0.99797383               45.04151453                0.01000001               -0.30925147                0.01786390                0.08084096                0.16392953                0.01771739               -0.00168606
               3.98524770                1.00187555               45.04295399                0.01000000               -0.62833584                0.11135871                0.09540806                0.53961180               -0.02205715                0.01128767
               4.97855338                1.01070285               45.04440284                0.01000000               -0.63101019                0.06475332                0.09738583                1.02045749               -0.03506935                0.02301683
               5.97262750                1.02574281               45.04565347                0.01000001               -0.30918152               -0.34897742                0.08650676                0.96022179               -0.02249599                0.04377705
               6.97236975                1.02794207               45.04767849                0.98963041               -0.02833991               -0.02930482                0.09730956                0.00370938                0.00756635               -0.00470003
               7.97206070                1.03008403               45.04954946                0.99999999               -0.03236171               -0.03206479                0.10739424                0.00038330                0.00073493                0.00002747
               8.97172252                1.03222817               45.05143399                0.99999999               -0.03527557               -0.03515509                0.11735093                0.00023821                0.00105218                0.00102754
               9.97135519                1.03437326               45.05330956                0.99999999               -0.03673278               -0.03827891                0.12728181               -0.00037877                0.00050227                0.00612405
              -0.00574899                2.00438329               45.03604647                0.01000000               -0.02601482                0.05048539                0.07937063                0.08715711                0.00257936                0.11237079
               0.99399086                2.00208212               45.03762753                0.01000000               -0.02690781               -0.11059037                0.09378829                0.08141621                0.01761255                0.08808496
               1.99371285                1.99979832               45.03951999                0.01000001               -0.17612574               -0.13701970                0.08978488                0.12577694                0.04463809                0.06726420
               2.99046835                1.99854115               45.04165885                0.01000000               -0.36990852               -0.01795765                0.10153102                0.37086781                0.03383588                0.02788136
               3.98631468                2.00269431               45.04326313                0.01000000               -0.46796336               -0.01872256                0.10322325                0.93501856               -0.01132532                0.04073210
               4.98110908                2.01042793               45.04461235                0.01000001               -0.47613618               -0.14179685                0.10571202                1.28869580               -0.03681558                0.06209731
               5.97679196                2.01901928               45.04590769                0.01000000               -0.54299702               -0.48602228                0.10568110                1.37733035               -0.06115371                0.09228755
               6.97024914                2.02765167               45.04691204                0.01000000               -0.34269685               -0.27018252                0.09883292                0.81106335               -0.04707953                0.07688936
               7.96993802                2.02975936               45.04878508                0.16236083               -0.03265368               -0.03263929                0.10913822                0.00125276               -0.00468222                0.00383366
               8.96959607                2.03187279               45.05063838                0.99970151               -0.03581062               -0.03586510                0.12005254                0.00046330               -0.00320116               -0.00075728
               9.96922181                2.03398636               45.05254043                1.00000000               -0.03742554               -0.03911957                0.12985496               -0.00037324               -0.00088637                0.00613616
              -0.00168585                3.00562035               45.03827153                0.01000000               -0.03786872                0.10019640                0.07764965                0.09322303               -0.00239147                0.22810547
               0.99793547                3.00014576               45.03954646                0.01000001               -0.04124555               -0.23509834                0.08917488                0.24341092                0.00176091                0.17550254
               1.99748924                2.99737621               45.04092385                0.01000000               -0.11470006               -0.28982871                0.10045422                0.52208700                0.01634513                0.11929123
               2.99564146                2.99761468               45.04241656                0.01000000               -0.27139726               -0.17444945                0.10648071                0.91460711                0.01924931                0.07174229
               3.99206130                3.00150110               45.04389521                0.01023509               -0.38195690               -0.18231969                0.11238708                1.25581867                0.00694689                0.07100725
               4.98800233                3.00786692               45.04526826                0.01000000               -0.45554680               -0.26285494                0.11609929                1.52487686               -0.01108559                0.09699877
               5.98295036                3.01602236               45.04654956                0.01000001               -0.50756903               -0.33735630                0.11726991                1.54178040               -0.02978260                0.13478052
               6.97785095                3.02253842               45.04777226                0.01000001               -0.75428638               -0.41974657                0.11835000                1.59659008               -0.08872720                0.17634951
               7.96786463                3.02943124               45.04810225                0.01000001               -0.51730851               -0.30966207                0.11574286                1.28173780               -0.09258641                0.17432794
               8.96750478                3.03151087               45.04981186                0.01000001               -0.03720221               -0.34368930                0.12322856                0.95024838               -0.01257330                0.15277727
               9.96712059                3.03359087               45.05174626                0.88760723               -0.03841867               -0.79016880                0.13248788                1.09894091               -0.00164735                0.12505827
               0.00706465                4.00638722               45.04047028                0.01000000                0.00385724               -0.03391373                0.07991983                0.30532756               -0.00210157                0.24385099
               1.00710322                3.99738016               45.04136090                0.01000000               -0.01894869               -0.35644661                0.09155776                0.61684296                0.00380181                0.16596027
               2.00668568                3.99400175               45.04233683                0.01000000               -0.12338109               -0.35250006                0.10245305                1.04658075                0.01767089                0.11188237
               3.00463560                3.99505216               45.04350166                0.01023186               -0.27534281               -0.27261210                0.11233990                1.29642848                0.03018854                0.08414240
               4.00117882                3.99904792               45.04481337                0.01000000               -0.37751242               -0.27282955                0.11981204                1.52598030                0.03644294                0.09029347
               4.99708535                4.00517083               45.04626899                0.01000001               -0.41113800               -0.29419444                0.12535451                1.66338946                0.03808442                0.12626350
               5.99295606                4.01227216               45.04780179                0.01000001               -0.41566453               -0.37948261                0.12909438                1.75316253                0.02916358                0.17895767
               6.98877206                4.01925674               45.04924736                0.01009679               -0.31778632               -0.42699745                0.13193028                1.71905385                0.02048947                0.23421831
               7.98660033                4.02356611               45.05074266                0.01023121               -0.21653298               -0.58959605                0.13696429                1.85542850                0.02178386                0.32094330
               8.98444140                4.02499901               45.05209094                0.01000000                0.02201431               -0.71086108                0.14630062                1.34836618                0.05047720                0.24214779
               9.98704062                4.01818299               45.05336071                0.01000001                0.25992177               -1.16108143                0.15031681                1.02234287                0.06705664                0.17148624
               0.02243483                5.00494208               45.04294723                0.01000003                0.02229662               -0.58155509                0.07836852                0.79796168               -0.00632449                0.27808052
               1.02265779                4.99301683               45.04329444                0.01000000               -0.08429882               -0.37073329                0.09232738                1.24415283                0.00381226                0.17888109
               2.02074885                4.99032621               45.04376722                0.01000001               -0.30669643               -0.28347529                0.10590792                1.42490824                0.02351892                0.09134187
               3.01652386                4.99216244               45.04459510                0.01000000               -0.41433073               -0.30827757                0.11760957                1.57185273                0.05463236                0.07561660
               4.01246224                4.99604451               45.04590963                0.01000001               -0.42389934               -0.29121190                0.12687242                1.65629630                0.08770292                0.09530048
               5.00804588                5.00198303               45.04759746                0.01000001               -0.42672681               -0.30903029                0.13396129                1.71759009                0.10644686                0.14402777
               6.00392770                5.00843271               45.04948578                0.01006323               -0.35539056               -0.37391302                0.13931389                1.65735674                0.11133406                0.20699752
               7.00093807                5.01399847               45.05143174                0.01000000               -0.23483819               -0.50410881                0.14341240                1.54454724                0.10688739                0.27942577
               7.99923094                5.01763932               45.05329174                0.01000000               -0.05414196               -0.60938774                0.14774743                1.28126214                0.10083682                0.33158609
               8.99985523                5.01729365               45.05498933                0.01000000                0.09842779               -0.70342844                0.15480249                0.87668674                0.06489226                0.33480655
              10.00119949                5.01036924               45.05605163                0.01000001                0.13442646               -0.54533531                0.15701212                0.44796264                0.02895187                0.30113636
               0.04687438                5.99475611               45.04599952                0.08685519               -0.02722304               -0.52088810                0.07898082                0.98430086               -0.00414320                0.16582788
               1.04660215                5.98996549               45.04562356                0.01000001               -0.54180722               -0.16615692                0.09278170                1.11689694               -0.01913425                0.10863665
               2.03603823                5.98833224               45.04494844                0.01000000               -0.81238955               -0.27222980                0.11024010                1.46342124                0.00512346                0.05762394
               3.03035436                5.98888661               45.04560943                0.01000001               -0.57770386               -0.29269936                0.12237785                1.52946924                0.09511438                0.04308067
               4.02448416                5.99322368               45.04702022                0.01000001               -0.56527030               -0.27608356                0.13352825                1.68786203                0.15004388                0.07885344
               5.01904895                5.99899022               45.04904697                0.01006359               -0.51982045               -0.24046968                0.14248015                1.60712118                0.18748528                0.14454589
               6.01408775                6.00479390               45.05144602                0.01000000               -0.42962773               -0.29986982                0.14766604                1.40313709                0.20767560                0.22092966
               7.01045640                6.00917456               45.05403926                0.01000000               -0.25786716               -0.41866718                0.15195553                1.10379119                0.21331018                0.30968892
               8.00893040                6.01137836               45.05660444                0.01000000               -0.06055913               -0.56338184                0.15678417                0.78493983                0.18767174                0.39736173
               9.00924521                6.01093044               45.05866036                0.01000001                0.04591368               -0.57774361                0.16175759                0.42457396                0.11408143                0.45261544
              10.00984868                6.00727628               45.05971859                0.01000000                0.06034642               -0.22130037                0.16686833                0.20557578                0.06398745                0.43827565
               0.05170209                6.99452431               45.04693073                0.96429823               -0.02824909               -0.02505920                0.08751152                0.00138801               -0.01177273                0.03719321
               1.05141960                6.98969369               45.04636048                0.95757511               -0.03029701               -0.02923976                0.10136951                0.00093116               -0.01186156                0.01618072
               2.05109615                6.98488161               45.04579002                0.01000000               -0.45988961               -0.19040189                0.11501264                0.82493172                0.03585949                0.01020066
               3.04222181                6.98630845               45.04618364                0.01000001               -0.74901452               -0.45618056                0.12560931                1.53720219                0.13053634               -0.06135044
               4.03611586                6.99052284               45.04784953                0.01009519               -0.68018632               -0.16215558                0.14616276                1.57137115                0.22484505                0.05680582
               5.02861808                6.99717363               45.05045440                0.01000000               -0.71548821               -0.10010738                0.14961612                1.42663971                0.28316047                0.13267368
               6.02180610                7.00243531               45.05351962                0.01000000               -0.60943285               -0.12314741                0.15503297                1.03129799                0.31867468                0.21935486
               7.01642943                7.00562513               45.05701671                0.01000000               -0.43161212               -0.24593410                0.15916086                0.58939445                0.34174673                0.32222187
               8.01317386                7.00637168               45.06062438                0.01000001               -0.19903214               -0.38681491                0.16138944                0.18032031                0.32702972                0.45859351
               9.01244878                7.00573878               45.06369116                0.01000002               -0.02772652               -0.48877998                0.16787255               -0.05491973                0.20832065                0.62230851
              10.01261933                7.00594324               45.06495195                0.01000001                0.01705416               -0.17791168                0.17766691               -0.08521845                0.11129199                0.64464696
               0.05656338                7.99425493               45.04741277                1.00000000               -0.02999122               -0.02780867                0.09324056                0.00084233               -0.00175838                0.01904254
               1.05626347                7.98938069               45.04683283                0.99999999               -0.03206382               -0.03213620                0.10692373                0.00002317               -0.00170381                0.00390455
               2.05592211                7.98452421               45.04625441                0.14814827               -0.04031482               -0.03666384                0.12114575                0.00394204               -0.02964460               -0.01170948
               3.05545718                7.97976300               45.04512559                0.01000001               -0.54378566               -0.35239704                0.21807012                1.18128682                0.14722270               -0.06722153
               4.04504639                7.98998057               45.04855866                0.01023734               -0.98939552               -0.01885080                0.14790771                1.56714131                0.35716680                0.03793652
               5.03566927                7.99698808               45.05167942                0.01000000               -0.93920932                0.11291917                0.15780446                1.09510159                0.36570337                0.11607842
               6.02626221                8.00233095               45.05548106                0.01000000               -0.86806757                0.09969876                0.16303503                0.63817900                0.42751797                0.18902632
               7.01830791                8.00425588               45.05998147                0.01000001               -0.69195214                0.00531509                0.16281879                0.11840331                0.49569609                0.29064580
               8.01242317                8.00364206               45.06518482                0.01000002               -0.48663246               -0.14299523                0.16386408               -0.42554362                0.53872974                0.45332344
               9.00857526                8.00115484               45.07039324                0.01000001               -0.23438914               -0.27345775                0.14622000               -0.60464870                0.42310945                0.76515040
              10.00773538                8.00371805               45.07236034                0.01000000               -0.08398819               -0.31299883                0.17004736               -0.38696520                0.24948164                0.68747713
               0.06146741                8.99396814               45.04797755                1.00000000               -0.03166211               -0.02949595                0.09880384                0.00085157                0.00279181                0.01863215
               1.06115079                8.98905097               45.04732935                0.99999999               -0.03373620               -0.03381383                0.11252385               -0.00013083                0.00232400                0.00325530
               2.06079269                8.98414834               45.04667078                0.99999999               -0.03798045               -0.03819220                0.12673599               -0.00030980               -0.00321986               -0.00839800
               3.06039118                8.97926051               45.04591986                0.01000000               -0.52795380               -0.04665267                0.14125118                0.79160798                0.18304650                0.00353538
               4.05023361                8.99014582               45.04900697                0.01000000               -1.11107234                0.22700673                0.16826330                1.12677656                0.31349360                0.04662012
               5.03816974                8.99943202               45.05264899                0.01000000               -1.14658706                0.29783708                0.16890322                0.67538771                0.40286611                0.07337271
               6.02730187                9.00442929               45.05692007                0.01000001               -1.03416776                0.25701743                0.17033728                0.28274144                0.50251853                0.11412674
               7.01748638                9.00573143               45.06228801                0.01000002               -0.97689225                0.21896238                0.16680034               -0.10294173                0.65237353                0.17991961
               8.00776403                9.00351178               45.06938979                0.01163567               -0.86032782                0.13647721                0.14702642               -0.49149065                0.80407058                0.31677869
               9.00027983                9.00026962               45.07764107                0.99999997               -0.40052085               -0.07054408                0.17613533               -0.57725168                0.41466527                0.36487199
               9.99975361                8.99968326               45.07759139                0.99700514               -0.05262151               -0.22768759                0.17424546               -0.42838957               -0.00037209                0.26334973
               0.06641476                9.99366501               45.04844737                1.00000000               -0.03341029               -0.03031288                0.10430438               -0.00132437                0.01386522                0.01413549
               1.06608066                9.98870442               45.04779220                0.99982831               -0.03541972               -0.03465489                0.11804714               -0.00224568                0.01787573                0.00144133
               2.06570637                9.98376036               45.04721508                0.99999999               -0.03944052               -0.03879741                0.13155370               -0.00235558                0.01800576               -0.00259765
               3.06529185                9.97882995               45.04656668                0.80070013               -0.91479757               -0.04305629                0.14492610                1.02808385                0.18697470               -0.00489883
               4.04741042                9.99452070               45.04937976                0.01000001               -1.51991503                0.43748840                0.16938978                0.92342403                0.27588968                0.05705901
               5.03489355               10.00294482               45.05300128                0.01148343               -1.08963985                0.35128006                0.17387947                0.31991101                0.39752225                0.03295735
               6.02561762               10.00747130               45.05737913                0.01000000               -0.88634806                0.30420079                0.17498424                0.11609053                0.51696079                0.06218860
               7.01716659               10.00863513               45.06304218                0.01000001               -0.87812277                0.29036975                0.16760502               -0.08696388                0.71015016                0.09813485
               8.00805517               10.00637161               45.07101128                0.01000000               -0.81539195                0.28598253                0.14159274               -0.41544475                0.77166461                0.20015114
               9.00085875                9.99974396               45.07759764                0.99702038               -0.38574279               -0.05256615                0.17393040               -0.30247305                0.33211038                0.00030838
              10.00034031                9.99916429               45.07754766                1.00000000               -0.05184403               -0.05189664                0.17203765                0.00070356                0.00031098               -0.00036133
              -0.01197880                0.00474273               46.03657462                0.99360757               -0.02765116               -0.01858786                0.06867992                0.00077258               -0.00591296                0.00593281
               0.98774468                0.00250479               46.03836083                0.99999999               -0.02799203               -0.02601728                0.08417118                0.00311452               -0.00631791               -0.00128939
               1.98746136                0.00023918               46.04013798                0.08112127               -0.03056017               -0.03055582                0.09875177               -0.00261000               -0.00255678               -0.00284600
               2.98713348               -0.00210246               46.04199873                0.01000000               -0.04272687               -0.01456200                0.06733454                0.23108053               -0.00461506               -0.00323468
               3.98660682                0.00037937               46.04374489                0.01000002               -0.20865623                0.13952479                0.08673198                0.25904814               -0.00181351                0.00385177
               4.98296036                0.00925696               46.04536920                0.01000003               -0.68231260                0.16032530                0.09151023                0.69617708                0.00281301                0.01437944
               5.97296057                0.02666492               46.04717900                0.05279551               -0.51328416               -0.02865470                0.08577377                0.75732099                0.00801970               -0.00060550
               6.97269467                0.02887160               46.04939165                0.97793247               -0.03099550               -0.02211585                0.09559424               -0.00024201                0.01541743               -0.00313313
               7.97234066                0.03116514               46.05137187                1.00000000               -0.03489008               -0.03254020                0.10588825                0.00447652                0.00509548               -0.00028825
               8.97199687                0.03336673               46.05337507                1.00000000               -0.03519611               -0.03452060                0.11446966                0.00137963                0.00510994                0.00108799
               9.97163673                0.03558146               46.05535201                1.00000000               -0.03601378               -0.03785247                0.12420185                0.00121197                0.00400883                0.00430372
              -0.00973313                1.00455686               46.03670477                0.97044278               -0.02392625               -0.02047191                0.07412223               -0.00094246                0.00158654                0.00660597
               0.99002761                1.00224461               46.03849230                0.19895313               -0.02639952               -0.02711459                0.08941340               -0.00044243                0.00394997               -0.00384970
               1.98973888                0.99993362               46.04032698                0.01000000               -0.03267079               -0.03069678                0.10454739                0.00523285                0.01114779               -0.01262638
               2.98937419                0.99775192               46.04225846                0.01000001               -0.31106441                0.02234561                0.07163297                0.17831452               -0.00082843                0.00802913
               3.98351759                1.00177462               46.04388787                0.01000000               -0.62974192                0.11167454                0.09269650                0.55814004               -0.02524118                0.01601891
               4.97677935                1.01086021               46.04535880                0.01000000               -0.63955676                0.06722787                0.09599344                1.05040892               -0.05589426                0.03192207
               5.97072646                1.02637837               46.04650639                0.01000001               -0.31686060               -0.35896546                0.08495559                0.99031643               -0.03327056                0.05597166
               6.97044214                1.02865044               46.04864353                0.98346937               -0.02943000               -0.02506621                0.09678651                0.00309628                0.00873494               -0.00305836
               7.97013786                1.03083974               46.05062280                0.99999999               -0.03198140               -0.03264874                0.10748198                0.00054593                0.00106898               -0.00016792
               8.96980251                1.03302152               46.05260836                0.99999999               -0.03518655               -0.03510901                0.11741968                0.00022611                0.00085886                0.00114017
               9.96943413                1.03520293               46.05458386                1.00000000               -0.03683877               -0.03830890                0.12734555               -0.00055308                0.00037799                0.00567982
              -0.00737317                2.00433330               46.03684752                0.01000000               -0.02677604                0.05588504                0.08019600                0.09743263                0.00269606                0.11069442
               0.99235907                2.00196250               46.03857200                0.01000000               -0.02840617               -0.11229527                0.09470369                0.09169200                0.00382410                0.08292151
               1.99205871                1.99962524               46.04031968                0.01000001               -0.17501476               -0.14032552                0.09162832                0.13993972                0.03502770                0.05936457
               2.98885878                1.99834445               46.04269368                0.01000000               -0.36986891               -0.01827578                0.10158221                0.39492937                0.02976899                0.03791816
               3.98466133                2.00261286               46.04428658                0.01000000               -0.47469971               -0.01792792                0.10251113                0.96923863               -0.02385559                0.04703178
               4.97936478                2.01060151               46.04566290                0.01000001               -0.48423314               -0.14340831                0.10528109                1.33008835               -0.04683206                0.07025378
               5.97497667                2.01948561               46.04696215                0.01000000               -0.55347760               -0.49839643                0.10592065                1.41961365               -0.07521266                0.10668356
               6.96829523                2.02837027               46.04789676                0.01000000               -0.34980873               -0.27631221                0.09926979                0.83625360               -0.05435096                0.08697879
               7.96798049                2.03051217               46.04987510                0.17170528               -0.03285114               -0.03269123                0.10954073                0.00151019               -0.00310583                0.00644507
               8.96763821                2.03266455               46.05184087                0.99807913               -0.03588196               -0.03606592                0.12063385                0.00060190               -0.00224602               -0.00034002
               9.96726285                2.03481528               46.05384060                0.99999999               -0.03753537               -0.03929609                0.13042007               -0.00045298               -0.00072236                0.00565740
              -0.00304287                3.00567456               46.03905922                0.01000000               -0.03876257                0.10675866                0.07865805                0.10528785               -0.00350045                0.22552400
               0.99656950                2.99999871               46.04043941                0.01000001               -0.04007040               -0.24075969                0.08971404                0.26205839                0.00242727                0.16669256
               1.99615572                2.99712711               46.04194609                0.01000000               -0.11421688               -0.29755352                0.10075026                0.55305039                0.01219447                0.12419722
               2.99428516                2.99738640               46.04348163                0.01000000               -0.27552076               -0.17820369                0.10753832                0.95352049                0.01145027                0.07141623
               3.99064530                3.00141606               46.04502235                0.01023871               -0.38883956               -0.18448418                0.11315732                1.30236903               -0.00071511                0.07582038
               4.98650837                3.00799204               46.04643004                0.01000000               -0.46476656               -0.26754442                0.11672034                1.57750443               -0.02039409                0.10373206
               5.98134997                3.01641044               46.04772215                0.01000001               -0.51838586               -0.34535771                0.11771992                1.59342785               -0.03936126                0.14371720
               6.97614065                3.02312419               46.04895413                0.01000001               -0.77380928               -0.43084161                0.11850136                1.64754689               -0.09954161                0.18995356
               7.96587379                3.03018592               46.04926178                0.01000001               -0.53146050               -0.31743474                0.11588021                1.32915941               -0.09895654                0.18449608
               8.96551144                3.03230020               46.05104657                0.01000001               -0.03750905               -0.40053401                0.12442111                1.01789935               -0.01327055                0.15906394
               9.96512360                3.03441701               46.05307326                0.92052724               -0.03878392               -0.86167483                0.13358684                1.17951714               -0.00158967                0.12087272
               0.00608428                4.00646847               46.04126120                0.01000000                0.00633999               -0.03681592                0.07762878                0.31796776               -0.00377002                0.23984125
               1.00614768                3.99714730               46.04228098                0.01000000               -0.01761319               -0.36734111                0.09143031                0.64291350                0.00253787                0.16370781
               2.00573202                3.99367417               46.04336440                0.01000000               -0.12537236               -0.36094709                0.10375955                1.08750966                0.01532122                0.10884774
               3.00364024                3.99478038               46.04463075                0.01023279               -0.28144746               -0.27738692                0.11382292                1.34523906                0.02641936                0.08541870
               4.00010307                3.99892318               46.04601658                0.01000000               -0.38598756               -0.27732719                0.12110650                1.58057759                0.03075201                0.09315986
               4.99592049                4.00525063               46.04752513                0.01000001               -0.41949990               -0.29887340                0.12613177                1.72116876                0.03137410                0.13103016
               5.99171307                4.01257846               46.04909132                0.01000001               -0.42248964               -0.38734162                0.12907710                1.81191021                0.02199124                0.18598878
               6.98747069                4.01975344               46.05055850                0.01011179               -0.31627010               -0.43726662                0.13070267                1.77609402                0.01404467                0.24272796
               7.98538767                4.02416348               46.05207909                0.01026901               -0.18527948               -0.61054751                0.13197855                1.87444999                0.01621648                0.32826097
               8.98376510                4.02465387               46.05347316                0.01000000                0.06159558               -0.75183107                0.13665480                1.35173002                0.02469149                0.27753522
               9.98661958                4.01758178               46.05463976                0.01000001                0.28544797               -1.21399621                0.14235602                1.05716234                0.03339684                0.20731570
               0.02195882                5.00493824               46.04372529                0.01000003                0.02632480               -0.60357068                0.07730379                0.82393354               -0.00583836                0.27306661
               1.02222207                4.99265189               46.04421736                0.01000000               -0.08429917               -0.38286110                0.09265131                1.28424858                0.00459338                0.17456371
               2.02027283                4.98990817               46.04483212                0.01000001               -0.31405629               -0.29062906                0.10737186                1.47409120                0.02377765                0.09015864
               3.01594094                4.99183867               46.04578348                0.01000000               -0.42431136               -0.31524428                0.11939668                1.62684306                0.05256234                0.07391747
               4.01178661                4.99586952               46.04718250                0.01000001               -0.43322360               -0.29582719                0.12836103                1.71461245                0.08401555                0.09693482
               5.00727647                5.00201457               46.04893799                0.01000001               -0.43506230               -0.31317412                0.13431278                1.77734660                0.10220464                0.14757339
               6.00308536                5.00866361               46.05087428                0.01007507               -0.35994761               -0.38028517                0.13844923                1.71428549                0.10617592                0.21152618
               7.00007751                5.01437886               46.05284674                0.01000000               -0.23115011               -0.51475843                0.14035415                1.59125412                0.10177894                0.28410591
               7.99846236                5.01797497               46.05473476                0.01000000               -0.04748884               -0.62534270                0.14189095                1.29884220                0.09318383                0.33752870
               8.99912774                5.01726358               46.05644241                0.01000000                0.09743322               -0.67973844                0.14153941                0.86000071                0.06336851                0.34434235
              10.00041102                5.01013708               46.05760145                0.01000000                0.12832843               -0.52034818                0.15045029                0.42719349                0.03670641                0.31500498
               0.04713566                5.99439706               46.04678223                0.07026373               -0.02729342               -0.53877772                0.07760095                1.01556416               -0.00481390                0.16559560
               1.04686272                5.98949008               46.04655355                0.01000001               -0.55542965               -0.17145099                0.09300683                1.15210662               -0.01838131                0.10755783
               2.03602706                5.98786159               46.04605596                0.01000000               -0.83234864               -0.28036738                0.11217502                1.50922773                0.00402899                0.05567999
               3.03021575                5.98847549               46.04681352                0.01000001               -0.59038272               -0.30137180                0.12552436                1.58111245                0.09456645                0.04229192
               4.02421941                5.99300663               46.04836138                0.01000001               -0.57712147               -0.28014291                0.13483865                1.74684195                0.15081526                0.07995017
               5.01867332                5.99898714               46.05046978                0.01007560               -0.52924570               -0.24193178                0.14212575                1.66390500                0.18526824                0.14667223
               6.01363450                6.00497275               46.05291117                0.01000000               -0.43444517               -0.30274771                0.14555812                1.45330917                0.20379116                0.22409012
               7.00998442                6.00945827               46.05554000                0.01000000               -0.25773508               -0.42563890                0.14850712                1.14337063                0.20762332                0.31169298
               8.00847979                6.01165662               46.05812402                0.01000000               -0.05907089               -0.56689599                0.14979943                0.81144323                0.18377231                0.39732526
               9.00880300                6.01105910               46.06022736                0.01000001                0.04683249               -0.55510601                0.15254541                0.43903301                0.11172961                0.44688189
              10.00941644                6.00717482               46.06132161                0.01000000                0.06134441               -0.19572104                0.15669027                0.20622572                0.06277561                0.43647037
               0.05208405                6.99416268               46.04780328                0.95568740               -0.02843932               -0.02515709                0.08757004                0.00202725               -0.01184507                0.03918175
               1.05179966                6.98922287               46.04737783                0.94575511               -0.03060395               -0.02911698                0.10226844                0.00152298               -0.01214905                0.01784274
               2.05147198                6.98430082               46.04695158                0.01000000               -0.46907570               -0.19612442                0.11669838                0.84859653                0.03726160                0.00994068
               3.04241815                6.98581123               46.04752079                0.01000001               -0.76300900               -0.47084807                0.12703311                1.58515866                0.13152777               -0.05071540
               4.03621179                6.99026666               46.04930186                0.01010873               -0.69148494               -0.16124191                0.14665355                1.62623030                0.22823444                0.05605691
               5.02858845                6.99717594               46.05194182                0.01000000               -0.72656897               -0.09563354                0.14785256                1.47437055                0.28124854                0.13348018
               6.02168042                7.00260866               46.05505403                0.01000000               -0.61636944               -0.12227902                0.15193492                1.07037158                0.31586181                0.22317240
               7.01626106                7.00586608               46.05857326                0.01000000               -0.42950098               -0.24558528                0.15384353                0.62210421                0.33645815                0.32474022
               8.01309040                7.00663705               46.06221378                0.01000001               -0.19354285               -0.39656556                0.15749618                0.21921133                0.30725904                0.44447291
               9.01239020                7.00616146               46.06520658                0.01000002               -0.03931489               -0.44293173                0.15184508               -0.00991583                0.20213703                0.60615435
              10.01230410                7.00622266               46.06663551                0.01000001               -0.00861042               -0.09286037                0.16148271               -0.04816791                0.12125897                0.65571865
               0.05705584                7.99389391               46.04834181                1.00000000               -0.03007922               -0.02768514                0.09298536                0.00088496               -0.00176393                0.01911299
               1.05675505                7.98890774               46.04790629                0.99999999               -0.03226024               -0.03232135                0.10761816                0.00017565               -0.00179849                0.00404673
               2.05641063                7.98393910               46.04747389                0.15191261               -0.04009785               -0.03711979                0.12272467                0.00381007                0.00086444               -0.01154360
               3.05595309                7.97905853               46.04709952                0.01000001               -0.55156630               -0.36275858                0.21069017                1.22065371                0.18371428               -0.10247510
               4.04537931                7.98978180               46.05009746                0.01027679               -1.00671776                0.00390302                0.14406689                1.57934501                0.34244657                0.04365082
               5.03581873                7.99707447               46.05321054                0.01000000               -0.95137611                0.11775622                0.15512336                1.11435472                0.36553275                0.11693715
               6.02635178                8.00252717               46.05709111                0.01000000               -0.87103108                0.10084373                0.15791739                0.66309782                0.42685351                0.19439220
               7.01839811                8.00454657               46.06158325                0.01000001               -0.68915703                0.00718517                0.15703812                0.13695659                0.48677509                0.29480165
               8.01256864                8.00372531               46.06668830                0.01000002               -0.46895214               -0.14113573                0.15247652               -0.36215591                0.52756805                0.44977938
               9.00901907                8.00220046               46.07218437                0.01412900               -0.21189817               -0.29174545                0.19521332               -0.52317305                0.35632267                0.69903038
              10.00833068                8.00531761               46.07444418                0.01000000               -0.06883883               -0.32440601                0.21725878               -0.31302846                0.19922844                0.65428033
               0.06207410                8.99360898               46.04896170                1.00000000               -0.03161189               -0.02927694                0.09815082                0.00090136                0.00278580                0.01856412
               1.06175798                8.98857644               46.04845767                0.99999999               -0.03383587               -0.03395368                0.11299883                0.00000837                0.00246657                0.00329419
               2.06139739                8.98355843               46.04794740                0.99859614               -0.03847271               -0.03869264                0.12849207               -0.00013290               -0.00255516               -0.00825372
               3.06098853                8.97855606               46.04734682                0.01000001               -0.58073156               -0.04717579                0.14462167                0.84199651                0.18704699               -0.02561928
               4.04978275                8.99034472               46.05063236                0.01000000               -1.14291820                0.25595360                0.16055028                1.11481017                0.33999969                0.03296106
               5.03813017                8.99953106               46.05426418                0.01000000               -1.11562378                0.29227488                0.15900595                0.66129224                0.40440655                0.08003795
               6.02747028                9.00462553               46.05859680                0.01000001               -1.01640558                0.25467083                0.16473749                0.29290755                0.50079171                0.11753743
               7.01780205                9.00600979               46.06392884                0.01000002               -0.96384492                0.21531219                0.16049591               -0.08675896                0.64438146                0.18463691
               8.00819338                9.00381433               46.07081342                0.01104819               -0.87338062                0.15384127                0.13829348               -0.48259269                0.82859261                0.31524521
               9.00033444                9.00032655               46.07940399                1.00000000               -0.41920719               -0.11993618                0.17635289               -0.60886528                0.43270534                0.36467926
               9.99980924                8.99973454               46.07933356                0.99720901               -0.05252053               -0.30511305                0.17420343               -0.45559588               -0.00035961                0.24746084
               0.06713895                9.99330838               46.04948582                1.00000000               -0.03331800               -0.03006057                0.10342145               -0.00148644                0.01371053                0.01403436
               1.06680577                9.98822867               46.04897415                0.99965839               -0.03552956               -0.03477737                0.11836039               -0.00237781                0.01758354                0.00142485
               2.06642836                9.98316525               46.04853857                0.99999999               -0.03995205               -0.03931748                0.13322890               -0.00258544                0.01736399               -0.00272090
               3.06600673                9.97811502               46.04803065                0.85786562               -0.98639260               -0.04410429                0.14784547                1.08860051                0.17895528               -0.00463580
               4.04670050                9.99490087               46.05084504                0.01000001               -1.56214811                0.45561495                0.16192353                0.93202276                0.31122641                0.02918392
               5.03476376               10.00291997               46.05472066                0.01079061               -1.04846459                0.33889060                0.16930137                0.29934593                0.40727474                0.04358667
               6.02573121               10.00762059               46.05910250                0.01000000               -0.86448170                0.29950572                0.17145843                0.12273539                0.51204590                0.06275157
               7.01747413               10.00885281               46.06470310                0.01000001               -0.85655939                0.28430229                0.16391792               -0.07371506                0.69842256                0.09610456
               8.00860002               10.00680214               46.07235941                0.01000000               -0.82762885                0.29878014                0.13025998               -0.41188903                0.79813670                0.19996287
               9.00092155                9.99980174               46.07933696                0.99722778               -0.40986228               -0.05248123                0.17394682               -0.32062815                0.35272029                0.00032153
              10.00040278                9.99921535               46.07926653                1.00000000               -0.05187743               -0.05191950                0.17182661                0.00071520                0.00033609               -0.00033562
              -0.01396724                0.00468511               47.03725951                0.99225344               -0.02233832               -0.02152500                0.06885833                0.00349026               -0.00951190                0.00900649
               0.98580938                0.00232742               47.03920126                0.99999999               -0.02488775               -0.02580171                0.08373171                0.00210645               -0.00808978               -0.00153960
               1.98553501               -0.00001194               47.04112493                0.06928171               -0.02799471               -0.03056802                0.09852369               -0.00093276               -0.02851617               -0.00352544
               2.98524948               -0.00240028               47.04264509                0.01000000               -0.03451440               -0.01602593                0.06685567                0.24282282               -0.01917533               -0.00072372
               3.98484472                0.00025821               47.04460261                0.01000002               -0.20300728                0.13960272                0.08733462                0.27185986                0.00106518                0.00790350
               4.98118934                0.00944127               47.04629466                0.01000405               -0.69400142                0.16063300                0.09394336                0.71645171               -0.01097923                0.02149732
               5.97096469                0.02733196               47.04803626                0.04687088               -0.52788434               -0.02528632                0.08547201                0.78277125               -0.00287918               -0.00053022
               6.97063165                0.02967136               47.05034509                0.97662959               -0.03148730               -0.02955595                0.09500729                0.00769151                0.01099904                0.00154424
               7.97033494                0.03189302               47.05242786                1.00000000               -0.03145246               -0.03155822                0.10464114                0.00121593                0.00285651               -0.00091453
               8.97000260                0.03413108               47.05451671                1.00000000               -0.03445306               -0.03459030                0.11366034                0.00166816                0.00342808                0.00108095
               9.96964588                0.03637431               47.05659034                1.00000000               -0.03567200               -0.03760439                0.12318271                0.00091113                0.00311701                0.00379068
              -0.01157465                1.00446986               47.03744585                0.98059065               -0.02463817               -0.02211895                0.07412269                0.00111433                0.00180785                0.00851311
               0.98817897                1.00206941               47.03938636                0.19022214               -0.02679100               -0.02669889                0.08895551               -0.00008393                0.00395266               -0.00392520
               1.98788953                0.99968238               47.04137293                0.01000000               -0.03181684               -0.03107763                0.10398997                0.00633867               -0.01423479               -0.01680402
               2.98754263                0.99743946               47.04294719                0.01000001               -0.31234957                0.02383118                0.07091108                0.19096018               -0.01692166                0.01738766
               3.98164254                1.00165424               47.04480792                0.01000000               -0.63628249                0.11211309                0.09300104                0.58158891               -0.02488826                0.02268871
               4.97481698                1.01104760               47.04632271                0.01000000               -0.64825921                0.06602469                0.09803459                1.08661913               -0.07441357                0.03941192
               5.96867736                1.02707909               47.04735258                0.01000001               -0.31944753               -0.36973816                0.08628847                1.02086800               -0.04391282                0.06845609
               6.96842803                1.02937580               47.04961422                0.97871597               -0.02800559               -0.02953570                0.09803052                0.00579346                0.01048928               -0.00113461
               7.96811724                1.03157744               47.05169910                0.99999999               -0.03246966               -0.03218716                0.10777278                0.00031115                0.00126299               -0.00025098
               8.96777864                1.03378518               47.05378238                0.99999999               -0.03527431               -0.03516446                0.11737220                0.00019355                0.00059165                0.00127194
               9.96741176                1.03599827               47.05585647                1.00000000               -0.03668813               -0.03821041                0.12705871               -0.00058912                0.00025821                0.00534249
              -0.00914404                2.00424273               47.03765039                0.01000000               -0.02607734                0.06236447                0.07934831                0.10799189                0.00290606                0.10881907
               0.99059518                2.00179344               47.03952161                0.01000000               -0.02821150               -0.11493828                0.09391781                0.10209707                0.00154265                0.07824129
               1.99029173                1.99936650               47.04135256                0.01000001               -0.17491812               -0.14334730                0.10091818                0.15421358                0.02493148                0.05055808
               2.98709682                1.99807634               47.04369049                0.01000000               -0.37116870               -0.01667580                0.10047522                0.41927753                0.01564181                0.05143664
               3.98286835                2.00250047               47.04531335                0.01000000               -0.47999777               -0.01833682                0.10333529                1.00707363               -0.03472640                0.05471265
               4.97749687                2.01076176               47.04671797                0.01000001               -0.49072535               -0.14841368                0.10698772                1.37571904               -0.05751936                0.07855055
               5.97305385                2.01993719               47.04802610                0.01000000               -0.56238476               -0.51557774                0.10774653                1.46402861               -0.08917633                0.12135429
               6.96624917                2.02908065               47.04889744                0.01000000               -0.35610271               -0.28500234                0.10106393                0.86022685               -0.06149167                0.09646401
               7.96593179                2.03124928               47.05097589                0.18316331               -0.03317629               -0.03301369                0.11091669                0.00114803               -0.00176781                0.00819941
               8.96558565                2.03342779               47.05305105                0.99953968               -0.03619409               -0.03626578                0.12136860                0.00050326               -0.00128487                0.00036725
               9.96520791                2.03561011               47.05514883                0.99999999               -0.03777351               -0.03945542                0.13095308               -0.00058595               -0.00036598                0.00546969
              -0.00451624                3.00571715               47.03984469                0.01017308               -0.03866231                0.11376205                0.07599484                0.11003573               -0.00581866                0.21753814
               0.99509714                2.99977064               47.04134074                0.01000001               -0.03964273               -0.24585407                0.09046452                0.27769358               -0.00020506                0.15871956
               1.99469091                2.99681543               47.04293885                0.01000000               -0.11514641               -0.30369146                0.10111630                0.58429518                0.00762805                0.12024148
               2.99279421                2.99710594               47.04456733                0.01000000               -0.27961594               -0.18088245                0.10932992                0.99435287                0.00455115                0.07425082
               3.98909859                3.00128750               47.04615835                0.01024165               -0.39497834               -0.18747558                0.11466631                1.35022521               -0.00999446                0.08112464
               4.98489465                3.00807933               47.04760266                0.01000000               -0.47297729               -0.27391432                0.11841253                1.63106326               -0.03067650                0.11028241
               5.97963904                3.01676754               47.04890396                0.01000001               -0.52870815               -0.35486984                0.11926509                1.64525494               -0.04997040                0.15139264
               6.97432048                3.02367575               47.05014228                0.01000001               -0.79229905               -0.44309790                0.11987447                1.69828184               -0.11141735                0.20158055
               7.96379306                3.03091717               47.05041985                0.01000001               -0.54463006               -0.32954638                0.11602678                1.37311569               -0.10461669                0.19176936
               8.96342788                3.03305986               47.05230028                0.01000001               -0.03788283               -0.41369598                0.12589436                1.05404539               -0.01296506                0.16275160
               9.96303541                3.03520916               47.05441800                0.95316322               -0.03924746               -0.89044985                0.13491263                1.22330201               -0.00147702                0.13012697
               0.00494969                4.00651797               47.04202286                0.01000000                0.01010842               -0.04173889                0.07437939                0.32834695               -0.00381179                0.23198929
               1.00505078                3.99687636               47.04318951                0.01000000               -0.01536810               -0.37675564                0.09096557                0.66601950                0.00198332                0.15965378
               2.00464233                3.99329267               47.04441203                0.01000000               -0.12694859               -0.36888063                0.10556042                1.12748510                0.01255870                0.10857579
               3.00251181                3.99445869               47.04577812                0.01023473               -0.28714285               -0.28239665                0.11599310                1.39444038                0.02060961                0.08641893
               3.99889947                3.99875096               47.04723550                0.01000000               -0.39368542               -0.28245478                0.12315412                1.63571138                0.02313089                0.09601030
               4.99463810                4.00528348               47.04879163                0.01000001               -0.42684786               -0.30447369                0.12757149                1.77961882                0.02260265                0.13451695
               5.99036252                4.01283980               47.05038333                0.01000001               -0.42864589               -0.39620790                0.12989274                1.87193199                0.01258015                0.19091875
               6.98606518                4.02021869               47.05186142                0.01012690               -0.31762574               -0.44883308                0.13081626                1.83056225                0.00377069                0.24879660
               7.98401000                4.02465835               47.05338223                0.01030867               -0.18453090               -0.62860978                0.13243152                1.93205289                0.00304967                0.33556219
               8.98237456                4.02515387               47.05482404                0.01000000                0.06826729               -0.78167823                0.13752438                1.39853871               -0.00525047                0.32256937
               9.98537535                4.01780111               47.05620783                0.01000001                0.30007863               -1.26108307                0.15373854                1.09373028                0.00438822                0.25279005
               0.02133392                5.00488237               47.04449331                0.01000003                0.03089082               -0.62639699                0.07565966                0.84960402               -0.00548728                0.26739064
               1.02164283                4.99223553               47.04514747                0.01000000               -0.08378186               -0.39600968                0.09329248                1.32327291                0.00479143                0.17028202
               2.01965828                4.98943782               47.04591466                0.01000001               -0.32090494               -0.29831469                0.10964281                1.52194955                0.02198266                0.08968649
               3.01522473                4.99145801               47.04698303                0.01000000               -0.43351259               -0.32317780                0.12225292                1.68145291                0.04837793                0.07667416
               4.01098803                4.99563841               47.04847685                0.01000001               -0.44132713               -0.30238208                0.13038750                1.77382898                0.07774472                0.09791550
               5.00639819                5.00198985               47.05028371                0.01000001               -0.44227804               -0.31818194                0.13508743                1.83856979                0.09464460                0.14896214
               6.00214247                5.00884338               47.05225477                0.01008724               -0.36425087               -0.38719248                0.13805647                1.77200351                0.09810797                0.21325060
               6.99911317                5.01469909               47.05423882                0.01000000               -0.23217654               -0.52683927                0.13952837                1.64162152                0.09180066                0.28700297
               7.99749894                5.01834497               47.05612956                0.01000000               -0.04286347               -0.64062551                0.14020514                1.33178448                0.07624420                0.34769049
               8.99825590                5.01742629               47.05782012                0.01000000                0.10582968               -0.70249796                0.14157413                0.87750890                0.05099623                0.36373288
               9.99961553                5.00998750               47.05906064                0.01000000                0.13596333               -0.54147380                0.14999400                0.43313766                0.03586782                0.32003357
               0.04723546                5.99399003               47.04755154                0.05444117               -0.02746724               -0.55669968                0.07611697                1.04572216               -0.00553930                0.16660559
               1.04696079                5.98895617               47.04748370                0.01000001               -0.56883110               -0.17688572                0.09319774                1.18609205               -0.01703265                0.10654363
               2.03585884                5.98732638               47.04719194                0.01000000               -0.85102594               -0.28876580                0.11529927                1.55395549                0.00726097                0.05523379
               3.02994027                5.98799513               47.04811992                0.01000001               -0.60073156               -0.32249291                0.12882437                1.63271487                0.09089251                0.03743427
               4.02384421                5.99270332               47.04971700                0.01000001               -0.58678760               -0.28652584                0.13760464                1.80980964                0.14327381                0.08287232
               5.01820452                5.99891984               47.05188949                0.01008837               -0.53754322               -0.24436903                0.14131881                1.72426613                0.17887810                0.14551814
               6.01309335                6.00509595               47.05435719                0.01000000               -0.44042511               -0.30622772                0.14403306                1.50557468                0.19721781                0.22322125
               7.00939602                6.00968190               47.05700940                0.01000000               -0.25874280               -0.43112032                0.14647548                1.18177868                0.19995994                0.31243234
               8.00791849                6.01184584               47.05960043                0.01000000               -0.05569026               -0.58240578                0.14864658                0.83043928                0.17470389                0.40033187
               9.00828221                6.01110391               47.06171127                0.01000001                0.04986006               -0.57607206                0.14927947                0.44698412                0.10671522                0.44745654
              10.00891569                6.00697163               47.06285240                0.01000000                0.06334782               -0.20262318                0.15215978                0.21532779                0.06198619                0.43192156
               0.05231609                6.99374838               47.04868213                0.94890111               -0.02877673               -0.02556318                0.08813225                0.00312757               -0.01201271                0.04192753
               1.05202832                6.98869781               47.04840585                0.93344251               -0.03088307               -0.02871890                0.10316202                0.00243749               -0.01255271                0.02013807
               2.05169843                6.98366250               47.04812399                0.01000000               -0.47631183               -0.20144340                0.11811000                0.85988309                0.03083379                0.00990442
               3.04250209                6.98500815               47.04872430                0.01000001               -0.77194534               -0.50538306                0.14435090                1.64065050                0.13207903               -0.00661812
               4.03625952                6.98990789               47.05078260                0.01012404               -0.70056010               -0.15901184                0.14190557                1.70172063                0.22849782                0.04893320
               5.02849088                6.99710247               47.05341145                0.01000000               -0.73838115               -0.09576904                0.14761978                1.52963440                0.27290621                0.13177076
               6.02149190                7.00271883               47.05655832                0.01000000               -0.62460184               -0.12099581                0.14876204                1.11537209                0.31199160                0.21994066
               7.01599885                7.00607669               47.06009358                0.01000000               -0.44030896               -0.24427861                0.15165980                0.65141177                0.33236914                0.32212944
               8.01268572                7.00669686               47.06377430                0.01000000               -0.19645264               -0.39039194                0.15614769                0.21415425                0.29524631                0.43896755
               9.01206979                7.00590485               47.06672806                0.01000002               -0.02495370               -0.50829354                0.15918966               -0.05490982                0.18590932                0.61007054
              10.01218665                7.00593504               47.06818161                0.01000000                0.01168508               -0.14330169                0.15929149               -0.08275016                0.12172296                0.66060844
               0.05739915                7.99347877               47.04927247                1.00000000               -0.03037276               -0.02764835                0.09294980                0.00105758               -0.00219415                0.01879354
               1.05709542                7.98838179               47.04898519                1.00000000               -0.03264900               -0.03244140                0.10842573                0.00024226               -0.00182086                0.00398917
               2.05674617                7.98329751               47.04870890                0.36337685               -0.02937637               -0.03719612                0.12314348               -0.01701525                0.04360140               -0.01062767
               3.05650789                7.97788747               47.04933939                0.01000001               -0.54809323               -0.35955782                0.08531082                1.25853250                0.17797741               -0.07959583
               4.04578430                7.98952308               47.05144000                0.01031766               -1.02608092                0.00747844                0.15881950                1.64868505                0.29666628                0.03748449
               5.03598627                7.99700446               47.05478189                0.01000000               -0.96788649                0.12100937                0.15303559                1.14777490                0.37268638                0.10707357
               6.02642657                8.00267603               47.05863941                0.01000000               -0.87700252                0.10249122                0.15378126                0.69765115                0.42303669                0.19106474
               7.01844622                8.00479633               47.06312223                0.01000000               -0.70265821                0.01138168                0.15214650                0.17602559                0.48283149                0.29192585
               8.01237341                8.00403800               47.06823435                0.01000002               -0.52501926               -0.12756389                0.15906299               -0.38416374                0.54210825                0.43762647
               9.00794584                8.00093804               47.07429751                0.01393254               -0.25865427               -0.27471195                0.19602629               -0.57942054                0.36892224                0.67090227
              10.00720032                8.00410560               47.07670552                0.01000001               -0.07455151               -0.30624513                0.18843938               -0.29821307                0.18192181                0.58461610
               0.06253120                8.99319541               47.04994056                1.00000000               -0.03167710               -0.02906484                0.09752542                0.00101540                0.00266301                0.01820752
               1.06221442                8.98804898               47.04958933                0.99999999               -0.03393770               -0.03409187                0.11355854                0.00036627                0.00276566                0.00334654
               2.06185244                8.98291858               47.04924063                1.00000000               -0.03836307               -0.03869535                0.12927619                0.00094983               -0.00132026               -0.00811452
               3.06144716                8.97781699               47.04881229                0.01000001               -0.58681015               -0.02589524                0.14490152                0.85977394                0.18639134               -0.06778119
               4.05011624                8.99005746               47.05221797                0.01000000               -1.15768638                0.25779711                0.15897587                1.14331489                0.37661213                0.02379313
               5.03829344                8.99952266               47.05582911                0.01000000               -1.12315961                0.29495724                0.16032820                0.67532546                0.41622747                0.06934505
               6.02765305                9.00476865               47.06021482                0.01000001               -1.00680252                0.25194492                0.16026672                0.31155943                0.50170899                0.11628823
               7.01815739                9.00630432               47.06549793                0.01000002               -0.93961551                0.21061895                0.15381663               -0.05955821                0.63203213                0.18414970
               8.00886074                9.00414558               47.07215566                0.01047847               -0.88717977                0.16204437                0.13375105               -0.44415362                0.84404354                0.29986409
               9.00041379                9.00041061               47.08116812                1.00000000               -0.44867355               -0.05267969                0.17637971               -0.56376241                0.45495025                0.34849367
               9.99988727                8.99981013               47.08107546                0.99742308               -0.05265246               -0.24069722                0.17418951               -0.39566944               -0.00034839                0.22272730
               0.06771231                9.99289747               47.05051580                1.00000000               -0.03327300               -0.02979393                0.10252019               -0.00164062                0.01372709                0.01385315
               1.06737958                9.98769995               47.05015941                0.99947552               -0.03575765               -0.03490304                0.11860970               -0.00217810                0.01762954                0.00155296
               2.06699715                9.98252361               47.04987966                0.99999998               -0.04075448               -0.03949730                0.13505318               -0.00204805                0.01720399               -0.00305877
               3.06656449                9.97736957               47.04952359                0.91347144               -1.00261101               -0.04474248                0.15155779                1.11950354                0.18503897               -0.00678742
               4.04694493                9.99467903               47.05261823                0.01000001               -1.58914484                0.46215669                0.17810765                0.95957117                0.36216370                0.00746215
               5.03478159               10.00290360               47.05638731                0.01111692               -1.05344179                0.33809433                0.17348071                0.30061065                0.41439513                0.04362497
               6.02587610               10.00771493               47.06080830                0.01000000               -0.84517308                0.29462787                0.17149794                0.12756061                0.51033466                0.06206867
               7.01787813               10.00900871               47.06632054                0.01000001               -0.82460289                0.27043904                0.16016478               -0.04972747                0.67902041                0.09369233
               8.00938404               10.00727889               47.07361648                0.01000000               -0.84360473                0.31333128                0.12805489               -0.40388287                0.81399784                0.18778611
               9.00100603                9.99988445               47.08107658                0.99744352               -0.44480728               -0.05261692                0.17399109               -0.34013746                0.37797382                0.00033616
              10.00048789                9.99929165               47.08098420                1.00000000               -0.05181399               -0.05184796                0.17179797                0.00078380                0.00036238               -0.00031069
              -0.01605253                0.00455018               48.03795178                0.99155686               -0.02299892               -0.02139415                0.06951773                0.00281682               -0.00756407                0.00797697
               0.98371748                0.00210380               48.04003547                0.99999999               -0.02501315               -0.02580357                0.08360375                0.00233447               -0.00843885               -0.00096529
               1.98344720               -0.00032734               48.04210845                0.05063939               -0.02225953               -0.03027498                0.09802618                0.00336809               -0.05107087               -0.00401778
               2.98327229               -0.00272114               48.04333584                0.01000000               -0.02343251               -0.02245942                0.07074304                0.25555699               -0.03346106                0.00155632
               3.98297855                0.00012683               48.04549159                0.01000000               -0.19825808                0.13908247                0.09267673                0.28417265                0.00326535                0.01436110
               4.97930712                0.00963080               48.04724807                0.01000000               -0.70630009                0.15943280                0.09866179                0.73867135               -0.02540307                0.02621204
               5.96885255                0.02802167               48.04888844                0.04116932               -0.53920325               -0.02640205                0.08454036                0.80708464               -0.01286157               -0.00022777
               6.96852306                0.03036422               48.05129180                0.97562554               -0.03131947               -0.02888244                0.09440817                0.00736904                0.01337528               -0.00164343
               7.96822616                0.03260436               48.05346470                1.00000000               -0.03100544               -0.03176738                0.10334206                0.00151836                0.00250172                0.00004415
               8.96790295                0.03485701               48.05564828                1.00000000               -0.03371693               -0.03443916                0.11253206                0.00143493                0.00282275                0.00103874
               9.96755182                0.03712501               48.05781566                1.00000000               -0.03511273               -0.03737145                0.12175835                0.00072824                0.00253847                0.00350336
              -0.01357798                1.00433624               48.03818723                0.98913120               -0.02424360               -0.02196698                0.07387516                0.00070465                0.00108487                0.00863858
               0.98617958                1.00184576               48.04027141                0.17297846               -0.02643338               -0.02654308                0.08806285                0.00019740                0.00388747               -0.00375349
               1.98589335                0.99936991               48.04240678                0.01000000               -0.02894063               -0.03010872                0.10265985                0.00748774               -0.03650846               -0.02206629
               2.98560077                0.99705427               48.04367668                0.01000001               -0.31245213                0.02370913                0.07323274                0.20431383               -0.03508619                0.03015130
               3.97964431                1.00151766               48.04574789                0.01000000               -0.64271766                0.11149236                0.09703941                0.60658155               -0.02388847                0.02983207
               4.97274642                1.01122513               48.04731949                0.01000000               -0.65438104                0.06308820                0.10262941                1.12172562               -0.08948617                0.04439112
               5.96655669                1.02775765               48.04823216                0.01000001               -0.32205057               -0.38301776                0.08919330                1.05056958               -0.05246812                0.07623292
               6.96630541                1.03007540               48.05060414                0.97380217               -0.02808681               -0.02963686                0.09914839                0.00607907                0.01054052               -0.00127324
               7.96599495                1.03228669               48.05277826                0.99999999               -0.03242142               -0.03244763                0.10808168                0.00012870                0.00075322                0.00006892
               8.96565698                1.03451262               48.05495581                0.99999999               -0.03519208               -0.03515095                0.11728685                0.00006128                0.00052314                0.00143994
               9.96529111                1.03675129               48.05712503                0.99995341               -0.03658673               -0.03809301                0.12657047               -0.00072470                0.00021676                0.00505057
              -0.01105748                2.00411084               48.03843448                0.01000001               -0.02547609                0.06583058                0.07786074                0.11754058                0.00317252                0.10428687
               0.98868776                2.00157294               48.04045036                0.01000000               -0.02770329               -0.11702829                0.09206457                0.11256468               -0.00280606                0.07468648
               1.98838845                1.99907049               48.04233804                0.01000001               -0.17384696               -0.14487195                0.10066343                0.16842244                0.01498263                0.04549489
               2.98521082                1.99775305               48.04470319                0.01000000               -0.37245655               -0.01352363                0.10095178                0.44210519                0.00465415                0.06745210
               3.98093932                2.00235668               48.04635329                0.01000000               -0.48545883               -0.02006254                0.10620390                1.04526458               -0.04555885                0.06291393
               4.97550164                2.01089257               48.04780265                0.01000001               -0.49628220               -0.15505472                0.11057095                1.42037276               -0.06812232                0.08512516
               5.97101368                2.02036132               48.04911708                0.01000000               -0.56930171               -0.53382930                0.11074111                1.50665851               -0.10409944                0.13371160
               6.96411561                2.02977149               48.04991804                0.01000000               -0.36110802               -0.29417873                0.10324243                0.88425493               -0.06915392                0.10423148
               7.96379152                2.03195541               48.05209343                0.19473934               -0.03380170               -0.03358578                0.11258345                0.00055031               -0.00110162                0.00855093
               8.96343957                2.03415399               48.05426824                1.00000000               -0.03657657               -0.03651833                0.12214898                0.00023787               -0.00080817                0.00073971
               9.96305998                2.03636315               48.05645966                0.99999999               -0.03795878               -0.03953717                0.13129213               -0.00070841               -0.00018598                0.00519796
              -0.00615136                3.00565285               48.04057912                0.01000005               -0.03774098                0.11743968                0.07326507                0.12184545               -0.00546002                0.20729036
               0.99347124                2.99950520               48.04224870                0.01000001               -0.03834765               -0.25196419                0.09088234                0.29650204               -0.00239336                0.15564585
               1.99308169                2.99647247               48.04396842                0.01000000               -0.11572766               -0.31003023                0.10373989                0.61423676                0.00105606                0.12078242
               2.99115668                2.99678380               48.04566823                0.01000000               -0.28358068               -0.18299956                0.11166326                1.03310366               -0.00514232                0.07913072
               3.98741008                3.00111641               48.04731567                0.01024395               -0.40037241               -0.19158962                0.11739766                1.39765498               -0.02032106                0.08746825
               4.98314923                3.00812404               48.04879829                0.01000000               -0.47995684               -0.28163283                0.12131645                1.68438613               -0.04220336                0.11560089
               5.97781094                3.01708107               48.05010745                0.01000001               -0.53764096               -0.36576471                0.12183676                1.69744974               -0.06129765                0.15712741
               6.97239641                3.02419182               48.05135162                0.01000001               -0.80937440               -0.45693271                0.12214142                1.74827558               -0.12382937                0.21199175
               7.96162345                3.03161497               48.05158231                0.01000001               -0.55712081               -0.33951966                0.11732333                1.41424772               -0.11057888                0.19926573
               8.96125400                3.03378225               48.05356445                0.01000001               -0.03824096               -0.42842872                0.12722299                1.08702468               -0.01225880                0.16765759
               9.96085863                3.03596055               48.05577151                0.98451023               -0.03953641               -0.91841026                0.13604332                1.26181838               -0.00141774                0.13539404
               0.00367474                4.00645964               48.04274879                0.01000000                0.01234400               -0.04477446                0.07260948                0.34200695               -0.00173628                0.22535227
               1.00379818                3.99653365               48.04410029                0.01000000               -0.01400759               -0.38709310                0.09224088                0.69177744                0.00151385                0.15579199
               2.00339459                3.99286988               48.04547561                0.01000000               -0.12846116               -0.37752437                0.10845851                1.16773160                0.00785321                0.10902500
               3.00122896                3.99409305               48.04695061                0.01023913               -0.29212044               -0.28767268                0.11948581                1.44223144                0.01223995                0.08957044
               3.99755218                3.99852489               48.04847967                0.01000000               -0.40021271               -0.28850398                0.12624935                1.68987975                0.01279537                0.09836257
               4.99322470                4.00525991               48.05007656                0.01000001               -0.43286467               -0.31140409                0.12986692                1.83816728                0.01174172                0.13622706
               5.98889489                4.01304602               48.05168917                0.01000001               -0.43387445               -0.40631476                0.13164119                1.93271945                0.00210717                0.19345156
               6.98454721                4.02063283               48.05317482                0.01014339               -0.32044213               -0.46104456                0.13262041                1.88806584               -0.00495313                0.25295101
               7.98248604                4.02516502               48.05472773                0.01035149               -0.18563615               -0.64521978                0.13614232                1.98675390               -0.00443480                0.34628847
               8.98083449                4.02558542               48.05622365                0.01000000                0.07268593               -0.80656229                0.14137284                1.43962541               -0.00904487                0.32711650
               9.98393976                4.01799494               48.05771454                0.01000000                0.31052713               -1.30336792                0.15046215                1.13038770                0.00067530                0.25922130
               0.02054075                5.00475736               48.04523848                0.01000003                0.03557874               -0.64596481                0.07186008                0.87488776               -0.00581342                0.26262130
               1.02089654                4.99176334               48.04608321                0.01000000               -0.08319152               -0.40855449                0.09424818                1.36240558                0.00409010                0.16632405
               2.01887692                4.98892198               48.04702498                0.01000001               -0.32751172               -0.30564702                0.11336584                1.57042421                0.01844529                0.09073214
               3.01434631                4.99103034               48.04822854                0.01000000               -0.44180532               -0.33050747                0.12611419                1.73519648                0.04020536                0.07656554
               4.01004082                4.99534633               48.04979025                0.01000001               -0.44774319               -0.30832754                0.13286720                1.83143778                0.06676123                0.09854059
               5.00539144                5.00189596               48.05163974                0.01000001               -0.44742027               -0.32450714                0.13602100                1.89972194                0.08438017                0.14670186
               6.00109241                5.00895477               48.05363541                0.01010079               -0.36763510               -0.39561976                0.13835530                1.83195135                0.08971240                0.21156944
               6.99803874                5.01497093               48.05563731                0.01000000               -0.23432320               -0.53903372                0.14051716                1.69744826                0.08390600                0.28879933
               7.99640595                5.01871058               48.05753886                0.01000000               -0.04110794               -0.65732520                0.14280325                1.37330184                0.06871500                0.35420640
               8.99721658                5.01765101               48.05927389                0.01000000                0.11206973               -0.72425658                0.14776615                0.90167299                0.04511795                0.37110203
               9.99864734                5.00989319               48.06060133                0.01000000                0.14307599               -0.56513311                0.15564995                0.44592586                0.03185435                0.32087884
               0.04716055                5.99354034               48.04830457                0.03934628               -0.02788817               -0.57385313                0.07372628                1.07500243               -0.00671594                0.16992239
               1.04688167                5.98836256               48.04841751                0.01000001               -0.58122446               -0.18195981                0.09371564                1.22134058               -0.01568426                0.10536206
               2.03553606                5.98675694               48.04836195                0.01000000               -0.86865637               -0.29700184                0.11870305                1.60068110                0.00642152                0.05543724
               3.02950854                5.98748291               48.04939001                0.01000001               -0.61103715               -0.32854738                0.13173265                1.68281033                0.08411151                0.05491818
               4.02331532                5.99235834               48.05111347                0.01000001               -0.59489243               -0.29120020                0.13813227                1.86703249                0.13324858                0.07857443
               5.01761070                5.99876977               48.05329615                0.01009986               -0.54281926               -0.24885018                0.13999640                1.78273506                0.16806677                0.14101523
               6.01245894                6.00513363               48.05579183                0.01000000               -0.44351607               -0.31147622                0.14234669                1.56140461                0.19168079                0.21711159
               7.00874037                6.00985216               48.05846951                0.01000000               -0.25934648               -0.43875451                0.14575158                1.22692995                0.19861034                0.31162499
               8.00727201                6.01201851               48.06109695                0.01000000               -0.05275186               -0.59640493                0.15031882                0.86015123                0.17325033                0.40726206
               9.00768534                6.01110029               48.06321295                0.01000001                0.05509535               -0.59371877                0.15338159                0.45791349                0.10363266                0.45787736
              10.00837391                6.00669228               48.06436480                0.01000000                0.06885764               -0.21557389                0.15398577                0.21840553                0.05999569                0.43116450
               0.05239636                6.99328030               48.04956593                0.94386745               -0.02896052               -0.02644945                0.08816076                0.00568219               -0.01282799                0.04554671
               1.05210675                6.98812414               48.04944107                0.91165128               -0.03130774               -0.02792588                0.10469162                0.00510860               -0.01314162                0.02320402
               2.05177020                6.98298195               48.04931378                0.01000000               -0.48528171               -0.20735147                0.12089675                0.88638252                0.04703232                0.00861395
               3.04240112                6.98445940               48.05040781                0.01000001               -0.78378002               -0.50521406                0.14202325                1.69066864                0.12382291               -0.07897761
               4.03609460                6.98952232               48.05213997                0.01013966               -0.70651338               -0.16311125                0.14046814                1.75071865                0.19864519                0.06497236
               5.02827085                6.99691895               48.05489422                0.01000000               -0.74282438               -0.09857438                0.14414396                1.58326393                0.26583894                0.12223560
               6.02123811                7.00272525               48.05802928                0.01000000               -0.62891970               -0.12208334                0.14499055                1.16450639                0.30842329                0.21054688
               7.01569246                7.00619584               48.06160646                0.01000000               -0.44386355               -0.24357114                0.14970073                0.68883278                0.33718362                0.31442602
               8.01236084                7.00678248               48.06533673                0.01000000               -0.19956861               -0.39610133                0.15534090                0.22721562                0.31216138                0.44664425
               9.01170108                7.00577663               48.06839037                0.01000002               -0.02646888               -0.49609190                0.15784160               -0.04798783                0.19974286                0.63593477
              10.01183147                7.00558171               48.06982134                0.01000000                0.01303817               -0.12880973                0.14836389               -0.08053265                0.11972092                0.65950134
               0.05758652                7.99301135               48.05020080                1.00000000               -0.03043246               -0.02752480                0.09255875                0.00094305               -0.00236964                0.01815914
               1.05728220                7.98780405               48.05007480                0.99999999               -0.03290324               -0.03274941                0.10939897                0.00025216               -0.00295065                0.00425124
               2.05692846                7.98260991               48.04993676                0.18558513               -0.02503279               -0.03782843                0.12549461               -0.00238027               -0.05366326               -0.01008372
               3.05678154                7.97737862               48.04880573                0.01000001               -0.55291605               -0.37215782                0.08891226                1.29120460                0.16471002               -0.07103460
               4.04587014                7.98909611               48.05327385                0.01036028               -1.03542467                0.00600120                0.15771255                1.68116155                0.36233783                0.03712366
               5.03607305                7.99679828               48.05627125                0.01000000               -0.96989814                0.11967936                0.14970910                1.18914315                0.34790076                0.09774242
               6.02647217                8.00269196               48.06016673                0.01000000               -0.88066248                0.10285784                0.14872517                0.73899887                0.42077373                0.17964502
               7.01845980                8.00498073               48.06462618                0.01000000               -0.71183216                0.01493170                0.14945354                0.21069639                0.48894994                0.27915991
               8.01223553                8.00409648               48.06986956                0.01000002               -0.52667267               -0.11764973                0.15869837               -0.33795362                0.56842096                0.41486866
               9.00792635                8.00117845               48.07610489                0.01393761               -0.25412155               -0.26296383                0.16400252               -0.55839185                0.41803567                0.73687590
              10.00715310                8.00411608               48.07821297                0.01000001               -0.07732464               -0.28356498                0.13472401               -0.29842952                0.22254457                0.65801319
               0.06282983                8.99272981               48.05091221                1.00000000               -0.03165956               -0.02881923                0.09674188                0.00092180                0.00295441                0.01782246
               1.06251324                8.98746915               48.05072884                0.99999999               -0.03409063               -0.03422399                0.11406574                0.00039357                0.00241800                0.00321024
               2.06214802                8.98222538               48.05053293                0.99999999               -0.03871124               -0.03919532                0.13093097                0.00134443               -0.00324898               -0.00681928
               3.06173901                8.97701624               48.05024485                0.01000000               -0.59249215               -0.04109747                0.14735733                0.88021792                0.18369347                0.02860821
               4.05029818                8.98964235               48.05381188                0.01000000               -1.16405744                0.25767381                0.16259206                1.17531087                0.36943769                0.00578306
               5.03845786                8.99931254               48.05747075                0.01000000               -1.12312684                0.29388941                0.16373271                0.69643033                0.41004799                0.06368075
               6.02783564                9.00478240               48.06180213                0.01000000               -0.99780004                0.24915221                0.15695975                0.33572226                0.49274057                0.10832322
               7.01850186                9.00649448               48.06700518                0.01000002               -0.92157901                0.20503573                0.14866448               -0.02831824                0.61509989                0.17310908
               8.00940406                9.00442948               48.07348844                0.01015945               -0.89941065                0.17698611                0.13566345               -0.40443585                0.84324219                0.27498368
               9.00051365                9.00051735               48.08293158                1.00000000               -0.47082277               -0.05934482                0.17630648               -0.56660497                0.47751020                0.34742230
               9.99998760                8.99991041               48.08281735                0.99764584               -0.05260451               -0.23622133                0.17416755               -0.38860951               -0.00032777                0.23563141
               0.06812627                9.99243497               48.05153622                1.00000000               -0.03317723               -0.02948382                0.10133718               -0.00189636                0.01383797                0.01380263
               1.06779450                9.98711957               48.05134635                0.99999999               -0.03590055               -0.03495846                0.11876470               -0.00232199                0.01818172                0.00131665
               2.06740826                9.98182601               48.05123964                0.99999997               -0.04127816               -0.03993734                0.13648242               -0.00212061                0.01860817               -0.00187825
               3.06696893                9.97655667               48.05106180                0.97619619               -1.01641024               -0.04595645                0.15434735                1.14417136                0.19075452               -0.00344255
               4.04708005                9.99424959               48.05440719                0.01000000               -1.60536680                0.46072411                0.18283339                0.98415753                0.36615190                0.00692168
               5.03486160               10.00267607               48.05819027                0.01146832               -1.05376855                0.33635296                0.18488921                0.31164451                0.40878498                0.03752039
               6.02600468               10.00767501               48.06253245                0.01000000               -0.83076208                0.28926021                0.17465208                0.13717333                0.49475241                0.05773904
               7.01824636               10.00908145               48.06790640                0.01000001               -0.79403730                0.25869723                0.15873164               -0.02749048                0.64876953                0.08950404
               8.01012394               10.00763621               48.07492050                0.01000000               -0.85665193                0.32067242                0.13761715               -0.38250714                0.80431263                0.16970211
               9.00111332                9.99999155               48.08281678                0.99766802               -0.47645706               -0.05258036                0.17403136               -0.35226057                0.40089156                0.00036674
              10.00059480                9.99939166               48.08270249                1.00000000               -0.05185225               -0.05187550                0.17187810                0.00072978                0.00033635               -0.00034662
              -0.01828589                0.00437376               49.03864987                0.99159771               -0.02301736               -0.02138299                0.06997668                0.00270434               -0.00791840                0.00797022
               0.98148393                0.00183623               49.04087334                1.00000000               -0.02504441               -0.02567869                0.08373063                0.00218780               -0.00852874               -0.00113865
               1.98121322               -0.00068896               49.04308545                0.03086972               -0.01434032               -0.02995859                0.09744654                0.00973429               -0.07093935               -0.00391761
               2.98119713               -0.00305084               49.04405995                0.01000000               -0.01077134               -0.02740288                0.07090834                0.26635512               -0.03739782                0.00836711
               3.98099779                0.00003282               49.04645615                0.01000000               -0.19563543                0.13563639                0.10528439                0.29609286               -0.00194028                0.02597750
               4.97728442                0.00982268               49.04826789                0.01000001               -0.71670306                0.15581593                0.10451263                0.75621617               -0.05048354                0.03043224
               5.96666373                0.02863998               49.04972707                0.03564877               -0.54807560               -0.02648647                0.08377228                0.82751826               -0.02460098               -0.00093302
               6.96632291                0.03101382               49.05223325                0.97474010               -0.03176164               -0.02897194                0.09393447                0.00832348                0.01397952               -0.00156202
               7.96602850                0.03326678               49.05449470                1.00000000               -0.03074073               -0.03166979                0.10261978                0.00136331                0.00251794               -0.00003419
               8.96570809                0.03553680               49.05676735                1.00000000               -0.03333041               -0.03427909                0.11132860                0.00136674                0.00265083                0.00114772
               9.96536189                0.03782564               49.05902551                1.00000000               -0.03462019               -0.03703575                0.12014760                0.00045918                0.00238717                0.00336964
              -0.01572132                1.00415993               49.03892336                0.99474204               -0.02415109               -0.02185902                0.07355714                0.00062877                0.00119432                0.00849458
               0.98403717                1.00157944               49.04114762                0.15713874               -0.02622921               -0.02631723                0.08729615                0.00015511                0.00402702               -0.00396553
               1.98375410                0.99901146               49.04342613                0.01000000               -0.02686885               -0.02981413                0.10126852                0.01105123               -0.05759849               -0.02367096
               2.98349979                0.99667513               49.04441184                0.01000001               -0.31160668                0.02423337                0.07233078                0.21776271               -0.05631995                0.05107482
               3.97752196                1.00138918               49.04674871                0.01000000               -0.64783965                0.10790788                0.11009327                0.62828115               -0.03042704                0.03989825
               4.97054300                1.01138084               49.04837529                0.01000000               -0.65893091                0.05813935                0.10727885                1.15360699               -0.10982337                0.04727618
               5.96434334                1.02837511               49.04913645                0.01000001               -0.32251294               -0.39519229                0.09083125                1.07680020               -0.06488602                0.08368941
               6.96409274                1.03072410               49.05159719                0.96842090               -0.02813522               -0.02980108                0.09966159                0.00709024                0.01056215               -0.00156683
               7.96378064                1.03295008               49.05386074                0.99999999               -0.03252054               -0.03252677                0.10840781                0.00004837                0.00072915                0.00008501
               8.96344233                1.03519401               49.05612812                0.99999999               -0.03514986               -0.03514329                0.11717523                0.00001820                0.00050632                0.00158194
               9.96307764                1.03745528               49.05838788                0.99973141               -0.03646870               -0.03790290                0.12598199               -0.00089922                0.00023408                0.00493202
              -0.01311234                2.00393658               49.03920761                0.01000000               -0.02521486                0.06943619                0.07706843                0.12516638                0.00317044                0.10010308
               0.98663551                2.00130989               49.04136290                0.01000000               -0.02745511               -0.11729076                0.09076335                0.12004930               -0.00415175                0.07241557
               1.98633855                1.99871476               49.04336583                0.01000001               -0.17304239               -0.14589752                0.10094670                0.18311738                0.00597984                0.04247376
               2.98317466                1.99743383               49.04570953                0.01000000               -0.37404218               -0.01169995                0.10304437                0.46602639               -0.01074170                0.08964649
               3.97885771                2.00219097               49.04743743                0.01000000               -0.49020172               -0.02393454                0.11110935                1.07958928               -0.05656185                0.07106512
               4.97337062                2.01098547               49.04892939                0.01000001               -0.50006176               -0.16317014                0.11515109                1.46304810               -0.08107157                0.08948541
               5.96885647                2.02073613               49.05024093                0.01000000               -0.57404411               -0.55185593                0.11374653                1.54743732               -0.12023419                0.14448064
               6.96188974                2.03041780               49.05096228                0.01000000               -0.36484604               -0.30326479                0.10536290                0.90782006               -0.07766590                0.11105349
               7.96155955                2.03261625               49.05322756                0.20612782               -0.03432431               -0.03409455                0.11415602                0.00020734               -0.00097418                0.00846841
               8.96120326                2.03483393               49.05549403                0.99999999               -0.03690969               -0.03682010                0.12304901                0.00012555               -0.00062350                0.00094305
               9.96082136                2.03706758               49.05777467                0.99999999               -0.03818959               -0.03965578                0.13176553               -0.00087090               -0.00014500                0.00505686
              -0.00796460                3.00554865               49.04130999                0.01000005               -0.03754224                0.12145361                0.07288045                0.13471285               -0.00600786                0.19975507
               0.99165997                2.99923363               49.04315839                0.01000001               -0.03714479               -0.25760954                0.09209535                0.31317893               -0.00568009                0.15382623
               1.99129250                2.99609351               49.04501365                0.01000000               -0.11579326               -0.31490743                0.10612437                0.64090137               -0.00770731                0.12304906
               2.98934411                2.99644113               49.04680059                0.01000000               -0.28651939               -0.18720181                0.11529353                1.06974353               -0.01621837                0.08929312
               3.98556211                3.00091049               49.04850631                0.01024593               -0.40426525               -0.19736684                0.12181984                1.44240092               -0.03260914                0.09401259
               4.98125880                3.00811744               49.05002899                0.01000000               -0.48511756               -0.29094514                0.12509816                1.73601514               -0.05546552                0.11946934
               5.97585976                3.01733800               49.05134070                0.01000001               -0.54448866               -0.37776340                0.12487216                1.74956444               -0.07387372                0.16093523
               6.97036903                3.02465880               49.05258511                0.01000001               -0.82455562               -0.47128882                0.12460275                1.79840097               -0.13670709                0.22108367
               7.95936865                3.03226819               49.05276632                0.01000001               -0.56877627               -0.34943339                0.11966357                1.45558667               -0.11673648                0.20636176
               8.95899350                3.03445761               49.05484474                0.01000000               -0.03878584               -0.44235872                0.12899902                1.11987858               -0.01169214                0.17252629
               9.95859293                3.03666217               49.05713886                0.99637331               -0.04005729               -0.94559331                0.13755656                1.29974181               -0.00144339                0.13933277
               0.00221196                4.00636565               49.04347505                0.01000000                0.01422674               -0.04848223                0.07019304                0.35384458               -0.00486922                0.21765177
               1.00235423                3.99615770               49.04503433                0.01000000               -0.01314445               -0.39944202                0.09560524                0.71645624               -0.00332902                0.15508877
               2.00194908                3.99241661               49.04658120                0.01000000               -0.13008415               -0.38636952                0.11400861                1.20607298               -0.00183013                0.11313635
               2.99975255                3.99368979               49.04816783                0.01024023               -0.29598239               -0.29456100                0.12504709                1.48732396               -0.00168018                0.09375792
               3.99602943                3.99824364               49.04976048                0.01000000               -0.40445631               -0.29675378                0.13053842                1.74133544               -0.00208675                0.10045965
               4.99166342                4.00516656               49.05138896                0.01000001               -0.43615152               -0.32065685                0.13300391                1.89595268               -0.00192476                0.13526426
               5.98730640                4.01318087               49.05301616                0.01000001               -0.43679282               -0.41829426                0.13398143                1.99524247               -0.00897488                0.19307077
               6.98292757                4.02099202               49.05451382                0.01015912               -0.32169573               -0.47392038                0.13510059                1.94827623               -0.01213342                0.25545231
               7.98087248                4.02562758               49.05610507                0.01039774               -0.18603563               -0.66041570                0.13902018                2.04313727               -0.00815629                0.35464568
               8.97920685                4.02598676               49.05765149                0.01000000                0.07672982               -0.82992867                0.14415449                1.48152101               -0.01066266                0.33445120
               9.98240708                4.01815572               49.05921707                0.01000000                0.32002256               -1.34536795                0.15140112                1.16713598               -0.00088115                0.26570346
               0.01952820                5.00457901               49.04593051                0.01000003                0.04099359               -0.66523090                0.06585614                0.89974355               -0.00750153                0.25727777
               1.01993814                4.99124479               49.04703243                0.01000000               -0.08231699               -0.42260760                0.09704544                1.40113033                0.00045876                0.16209964
               2.01788186                4.98836612               49.04818198                0.01000001               -0.33372869               -0.31351478                0.12032029                1.61854093                0.00863453                0.09169081
               3.01326356                4.99054991               49.04950531                0.01000000               -0.44849049               -0.33877849                0.13174383                1.78638648                0.02504421                0.07799011
               4.00891205                4.99497541               49.05113420                0.01000001               -0.45114668               -0.31592759                0.13626284                1.88639993                0.05035482                0.09346857
               5.00424063                5.00170430               49.05300413                0.01000001               -0.44864488               -0.33404493                0.13723547                1.96103827                0.07114948                0.13890263
               5.99993915                5.00897211               49.05502187                0.01011340               -0.36763935               -0.40682743                0.13902282                1.89616512                0.08190763                0.20471141
               6.99688784                5.01518040               49.05704917                0.01000000               -0.23512501               -0.55233829                0.14183115                1.76116558                0.08017385                0.28712415
               7.99523665                5.01905988               49.05898562                0.01000000               -0.03960280               -0.67171818                0.14574753                1.42231063                0.06732179                0.35849493
               8.99609579                5.01785903               49.06077544                0.01000000                0.11805438               -0.74208905                0.15190085                0.92875428                0.04497493                0.37702041
               9.99759774                5.00975481               49.06217364                0.01000000                0.15019546               -0.58903989                0.15919055                0.45981805                0.03177249                0.32122134
               0.04687528                5.99306103               49.04902607                0.02492876               -0.02855481               -0.59079624                0.06846463                1.10350268               -0.01040863                0.17818951
               1.04658973                5.98770554               49.04935801                0.01000001               -0.59302553               -0.18700941                0.09568263                1.25823912               -0.01757839                0.10342753
               2.03501477                5.98614632               49.04956600                0.01000000               -0.88593740               -0.30530740                0.12463595                1.64995796                0.00223409                0.05341954
               3.02887098                5.98691422               49.05075457                0.01000001               -0.62058627               -0.32685192                0.13604821                1.73337788                0.06860365                0.04094567
               4.02260304                5.99192509               49.05247964                0.01000001               -0.59917450               -0.29642278                0.13698624                1.92027035                0.11549770                0.06959458
               5.01688749                5.99848566               49.05468941                0.01011332               -0.54247193               -0.25661089                0.13794725                1.83984818                0.15750461                0.12525711
               6.01175360                6.00504432               49.05720412                0.01000000               -0.44121910               -0.32086227                0.13994335                1.62342812                0.18901090                0.20308740
               7.00806311                6.00994525               49.05992443                0.01000000               -0.25567737               -0.44859288                0.14458419                1.28480592                0.20353099                0.30580570
               8.00664006                6.01219321               49.06260681                0.01000000               -0.04880504               -0.61013743                0.15138241                0.90540515                0.18200865                0.41242637
               9.00708701                6.01114498               49.06477890                0.01000000                0.05859187               -0.60637150                0.15685535                0.48329812                0.10876010                0.46455607
              10.00781189                6.00637492               49.06593211                0.01000000                0.07248844               -0.22389552                0.15919040                0.22906327                0.05851725                0.42018543
               0.05230924                6.99276309               49.05044535                0.94066369               -0.02916008               -0.02826839                0.08789044                0.01057543               -0.01275424                0.05102037
               1.05201763                6.98750460               49.05049969                0.89410583               -0.03184482               -0.02632473                0.10648168                0.01038017               -0.01355142                0.02662420
               2.05167234                6.98225997               49.05054192                0.01000000               -0.49326415               -0.21348127                0.12416920                0.92177385                0.03414687                0.00809212
               3.04215235                6.98401288               49.05156477                0.01000001               -0.79631613               -0.51422397                0.12869976                1.71905037                0.11585819               -0.04703564
               4.03574602                6.98904696               49.05359196                0.01015759               -0.71169950               -0.16657174                0.14077774                1.77608502                0.19378399                0.04557650
               5.02791836                6.99657208               49.05629433                0.01000000               -0.73989452               -0.10514450                0.13572377                1.63359094                0.25515350                0.10387241
               6.02094813                7.00255486               49.05945813                0.01000000               -0.62416495               -0.12741199                0.13898143                1.21849869                0.31151738                0.18963579
               7.01543506                7.00620854               49.06308760                0.01000000               -0.44015478               -0.24822227                0.14613933                0.73807735                0.35166425                0.30195250
               8.01214503                7.00685713               49.06688112                0.01000000               -0.19275093               -0.40047730                0.14986877                0.25730610                0.33027626                0.45072912
               9.01158004                7.00573160               49.06988489                0.01000002               -0.02129506               -0.50053157                0.15369699               -0.03520499                0.20950845                0.64458724
              10.01171913                7.00527690               49.07114889                0.01000000                0.01390853               -0.10525351                0.13562953               -0.06431240                0.12859463                0.63957585
               0.05760376                7.99249567               49.05112365                1.00000000               -0.03033083               -0.02733221                0.09190381                0.00072767               -0.00275241                0.01779639
               1.05730045                7.98717905               49.05117317                0.99999999               -0.03308940               -0.03314779                0.11040401                0.00027304               -0.00296723                0.00395554
               2.05694197                7.98187669               49.05121880                0.19725175               -0.04177237               -0.03903273                0.12925091                0.00249071               -0.01099096               -0.00965396
               3.05646500                7.97662974               49.05111764                0.01000001               -0.56882153               -0.39398941                0.20263829                1.32033427                0.14635655               -0.07510487
               4.04556554                7.98859365               49.05459425                0.01040385               -1.02067980               -0.00035907                0.13833062                1.71430520                0.30953659                0.03091661
               5.03605140                7.99638277               49.05777607                0.01000000               -0.95392084                0.11525862                0.14022500                1.22441048                0.34589075                0.08108368
               6.02648712                8.00249608               49.06161391                0.01000000               -0.87645061                0.10072649                0.13929142                0.78116684                0.42137031                0.15723673
               7.01852239                8.00498081               49.06611130                0.01000000               -0.71120048                0.01388738                0.14450516                0.25127995                0.50317551                0.25616116
               8.01226311                8.00418367               49.07140832                0.01000002               -0.52796257               -0.11314091                0.15550330               -0.30961578                0.59312978                0.40591896
               9.00796314                8.00113435               49.07757756                0.01407581               -0.24140257               -0.25422153                0.10707844               -0.54293910                0.45009986                0.74562970
              10.00743506                8.00426985               49.07940000                0.01000001               -0.05280814               -0.26218255                0.09073448               -0.26694828                0.23477362                0.64699018
               0.06295702                8.99221644               49.05187540                1.00000000               -0.03149549               -0.02850800                0.09572181                0.00077350                0.00282862                0.01750769
               1.06264207                8.98684164               49.05187065                0.99999999               -0.03427834               -0.03438842                0.11450820                0.00011120                0.00259036                0.00324226
               2.06227146                8.98147932               49.05185925                0.99999494               -0.03999954               -0.04020350                0.13376054                0.00016680               -0.00268689               -0.00704482
               3.06184208                8.97613309               49.05175944                0.01179931               -0.59961837               -0.04814697                0.15327116                0.91537407                0.18196559               -0.01487191
               4.05027909                8.98903978               49.05546981                0.01000000               -1.16689663                0.25165916                0.16854614                1.21590646                0.36015475                0.01501612
               5.03850415                8.99887725               49.05910377                0.01000000               -1.11528305                0.29160924                0.15939357                0.71551215                0.39750972                0.05464190
               6.02797343                9.00456939               49.06335402                0.01000000               -0.98655376                0.24564931                0.14943622                0.35884676                0.48288668                0.09347470
               7.01877307                9.00648629               49.06847122                0.01000002               -0.90871268                0.20077728                0.14424398               -0.00160031                0.60399954                0.15360789
               8.00979918                9.00459431               49.07486893                0.01000007               -0.90689942                0.18125717                0.13886841               -0.37711574                0.84882799                0.25560870
               9.00063508                9.00064717               49.08469425                1.00000000               -0.48450054               -0.05064834                0.17623397               -0.56411614                0.49768218                0.36304941
              10.00010917                9.00003325               49.08455881                0.99787762               -0.05259174               -0.23776959                0.17412832               -0.39698525               -0.00034150                0.26445181
               0.06836882                9.99192551               49.05254254                1.00000000               -0.03290218               -0.02909344                0.09981741               -0.00224319                0.01405441                0.01369655
               1.06803980                9.98649128               49.05253470                1.00000000               -0.03574791               -0.03503641                0.11878516               -0.00287148                0.01846649                0.00148845
               2.06765386                9.98107262               49.05260931                0.99999994               -0.04138885               -0.04066932                0.13772515               -0.00298349                0.01888128               -0.00224781
               3.06721202                9.97566681               49.05261053                0.99961810               -1.02571797               -0.04662829                0.15643891                1.16470472                0.19791715               -0.00528335
               4.04713950                9.99362683               49.05627490                0.01000000               -1.61899948                0.45870570                0.19792210                1.01344879                0.37520437                0.00526253
               5.03483203               10.00221496               49.06008510                0.01178799               -1.05422385                0.33377062                0.19655236                0.32189983                0.39763082                0.03371074
               6.02605502               10.00740906               49.06430134                0.01000000               -0.81832804                0.28396681                0.17754788                0.14722920                0.47137110                0.05071743
               7.01846547               10.00899635               49.06949517                0.01000001               -0.77475584                0.25100691                0.15848556               -0.01077272                0.62032032                0.08069245
               8.01055991               10.00780881               49.07636883                0.01000000               -0.86117934                0.32145000                0.15139301               -0.36767550                0.78489217                0.15856336
               9.00124188               10.00012138               49.08455721                0.99789841               -0.49183488               -0.05257927                0.17406309               -0.35403773                0.41655592                0.00036497
              10.00072321                9.99951446               49.08442176                1.00000000               -0.05186732               -0.05187906                0.17196020                0.00071190                0.00034793               -0.00034492
              -0.02065783                0.00416261               50.03935132                0.99155406               -0.02308445               -0.02142126                0.07039715                0.00250801               -0.00799917                0.00814781
               0.97911132                0.00153247               50.04171008                1.00000000               -0.02501822               -0.02555764                0.08361527                0.00212020               -0.00861766               -0.00117245
               1.97884180               -0.00108705               50.04405738                0.01071592                0.00211547               -0.02968351                0.09680293                0.02403266               -0.09158610               -0.00387500
               2.97915363               -0.00325758               50.04475401                0.01000000               -0.00549988               -0.03162285                0.09469324                0.25723197               -0.03912248                0.03581483
               3.97873180                0.00006127               50.04759727                0.01000000               -0.20635484                0.12730759                0.12031069                0.29816292               -0.02766092                0.04702727
               4.97502653                0.01002465               50.04933832                0.01000001               -0.71683155                0.14845114                0.10263018                0.76971679               -0.08537137                0.03222813
               5.96439517                0.02918425               50.05056389                0.03026804               -0.54957561               -0.02666688                0.08357542                0.84321393               -0.03907820               -0.00117522
               6.96403502                0.03160512               50.05317049                0.97410172               -0.03263771               -0.02900859                0.09353323                0.01010129                0.01468886               -0.00161697
               7.96374242                0.03387160               50.05551709                1.00000000               -0.03049315               -0.03160758                0.10184394                0.00128442                0.00243190               -0.00003430
               8.96342516                0.03615844               50.05787485                1.00000000               -0.03295771               -0.03408588                0.11014579                0.00128274                0.00260573                0.00116027
               9.96308326                0.03846765               50.06021861                1.00000000               -0.03418944               -0.03668838                0.11848063                0.00022175                0.00234571                0.00335140
              -0.01800261                1.00394840               50.03965837                1.00000000               -0.02400378               -0.02181682                0.07340989                0.00050779                0.00120435                0.00859106
               0.98175735                1.00127689               50.04201733                0.14228255               -0.02601191               -0.02609952                0.08661851                0.00014489                0.00408590               -0.00400918
               1.98147715                0.99861612               50.04443215                0.01000000               -0.03027799               -0.02902551                0.10008220                0.02344584               -0.07905172               -0.02610123
               2.98115179                0.99642619               50.04512329                0.01000001               -0.32024173                0.02074053                0.10667201                0.22444874               -0.13705176                0.10115666
               3.97507232                1.00133434               50.04794976                0.01000000               -0.64947925                0.09795575                0.11928726                0.64696931               -0.04833186                0.04175510
               4.96816221                1.01150916               50.04946506                0.01000000               -0.65176203                0.05019668                0.10847377                1.18167106               -0.13968925                0.04962434
               5.96203708                1.02891758               50.05004878                0.01000001               -0.31849233               -0.40687848                0.09164857                1.09933999               -0.07838217                0.09153517
               6.96179236                1.03131503               50.05259737                0.96310183               -0.02792374               -0.03002436                0.10039363                0.00892850                0.01067279               -0.00161889
               7.96147860                1.03355552               50.05494642                0.99999999               -0.03262005               -0.03262027                0.10872591                0.00002059                0.00072435                0.00007144
               8.96113996                1.03581758               50.05729931                0.99999999               -0.03511668               -0.03511041                0.11705669                0.00000385                0.00051116                0.00162748
               9.96077627                1.03810077               50.05964467                0.99950579               -0.03636918               -0.03771752                0.12539230               -0.00105389                0.00023601                0.00490409
              -0.01530466                2.00372627               50.03997585                0.01000002               -0.02488379                0.07160586                0.07647905                0.13013505                0.00326054                0.09630463
               0.98444650                2.00101048               50.04226563                0.01000000               -0.02669598               -0.11832979                0.08951108                0.12513938               -0.00646901                0.07212411
               1.98416142                1.99833244               50.04435697                0.01000001               -0.17610606               -0.14490170                0.09152218                0.19774700               -0.00076536                0.04156852
               2.98092438                1.99715723               50.04676407                0.01000000               -0.37865998               -0.01574166                0.10827758                0.49379014               -0.00916059                0.11939134
               3.97658822                2.00202038               50.04857547                0.01000000               -0.49238337               -0.03303701                0.11984260                1.11642662               -0.07105953                0.07007313
               4.97107671                2.01102858               50.05010568                0.01000001               -0.50060598               -0.17276527                0.11838592                1.50348144               -0.09680584                0.09379331
               5.96657610                2.02104668               50.05139201                0.01000000               -0.57505299               -0.56965224                0.11607496                1.58581587               -0.13796662                0.15533763
               6.95957565                2.03100463               50.05202530                0.01000000               -0.36679087               -0.31265363                0.10723624                0.93083990               -0.08635129                0.11755580
               7.95924028                2.03321919               50.05437655                0.21744845               -0.03478300               -0.03454140                0.11560820                0.00010456               -0.00089429                0.00830507
               8.95887999                2.03545623               50.05672922                0.99999999               -0.03722361               -0.03711299                0.12399259                0.00008786               -0.00055524                0.00103772
               9.95849581                2.03771330               50.05909497                0.99999999               -0.03841822               -0.03979823                0.13229676               -0.00103017               -0.00012784                0.00500299
              -0.00996831                3.00538052               50.04203672                0.01000005               -0.03777157                0.12329407                0.07357842                0.14115043               -0.00717404                0.18815772
               0.98965397                2.99891029               50.04409061                0.01000001               -0.03731743               -0.26245433                0.09509810                0.32582570               -0.01028652                0.15610658
               1.98928534                2.99571808               50.04609090                0.01000000               -0.11571589               -0.31840797                0.10871844                0.66320610               -0.01902243                0.13860726
               2.98733966                2.99611135               50.04797410                0.01000000               -0.28779219               -0.19468669                0.12129122                1.10236019               -0.03254115                0.10264355
               3.98352950                3.00067360               50.04975207                0.01024703               -0.40670607               -0.20570947                0.12720638                1.48217952               -0.04755521                0.10195751
               4.97920553                3.00805385               50.05130025                0.01000000               -0.48760756               -0.30192631                0.12915697                1.78523800               -0.07192186                0.12216951
               5.97377735                3.01752454               50.05260489                0.01000001               -0.54844425               -0.39102112                0.12770293                1.80112663               -0.08793539                0.16370304
               6.96823665                3.02506196               50.05384367                0.01000001               -0.83741259               -0.48634029                0.12707110                1.84900661               -0.15001879                0.22912346
               7.95702909                3.03286470               50.05397559                0.01000001               -0.57945189               -0.35902835                0.12220955                1.49791624               -0.12303945                0.21279335
               8.95664761                3.03507532               50.05614444                0.01000000               -0.03937851               -0.45562443                0.13096430                1.15346756               -0.01135882                0.17719991
               9.95624152                3.03730480               50.05852265                0.99999999               -0.04060878               -0.97195322                0.13919862                1.33770687               -0.00144757                0.14317277
               0.00045879                4.00619216               50.04415265                0.01000000                0.01666572               -0.05143087                0.06727091                0.36468283               -0.00951266                0.20429242
               1.00062545                3.99576139               50.04601239                0.01000000               -0.01171555               -0.41143259                0.10247433                0.73861994               -0.01401294                0.15805632
               2.00022448                3.99196428               50.04775578                0.01000000               -0.13046921               -0.39735437                0.12458780                1.23967460               -0.02090760                0.12249259
               2.99801606                3.99326349               50.04945155                0.01024440               -0.29675840               -0.30539757                0.13268997                1.52486123               -0.02394651                0.10187356
               3.99428931                3.99790619               50.05109043                0.01000000               -0.40427648               -0.30885313                0.13590010                1.78730775               -0.02379247                0.10185026
               4.98993053                4.00499005               50.05273664                0.01000001               -0.43493921               -0.33401472                0.13662098                1.95206437               -0.01941873                0.13223252
               5.98559053                4.01322626               50.05436880                0.01000001               -0.43574526               -0.43317511                0.13667116                2.05979769               -0.02169431                0.18998807
               6.98121563                4.02127782               50.05587684                0.01017679               -0.32026403               -0.48795763                0.13751091                2.01270929               -0.01916061                0.25558684
               7.97918525                4.02603863               50.05750813                0.01044280               -0.18531958               -0.67429765                0.14146037                2.10314648               -0.01097576                0.36143861
               8.97750924                4.02634374               50.05910674                0.01000000                0.08028670               -0.85056554                0.14688796                1.52580307               -0.01162484                0.34135451
               9.98079098                4.01827424               50.06074256                0.01000003                0.32817436               -1.38511127                0.15427849                1.20529336               -0.00223978                0.27257761
               0.01818688                5.00435190               50.04655560                0.01000003                0.04673669               -0.68014317                0.05814089                0.92445923               -0.01601830                0.25073379
               1.01865425                4.99068164               50.04802412                0.01000000               -0.08050757               -0.43987657                0.10397247                1.43919090               -0.01242521                0.15866984
               2.01657673                4.98777099               50.04943138                0.01000001               -0.33796380               -0.32494474                0.13200899                1.66407336               -0.01332689                0.09543395
               3.01189497                4.99000340               50.05086341                0.01000000               -0.45138185               -0.35105637                0.14054567                1.83382280               -0.00320390                0.07576699
               4.00754909                4.99449654               50.05251551                0.01000001               -0.44841090               -0.33068638                0.14093112                1.93856389                0.02485674                0.08414285
               5.00292675                5.00137356               50.05438445                0.01000001               -0.44317804               -0.35026692                0.13960243                2.02351378                0.05367052                0.12470019
               5.99868553                5.00886104               50.05641587                0.01012814               -0.36241414               -0.42335695                0.14038203                1.96714265                0.07334637                0.19201652
               6.99567847                5.01530281               50.05847393                0.01000000               -0.23297117               -0.56739919                0.14326498                1.83551920                0.07756937                0.28076407
               7.99402611                5.01937874               50.06045381                0.01000000               -0.03752027               -0.68335441                0.14751931                1.48168340                0.06841066                0.35933470
               8.99492806                5.01806401               50.06231191                0.01000000                0.12301470               -0.75308932                0.15470257                0.96249143                0.04708018                0.38161096
               9.99648640                5.00960258               50.06378514                0.01000000                0.15583367               -0.60767490                0.16338122                0.47619961                0.03238021                0.32447425
               0.04628849                5.99258929               50.04967387                0.01108559               -0.02983186               -0.60743849                0.05695674                1.12974234               -0.02021252                0.19719111
               1.04599017                5.98696386               50.05033116                0.01000001               -0.60521512               -0.19200870                0.10196933                1.29804985               -0.02914501                0.09596647
               2.03418419                5.98546539               50.05085467                0.01000000               -0.90115967               -0.31399994                0.13713812                1.70449195               -0.01819361                0.04773974
               3.02796698                5.98624237               50.05211098                0.01000001               -0.62468753               -0.34238920                0.14137386                1.78001754                0.03983079                0.03064217
               4.02169044                5.99129246               50.05385320                0.01000001               -0.59653322               -0.30886462                0.13902238                1.97169886                0.09206347                0.04634804
               5.01603631                5.99798472               50.05605510                0.01012774               -0.53431505               -0.27319063                0.13634790                1.90238279                0.14474967                0.09590386
               6.01100413                6.00475912               50.05859070                0.01000000               -0.43140016               -0.33764338                0.13850541                1.69673935                0.18779767                0.17798654
               7.00740831                6.00992984               50.06136119                0.01000000               -0.24732104               -0.46273902                0.14340961                1.36183475                0.21174194                0.29343764
               8.00605771                6.01237154               50.06412460                0.01000000               -0.04365381               -0.61915979                0.15049765                0.97475399                0.19259616                0.41064926
               9.00653523                6.01128195               50.06635006                0.01000000                0.05900614               -0.60971454                0.15690126                0.52223118                0.11583554                0.47355000
              10.00723784                6.00612074               50.06754861                0.01000000                0.07026039               -0.23486171                0.16316929                0.25332706                0.06057744                0.41617043
               0.05203260                6.99220313               50.05132374                0.93885325               -0.02934467               -0.03260334                0.08773562                0.02103126               -0.01317115                0.06039024
               1.05173915                6.98684147               50.05157071                0.87306108               -0.03222685               -0.02258299                0.10790847                0.02127026               -0.01440027                0.02943361
               2.05138806                6.98149100               50.05179717                0.01000000               -0.50354524               -0.21829387                0.12718375                0.94470683                0.03181386                0.00467610
               3.04166824                6.98315562               50.05298180                0.01000001               -0.80736702               -0.52802552                0.14307442                1.75972478                0.09840906               -0.05270837
               4.03524072                6.98831925               50.05495553                0.01017367               -0.70802470               -0.17279370                0.13155429                1.82330642                0.17438263                0.01415572
               5.02750775                6.99590975               50.05760869                0.01000000               -0.72827624               -0.11870985                0.12733129                1.68619059                0.25067295                0.06009727
               6.02067519                7.00210817               50.06080890                0.01000000               -0.61025009               -0.14091575                0.13259887                1.28492463                0.32316921                0.15272515
               7.01530275                7.00604803               50.06452924                0.01000000               -0.42530604               -0.26047524                0.14192919                0.81039863                0.36930474                0.27902745
               8.01216907                7.00699555               50.06833411                0.01000000               -0.18396298               -0.40722401                0.14244156                0.31979236                0.36212950                0.45715047
               9.01162349                7.00586972               50.07146431                0.01000002               -0.01468487               -0.50001358                0.15047980                0.01556135                0.22290116                0.63428177
              10.01187538                7.00490534               50.07253393                0.01000000                0.02518864               -0.12373861                0.14629862               -0.04814446                0.10966361                0.61213409
               0.05743243                7.99193723               50.05203888                1.00000000               -0.03047273               -0.02710311                0.09118270                0.00066334               -0.00299372                0.01744450
               1.05712771                7.98651220               50.05228288                0.99999999               -0.03341318               -0.03345027                0.11148432                0.00021675               -0.00334515                0.00387481
               2.05676417                7.98109951               50.05252178                0.21144608               -0.03972429               -0.03985133                0.13157230               -0.00064565                0.00075817               -0.00900660
               3.05633322                7.97568186               50.05285850                0.01000001               -0.56808669               -0.39648574                0.16602378                1.34182960                0.14967694               -0.07720134
               4.04540244                7.98783659               50.05604046                0.01045143               -1.01810103               -0.00286150                0.13463471                1.74224435                0.28650638                0.01015440
               5.03597120                7.99561052               50.05907575                0.01000000               -0.94190446                0.10933030                0.11692738                1.25601584                0.34737456                0.03843836
               6.02656435                8.00194081               50.06295256                0.01000000               -0.86211479                0.09281486                0.12783607                0.82802700                0.44153444                0.11538590
               7.01872890                8.00472033               50.06751628                0.01000000               -0.69662393                0.00673721                0.13818818                0.30252230                0.53247682                0.22641553
               8.01263187                8.00422706               50.07297963                0.01000002               -0.48961204               -0.12071994                0.14999393               -0.27250696                0.59077775                0.38566119
               9.00893666                8.00128168               50.07824646                0.01000001               -0.22140865               -0.25355107                0.05687551               -0.57135850                0.49919445                0.84606245
              10.00820370                8.00364597               50.08002766                0.01000001               -0.07329676               -0.23638271                0.04782951               -0.34475722                0.31380248                0.72945952
               0.06289592                8.99166107               50.05282665                1.00000000               -0.03147181               -0.02813044                0.09453636                0.00066980                0.00284532                0.01729586
               1.06258120                8.98617246               50.05301901                0.99999999               -0.03452152               -0.03454897                0.11508343                0.00011287                0.00274436                0.00320883
               2.06220549                8.98069397               50.05320814                1.00000000               -0.04067222               -0.04092944                0.13586829               -0.00003375               -0.00221005               -0.00669250
               3.06176776                8.97522590               50.05331027                0.01508505               -0.60242729               -0.04665202                0.15679176                0.92482561                0.18111597               -0.02562614
               4.05015694                8.98826202               50.05718280                0.01000000               -1.16219528                0.24540352                0.16924870                1.22887947                0.35783652                0.01361220
               5.03852385                8.99809635               50.06065862                0.01000000               -1.10155122                0.28885532                0.14023013                0.72595110                0.38988147                0.03091664
               6.02812592                9.00396447               50.06479085                0.01000000               -0.97284534                0.24269490                0.13199536                0.37720513                0.49479837                0.06365235
               7.01906694                9.00618277               50.06989006                0.01000002               -0.89841656                0.19635352                0.14096712                0.02365276                0.61334983                0.12919894
               8.01015759                9.00458115               50.07626581                0.01000007               -0.91447657                0.17903084                0.14344047               -0.36281013                0.86164039                0.23961752
               9.00077741                9.00079870               50.08645626                1.00000000               -0.49529607               -0.05043696                0.17617415               -0.59743091                0.51697584                0.41876776
              10.00025167                9.00017769               50.08629992                0.99811932               -0.05257468               -0.19935536                0.17409037               -0.42865291               -0.00034765                0.32117604
               0.06842304                9.99137462               50.05353257                1.00000000               -0.03259763               -0.02864493                0.09813164               -0.00262795                0.01409122                0.01366572
               1.06809706                9.98582122               50.05372205                1.00000000               -0.03564920               -0.03512441                0.11870837               -0.00309873                0.01851455                0.00148760
               2.06771005                9.98028092               50.05399414                0.99999994               -0.04176876               -0.04130487                0.13931360               -0.00316361                0.01870369               -0.00229749
               3.06726169                9.97474882               50.05419058                0.99999998               -1.03002371               -0.04770894                0.15975641                1.17257998                0.21315905               -0.00527568
               4.04710958                9.99274466               50.05836564                0.01000003               -1.62369570                0.44826438                0.24075301                1.02720420                0.40580524                0.00165270
               5.03478777               10.00138763               50.06212132                0.01000001               -1.05437731                0.32912734                0.21024236                0.32889437                0.37608139                0.02658120
               6.02602203               10.00679470               50.06608341                0.01000000               -0.81012462                0.28302378                0.16557902                0.15260052                0.45901503                0.03483947
               7.01858528               10.00864741               50.07107611                0.01000001               -0.76311462                0.24646361                0.15909830                0.00248209                0.60608700                0.06997850
               8.01075974               10.00780767               50.07794836                0.01000000               -0.85968870                0.32265273                0.16271934               -0.35850770                0.77441855                0.16004473
               9.00139151               10.00027294               50.08629804                0.99814350               -0.49435439               -0.05257522                0.17410538               -0.34603150                0.42566929                0.00036876
              10.00087265                9.99965886               50.08614169                1.00000000               -0.05188526               -0.05188298                0.17202123                0.00069026                0.00035093               -0.00035060
              -0.02316341                0.00392261               51.04005781                0.99154523               -0.02310775               -0.02153937                0.07077595                0.00239110               -0.00814965                0.00800541
               0.97660552                0.00119828               51.04254564                1.00000000               -0.02495103               -0.02545612                0.08335652                0.00202950               -0.00874767               -0.00144542
               1.97633757               -0.00151599               51.04502151                0.01000000                0.01346346               -0.02941704                0.09591146                0.05938325               -0.08633351               -0.00374880
               2.97687478               -0.00307312               51.04595381                0.01000000               -0.02386591               -0.02386845                0.20636469                0.12585486               -0.06838189                0.03657395
               3.97586025                0.00026839               51.04886236                0.01000000               -0.21322051                0.09776939                0.10711302                0.29967407               -0.04746827                0.03815477
               4.97261037                0.01021376               51.05032050                0.01001148               -0.69051259                0.13922112                0.09922340                0.77289708               -0.11626256                0.03815805
               5.96205000                0.02964669               51.05139858                0.02494402               -0.54734459               -0.02689982                0.08331620                0.85503720               -0.04885548               -0.00142402
               6.96166348                0.03212772               51.05410392                0.97348586               -0.03386147               -0.02908052                0.09317907                0.01254562                0.01553926               -0.00161273
               7.96137277                0.03440745               51.05653158                1.00000000               -0.03023992               -0.03153979                0.10105683                0.00120964                0.00239361               -0.00004287
               8.96105868                0.03671109               51.05897027                1.00000000               -0.03257455               -0.03389018                0.10892114                0.00121644                0.00257469                0.00116523
               9.96072128                0.03904055               51.06139512                1.00000000               -0.03374023               -0.03635446                0.11681099               -0.00001779                0.00233958                0.00335278
              -0.02041516                1.00370722               51.04039156                1.00000000               -0.02397283               -0.02191456                0.07364090                0.00048609                0.00135511                0.00847131
               0.97934511                1.00094371               51.04287999                0.12848251               -0.02588680               -0.02595894                0.08624271                0.00010576                0.00427638               -0.00441543
               1.97906710                0.99818984               51.04542777                0.01000000               -0.10519824               -0.02983170                0.09908441                0.06158548               -0.06411475               -0.03532789
               2.97724114                0.99668820               51.04654528                0.01000001               -0.34267734                0.00219842                0.17888514                0.24772028               -0.13605400                0.10037089
               3.97221355                1.00124608               51.04913445                0.01000000               -0.57954756                0.07608690                0.11031166                0.65762199               -0.07464416                0.03985335
               4.96565019                1.01160597               51.05054477                0.01000000               -0.62850793                0.04061920                0.10870599                1.20696028               -0.16354699                0.05706604
               5.95964340                1.02937769               51.05096942                0.01000001               -0.31208157               -0.41799591                0.09270899                1.11792303               -0.09050118                0.09934978
               6.95940856                1.03183691               51.05360506                0.95779770               -0.02751057               -0.03025551                0.10115039                0.01145237                0.01096579               -0.00164508
               7.95909318                1.03409205               51.05603525                0.99999999               -0.03271328               -0.03271352                0.10903945                0.00001198                0.00072222                0.00006348
               8.95875430                1.03637219               51.05846925                0.99999999               -0.03507715               -0.03507617                0.11693126                0.00000041                0.00051324                0.00164385
               9.95839164                1.03867701               51.06089573                0.99999999               -0.03626547               -0.03754421                0.12483034               -0.00121655                0.00023872                0.00490015
              -0.01762668                2.00348432               51.04073719                0.01008479               -0.02483118                0.07138994                0.07662167                0.12944355                0.00332930                0.09381594
               0.98212501                2.00067910               51.04315312                0.01000000               -0.02742591               -0.11673596                0.08897421                0.12290071               -0.01541539                0.07427064
               1.98182480                1.99788738               51.04519627                0.01000001               -0.16760285               -0.13614970                0.04273254                0.21266045                0.01132423                0.06501775
               2.97877295                1.99697085               51.04787508                0.01000000               -0.38649404               -0.04408333                0.12780733                0.58468614               -0.01624543                0.11377668
               3.97409492                2.00179013               51.04983428                0.01000000               -0.50774899               -0.04057013                0.12686953                1.15632998               -0.08643108                0.07784639
               4.96861797                2.01102615               51.05129711                0.01000001               -0.49586976               -0.18380557                0.11954954                1.54069989               -0.11528472                0.10162563
               5.96417752                2.02128677               51.05256242                0.01000000               -0.57198962               -0.58712141                0.11758798                1.62053483               -0.15452770                0.16665535
               6.95717818                2.03152261               51.05310701                0.01000000               -0.36698915               -0.32235913                0.10909508                0.95279000               -0.09481679                0.12388312
               7.95683774                2.03375318               51.05553973                0.22881989               -0.03522207               -0.03497823                0.11702138                0.00004339               -0.00084532                0.00816790
               8.95647373                2.03600957               51.05797389                0.99999999               -0.03752141               -0.03740471                0.12493788                0.00007307               -0.00052607                0.00106792
               9.95608731                2.03828967               51.06042061                0.99999999               -0.03864231               -0.03994860                0.13282804               -0.00119400               -0.00011764                0.00498735
              -0.01221585                3.00513501               51.04278156                0.01000005               -0.03840868                0.12241518                0.07610892                0.14384322               -0.01022527                0.17666677
               0.98740006                2.99860900               51.04506035                0.01000001               -0.03777971               -0.26468920                0.09915649                0.33388330               -0.02036579                0.16862494
               1.98702856                2.99546685               51.04718802                0.01000000               -0.11839733               -0.31806951                0.12891685                0.67322517               -0.04080800                0.16017288
               2.98503212                2.99580653               51.04922642                0.01000000               -0.28718493               -0.20664484                0.12705591                1.10669256               -0.05265290                0.11864082
               3.98128486                3.00043468               51.05105044                0.01025022               -0.40322869               -0.21364603                0.13229905                1.51484507               -0.07016267                0.10720817
               4.97696754                3.00792986               51.05261213                0.01000000               -0.48636137               -0.31495665                0.13209207                1.82896478               -0.09099351                0.12702858
               5.97155763                3.01763527               51.05389475                0.01000001               -0.54847917               -0.40585622                0.12999458                1.85073300               -0.10312622                0.16663446
               6.96599796                3.02538973               51.05512653                0.01000001               -0.84752672               -0.50245547                0.12952129                1.89920347               -0.16342138                0.23646584
               7.95460710                3.03339248               51.05521051                0.01000000               -0.58893466               -0.36875261                0.12485274                1.54098438               -0.12926787                0.21850688
               8.95421927                3.03562409               51.05746403                0.01000000               -0.03997691               -0.46815950                0.13294702                1.18758714               -0.01118829                0.18164428
               9.95380756                3.03787803               51.05992284                0.99999998               -0.04117089               -0.99724490                0.14082374                1.37556076               -0.00145132                0.14743658
              -0.00169778                4.00593262               51.04482046                0.01000000                0.01686188               -0.05312742                0.07069329                0.36960214               -0.01641354                0.18944884
               0.99847084                3.99538531               51.04708381                0.01000000               -0.01052268               -0.42547887                0.11365856                0.75035781               -0.03103994                0.17389878
               1.99809177                3.99152599               51.04907295                0.01000000               -0.12659363               -0.41454688                0.13332460                1.26000554               -0.05170122                0.14423024
               2.99593897                3.99283795               51.05082163                0.01024614               -0.29116392               -0.32003513                0.14044370                1.55372306               -0.06003020                0.11268504
               3.99226849                3.99751721               51.05247849                0.01000000               -0.39711439               -0.32695854                0.14051702                1.82461747               -0.05313391                0.10471238
               4.98799668                4.00472701               51.05412138                0.01000001               -0.42680869               -0.35250082                0.13996892                2.00492889               -0.04139738                0.12889135
               5.98373231                4.01316965               51.05574958                0.01000001               -0.42958252               -0.45223619                0.13946494                2.12527283               -0.03666952                0.18620589
               6.97940503                4.02147350               51.05726404                0.01019561               -0.31546240               -0.50392056                0.14012568                2.08059002               -0.02774674                0.25399010
               7.97742307                4.02637812               51.05893428                0.01049035               -0.18325504               -0.68811902                0.14406752                2.16663323               -0.01477359                0.36582056
               8.97573993                4.02664638               51.06058925                0.01000000                0.08337884               -0.86880787                0.14999668                1.57267168               -0.01275945                0.34656238
               9.97909064                4.01834477               51.06230264                0.01000003                0.33507159               -1.42198984                0.15854093                1.24440530               -0.00363619                0.28016108
               0.01627081                5.00407247               51.04709333                0.01000003                0.05430436               -0.68479486                0.05461084                0.94540625               -0.04208926                0.24130833
               1.01681385                4.99009942               51.04911188                0.01000000               -0.07473923               -0.46535161                0.11907140                1.47293163               -0.04797892                0.16571287
               2.01477603                4.98717591               51.05082216                0.01000001               -0.33492477               -0.33953296                0.14704409                1.70428620               -0.05868034                0.10953680
               3.01011536                4.98940583               51.05231623                0.01000000               -0.44439395               -0.37146395                0.14889985                1.87248530               -0.04827651                0.07848135
               4.00588815                4.99389551               51.05395282                0.01000001               -0.43508407               -0.35525909                0.14613812                1.98528603               -0.01028216                0.07395955
               5.00141368                5.00087985               51.05579618                0.01000001               -0.42857730               -0.37737574                0.14333250                2.08716673                0.03095957                0.10807832
               5.99731660                5.00859054               51.05782952                0.01014194               -0.35061955               -0.44793191                0.14350022                2.04513099                0.06118301                0.17651983
               6.99440129                5.01531132               51.05991447                0.01001332               -0.22748581               -0.58574027                0.14579158                1.91992931                0.07207850                0.27056106
               7.99276689                5.01963010               51.06193601                0.01000000               -0.03476156               -0.69261106                0.14958357                1.55083325                0.06711896                0.35396953
               8.99370606                5.01824794               51.06386949                0.01000000                0.12659957               -0.75913983                0.15737942                1.00239553                0.04791129                0.38123710
               9.99529888                5.00943824               51.06544126                0.01000000                0.15928210               -0.61976136                0.16868226                0.49581456                0.03283735                0.32564911
               0.04515644                5.99223672               51.05016520                0.01000001               -0.03304136               -0.62332934                0.03521091                1.14820854               -0.05306542                0.24438167
               1.04482603                5.98607828               51.05139740                0.01000001               -0.61426809               -0.19789326                0.11790792                1.34704742               -0.07429789                0.07493909
               2.03287108                5.98473533               51.05230876                0.01000000               -0.90784779               -0.32447627                0.15732553                1.77259438               -0.06602272                0.04232911
               3.02666907                5.98540867               51.05358205                0.01000001               -0.61854443               -0.35973212                0.15137589                1.82617541               -0.00964770                0.01653665
               4.02050019                5.99041202               51.05526009                0.01000001               -0.58120460               -0.33763519                0.14380413                2.02447287                0.05685535                0.01383116
               5.01504498                5.99717950               51.05741637                0.01014322               -0.51483654               -0.30632383                0.13997122                1.97318778                0.12697697                0.05680574
               6.01020346                6.00421101               51.05997423                0.01000340               -0.41404634               -0.36715179                0.14142577                1.78767777                0.18413339                0.14567009
               7.00676405                6.00975869               51.06279263                0.01000000               -0.23501720               -0.48386611                0.14552529                1.46047793                0.21330162                0.27359653
               8.00550312                6.01252590               51.06561676                0.01000000               -0.03921747               -0.62424981                0.14977516                1.06952755                0.19652462                0.39747628
               9.00597970                6.01146358               51.06791693                0.01000000                0.05616066               -0.58635510                0.15734777                0.57779143                0.11877537                0.46577133
              10.00662633                6.00594954               51.06919550                0.01000000                0.06466256               -0.21988533                0.16827399                0.27231079                0.06069109                0.41166826
               0.05155187                6.99160588               51.05220006                0.93814802               -0.02956698               -0.04475402                0.08754035                0.04853916               -0.01335686                0.07779738
               1.05125620                6.98614155               51.05265786                0.85067475               -0.03271747               -0.01350167                0.10953790                0.05025617               -0.01508985                0.02872848
               2.05089752                6.98068638               51.05308560                0.01000000               -0.51470143               -0.22248696                0.13046078                0.97900339                0.02831231               -0.00492202
               3.04096217                6.98221119               51.05442626                0.01000001               -0.81453696               -0.53257109                0.14439440                1.78636023                0.07001881               -0.05994324
               4.03460678                6.98714281               51.05622304                0.01019038               -0.69418622               -0.19212801                0.13066257                1.85602015                0.14174472               -0.04489396
               5.02707845                6.99475337               51.05884096                0.01001672               -0.70579095               -0.15389414                0.12504461                1.75732591                0.25234014               -0.01636482
               6.02049096                7.00124751               51.06211011                0.01000000               -0.58912459               -0.16945841                0.13494392                1.37772247                0.34009450                0.10019621
               7.01529595                7.00563400               51.06592618                0.01000000               -0.40192049               -0.28051944                0.14217692                0.91392054                0.38171161                0.25049675
               8.01245255                7.00714511               51.06972995                0.01000000               -0.17288547               -0.42803573                0.14244045                0.43661022                0.36522282                0.44083225
               9.01183825                7.00652083               51.07289449                0.01000002               -0.03396929               -0.41999653                0.13809941                0.14073587                0.23088807                0.58339004
              10.01177317                7.00504053               51.07407486                0.01000000               -0.00650792               -0.04282472                0.15128742                0.02808906                0.11044183                0.56623449
               0.05705588                7.99134164               51.05294730                1.00000000               -0.03052315               -0.02686062                0.09047514                0.00052767               -0.00317895                0.01716207
               1.05675065                7.98580825               51.05340286                0.99999999               -0.03371819               -0.03374497                0.11249663                0.00016064               -0.00363543                0.00377595
               2.05638151                7.98028559               51.05385024                0.22558704               -0.04053956               -0.04066400                0.13418784               -0.00062603                0.00242234               -0.00836239
               3.05593985                7.97475725               51.05443811                0.01000000               -0.56515515               -0.39613514                0.15783496                1.34057189                0.12153780               -0.07055723
               4.04507841                7.98656946               51.05728694                0.01050215               -0.99265288               -0.00779790                0.09647491                1.74125266                0.28126596               -0.07087619
               5.03608680                7.99410162               51.06011462                0.01000000               -0.91005648                0.08483249                0.10500158                1.29338290                0.38377651               -0.06447890
               6.02687728                8.00082184               51.06417063                0.01000000               -0.84709669                0.07320424                0.12449694                0.90968438                0.49344800                0.04685490
               7.01914486                8.00414831               51.06887507                0.01000000               -0.67643980               -0.00617793                0.14082118                0.37062507                0.56226594                0.19511807
               8.01334848                8.00396519               51.07440820                0.01000002               -0.41229329               -0.13635913                0.14057642               -0.15357148                0.55510728                0.37727999
               9.01089900                8.00306365               51.07871507                0.01000000               -0.15998854               -0.27749418                0.08658586               -0.48849483                0.41379363                0.85239446
              10.01014871                8.00509305               51.08035659                0.01000001               -0.07502830               -0.23488973                0.09841906               -0.36497369                0.26679294                0.77169011
               0.06262922                8.99106867               51.05376613                1.00000000               -0.03137490               -0.02773325                0.09331809                0.00058908                0.00285017                0.01707786
               1.06231547                8.98546665               51.05417231                0.99999999               -0.03466116               -0.03466498                0.11553598                0.00011553                0.00286836                0.00316134
               2.06193599                8.97987310               51.05457661                1.00000000               -0.04128673               -0.04154589                0.13787686               -0.00001402               -0.00188423               -0.00635665
               3.06148973                8.97428848               51.05489527                0.01868391               -0.59242613               -0.04782918                0.16033200                0.91387967                0.17501246               -0.02686466
               4.05008747                8.98698685               51.05885479                0.01000000               -1.13980039                0.23623797                0.12983149                1.22039957                0.33479625               -0.01922445
               5.03869372                8.99645002               51.06190837                0.01000000               -1.07247554                0.28597830                0.08855576                0.71369149                0.45975342               -0.06961837
               6.02863796                9.00271159               51.06599393                0.01000000               -0.95643067                0.23494470                0.12239159                0.42318389                0.56513535                0.01254463
               7.01956511                9.00551044               51.07129056                0.01000002               -0.90860902                0.19377594                0.14679395                0.06418638                0.64738666                0.11017563
               8.01046578                9.00441792               51.07773774                0.01000007               -0.93123111                0.18397051                0.15435305               -0.35308161                0.88278712                0.23772643
               9.00094049                9.00097095               51.08821774                1.00000000               -0.50254430               -0.13092276                0.17612673               -0.67061216                0.53248824                0.48442566
              10.00041489                9.00034274               51.08804062                0.99837404               -0.05255961               -0.26345725                0.17404607               -0.51811039               -0.00035315                0.39276901
               0.06827169                9.99078698               51.05450518                1.00000000               -0.03231668               -0.02816876                0.09634901               -0.00295625                0.01411385                0.01357797
               1.06794852                9.98511495               51.05490887                0.99989356               -0.03561415               -0.03517058                0.11862739               -0.00331027                0.01855683                0.00147526
               2.06755940                9.97945467               51.05539558                0.99999999               -0.04224073               -0.04184332                0.14096070               -0.00337297                0.01866034               -0.00227023
               3.06710370                9.97380067               51.05580566                0.98011241               -1.01172683               -0.04878140                0.16321050                1.15337477                0.25780031               -0.00529175
               4.04732487                9.99129422               51.06108996                0.01014445               -1.62339107                0.43073760                0.35455637                1.02476516                0.42222490               -0.03693664
               5.03463588                9.99982118               51.06428994                0.01000001               -1.05221636                0.33711628                0.14136366                0.30554147                0.42208813               -0.04548145
               6.02628054               10.00552074               51.06761292                0.01000000               -0.79568127                0.28091461                0.15643806                0.17438996                0.47213188                0.01425152
               7.01872226               10.00802382               51.07267713                0.01000001               -0.77270981                0.25133847                0.16295609                0.02190758                0.62183133                0.06446011
               8.01082634               10.00764460               51.07962321                0.01000000               -0.85801576                0.32266734                0.17116344               -0.34287529                0.77517338                0.16690310
               9.00156194               10.00044519               51.08803932                0.99839599               -0.48917053               -0.05257570                0.17415176               -0.32888957                0.43003078                0.00036983
              10.00104293                9.99982390               51.08786218                1.00000000               -0.05190102               -0.05188346                0.17207108                0.00067479                0.00035378               -0.00035332
              -0.02579648                0.00365523               52.04076684                0.99175900               -0.02308446               -0.02167811                0.07103890                0.00237533               -0.00827109                0.00805484
               0.97397267                0.00083487               52.04337721                1.00000000               -0.02482795               -0.02537662                0.08292853                0.00191004               -0.00884290               -0.00152983
               1.97370696               -0.00197455               52.04597561                0.01253178               -0.00137664               -0.02906493                0.09479646                0.05506454                0.00616361               -0.00374423
               2.97394514               -0.00370904               52.04888130                0.01000000               -0.01456005                0.02213858                0.13808590                0.19062624               -0.07921118               -0.06477617
               3.97341576                0.00028018               52.04973953                0.01000000               -0.18900351                0.08793085                0.11044182                0.31883462               -0.12574628                0.03650268
               4.97016507                0.01033926               52.05132279                0.01000000               -0.68905564                0.13346048                0.09771986                0.77581847               -0.12470148                0.04172133
               5.95963464                0.03001409               52.05223021                0.01964462               -0.54761301               -0.02733548                0.08303945                0.86477813               -0.05904129               -0.00180131
               6.95921281                0.03257058               52.05503407                0.97297334               -0.03553529               -0.02915420                0.09285795                0.01576836                0.01659054               -0.00160595
               7.95892394                0.03486338               52.05753823                1.00000000               -0.02998490               -0.03147409                0.10027510                0.00115151                0.00233458               -0.00005518
               8.95861311                0.03718378               52.06005328                1.00000000               -0.03217888               -0.03369384                0.10766110                0.00116971                0.00253154                0.00116788
               9.95828036                0.03953349               52.06255483                1.00000000               -0.03327503               -0.03602093                0.11509888               -0.00025515                0.00231311                0.00335433
              -0.02295237                1.00343845               52.04113119                1.00000000               -0.02409696               -0.02213204                0.07430791                0.00059210                0.00140513                0.00854628
               0.97680666                1.00058110               52.04374219                0.01000000               -0.02590376               -0.02596720                0.08623970                0.00013932                0.00432417               -0.00456146
               1.97652956                0.99773480               52.04641384                0.01000000               -0.10413153               -0.00764483                0.09826663                0.09451139               -0.01176602               -0.08545421
               2.97472403                0.99651234               52.04870100                0.01000001               -0.34748046                0.02303363                0.14483836                0.27205070               -0.06161627               -0.00080689
               3.96957995                1.00115949               52.05015599                0.01000000               -0.58338663                0.06905717                0.11868916                0.65916683               -0.12398850                0.06238850
               4.96305630                1.01167387               52.05163918                0.01000000               -0.62065918                0.03272356                0.10542388                1.22295237               -0.17408579                0.06225058
               5.95716677                1.02974073               52.05190296                0.01000001               -0.30552288               -0.42798157                0.09444952                1.13230875               -0.10264997                0.10602439
               6.95694584                1.03227904               52.05462038                0.95249126               -0.02689563               -0.03048817                0.10191123                0.01485598                0.01122271               -0.00165489
               7.95662885                1.03454864               52.05712720                0.99999999               -0.03280444               -0.03280444                0.10934665                0.00001824                0.00072633                0.00004858
               8.95628975                1.03684684               52.05963794                0.99999999               -0.03503786               -0.03504832                0.11680803                0.00000590                0.00052752                0.00164735
               9.95592810                1.03917328               52.06214128                0.99999999               -0.03616585               -0.03737769                0.12428486               -0.00137296                0.00024944                0.00491562
              -0.02006994                2.00321259               52.04150829                0.01035304               -0.02509464                0.06960615                0.07761502                0.12139153                0.00339810                0.09258167
               0.97967911                2.00031552               52.04404511                0.01000000               -0.01320560               -0.11145012                0.08949268                0.13467472               -0.06536591                0.07854632
               1.97966594                1.99787255               52.04521162                0.01000001               -0.18588254               -0.13449707                0.12698379                0.21048301               -0.05462587                0.02571990
               2.97596146                1.99675163               52.04932022                0.01000000               -0.41141885               -0.04873609                0.13283391                0.57444613               -0.00850694                0.07690024
               3.97143757                2.00166133               52.05111286                0.01000000               -0.49592926               -0.04929659                0.12660672                1.17013429               -0.11599697                0.09706169
               4.96604287                2.01099373               52.05249667                0.01000001               -0.48809602               -0.19518575                0.11934759                1.56390872               -0.13306789                0.11058293
               5.96167565                2.02145446               52.05374377                0.01000000               -0.56704288               -0.60353297                0.11856163                1.65003678               -0.16978810                0.17764798
               6.95470202                2.03196082               52.05420720                0.01000000               -0.36595739               -0.33223978                0.11092496                0.97297315               -0.10265197                0.12998706
               7.95435650                2.03420730               52.05671698                0.24031139               -0.03567131               -0.03541829                0.11842555               -0.00003069               -0.00077240                0.00813698
               8.95398859                2.03648281               52.05922798                0.99999995               -0.03782412               -0.03770013                0.12590416                0.00002040               -0.00048936                0.00105455
               9.95360002                2.03878594               52.06175153                0.99999999               -0.03885734               -0.04008920                0.13337412               -0.00134815               -0.00014205                0.00502469
              -0.01473040                3.00483057               52.04355890                0.01000005               -0.04294009                0.12283874                0.07670054                0.13584068               -0.01065667                0.17618293
               0.98484020                2.99835210               52.04607374                0.01000001               -0.04832427               -0.25638432                0.10341084                0.31436668               -0.01495401                0.18990276
               1.98430311                2.99504486               52.04866924                0.01000000               -0.12080087               -0.33289011                0.12528340                0.64861071               -0.05463250                0.21740322
               2.98242418                2.99553762               52.05051522                0.01000000               -0.27812917               -0.21621214                0.13275868                1.12885844               -0.09628378                0.11309164
               3.97874053                3.00017356               52.05239805                0.01025368               -0.39414179               -0.22816347                0.13347537                1.53609230               -0.09515553                0.11337932
               4.97454135                3.00777015               52.05394209                0.01000000               -0.47700561               -0.33049516                0.13275831                1.86425666               -0.11091248                0.13358631
               5.96920042                3.01767007               52.05520478                0.01000001               -0.54444393               -0.42194187                0.13150471                1.89514610               -0.11773615                0.17041985
               6.96365247                3.02563424               52.05643410                0.01000001               -0.85470875               -0.51955611                0.13190358                1.94720914               -0.17651769                0.24363343
               7.95210624                3.03384028               52.05647264                0.01000000               -0.59704727               -0.37888777                0.12781262                1.58333306               -0.13525490                0.22387068
               8.95171152                3.03609284               52.05880338                0.01000000               -0.04056805               -0.48066448                0.13494222                1.22141580               -0.01116163                0.18620830
               9.95129488                3.03837150               52.06133912                0.99999997               -0.04166388               -1.02134530                0.14246051                1.41243911               -0.00156654                0.15288002
              -0.00439618                4.00566937               52.04556651                0.01000000                0.01483414               -0.04986240                0.08174355                0.35376661               -0.02084363                0.18698820
               0.99575216                3.99518784               52.04828556                0.01000000               -0.00755905               -0.43348931                0.11748249                0.73355111               -0.05572081                0.21877504
               1.99545264                3.99121475               52.05042227                0.01000000               -0.11711175               -0.41594690                0.13528981                1.25676037               -0.09382424                0.16859420
               2.99340993                3.99242739               52.05226042                0.01024832               -0.27628781               -0.33625045                0.14018880                1.56289529               -0.09920457                0.12965406
               3.98992688                3.99709806               52.05390077                0.01000000               -0.37892161               -0.34897168                0.14142799                1.85397028               -0.08625778                0.10877665
               4.98583149                4.00438383               52.05553602                0.01000001               -0.41062016               -0.37650077                0.14155637                2.05227319               -0.06463065                0.12863573
               5.98171448                4.01301562               52.05715810                0.01000001               -0.41777494               -0.47516433                0.14184422                2.18881766               -0.05325834                0.18484223
               6.97747599                4.02156969               52.05867935                0.01021255               -0.30749569               -0.52243998                0.14294421                2.14875013               -0.03844536                0.25289618
               7.97556457                4.02662954               52.06038948                0.01054288               -0.17951538               -0.70323114                0.14734534                2.23035222               -0.02079146                0.36897753
               8.97388569                4.02686952               52.06210667                0.01000000                0.08634569               -0.88658804                0.15420647                1.61995031               -0.01506615                0.35054921
               9.97729148                4.01835903               52.06391338                0.01000000                0.34057919               -1.45743973                0.16467096                1.28418741               -0.00556251                0.28937565
               0.01330799                5.00383333               52.04764782                0.01000003                0.06578489               -0.66495871                0.07167883                0.94284692               -0.09699897                0.24219502
               1.01396584                4.98968231               52.05040554                0.01000000               -0.05546078               -0.51355872                0.14081617                1.47505409               -0.11948504                0.22523827
               2.01219877                4.98672592               52.05237226                0.01000001               -0.30835294               -0.35831101                0.15117409                1.71783700               -0.13691678                0.15536934
               3.00779878                4.98881261               52.05384141                0.01000000               -0.41676405               -0.39821572                0.15075342                1.89404885               -0.10812760                0.08812649
               4.00386349                4.99319413               52.05543827                0.01000001               -0.40647659               -0.38995981                0.14837657                2.02469321               -0.04892855                0.06934878
               4.99966925                5.00024014               52.05725110                0.01000001               -0.40362923               -0.41538857                0.14753470                2.15014411                0.00534258                0.09823850
               5.99579091                5.00816679               52.05928587                0.01015549               -0.33278498               -0.48118431                0.14831140                2.12706875                0.04457609                0.16630901
               6.99301355                5.01518544               52.06138976                0.01003457               -0.21887241               -0.60898195                0.15012134                2.00823424                0.06013231                0.26226978
               7.99141346                5.01977566               52.06344548                0.01000000               -0.03162552               -0.70512110                0.15324122                1.62374879                0.05964445                0.34591305
               8.99238104                5.01836108               52.06545950                0.01000000                0.12930768               -0.76485693                0.16196339                1.04466804                0.04471743                0.37611333
               9.99399961                5.00922270               52.06715879                0.01000000                0.16185761               -0.63192628                0.17683935                0.51631442                0.03150005                0.32499838
               0.04276278                5.99237019               52.05037809                0.01000003               -0.04021341               -0.64281753                0.01399159                1.13174107               -0.16935921                0.36947850
               1.04236065                5.98491666               52.05268932                0.01000001               -0.60418516               -0.21358653                0.14654981                1.41321573               -0.22748050                0.07347492
               2.03067908                5.98404853               52.05400118                0.01000000               -0.87689770               -0.34374202                0.17251244                1.87667702               -0.16505676                0.04451703
               3.02482270                5.98446307               52.05513849                0.01000001               -0.58429298               -0.38559588                0.15398386                1.86913630               -0.07460589                0.00355356
               4.01899322                5.98929886               52.05672928                0.01000001               -0.54804905               -0.38998051                0.15055255                2.07052036                0.01700491               -0.01052440
               5.01386171                5.99607606               52.05885452                0.01015748               -0.48413366               -0.36779655                0.15051869                2.05456583                0.10537406                0.02567526
               6.00931055                6.00339193               52.06141922                0.01002183               -0.39149518               -0.41255495                0.15145938                1.89574732                0.17111954                0.12311523
               7.00603181                6.00939005               52.06427170                0.01000000               -0.22233206               -0.51049606                0.15300032                1.57193865                0.20243399                0.25625563
               8.00486391                6.01252712               52.06712010                0.01000000               -0.03499054               -0.63774511                0.15486680                1.16370455                0.18605783                0.38053556
               9.00533200                6.01157238               52.06949701                0.01000000                0.05153039               -0.58108515                0.16178842                0.63543475                0.11382608                0.44103377
              10.00589451                6.00572051               52.07091409                0.01000000                0.05625143               -0.20768806                0.17763689                0.30100534                0.05902588                0.39095683
               0.05084987                6.99097697               52.05307454                0.93833444               -0.02980526               -0.08278971                0.08737951                0.12810901               -0.01343453                0.10933503
               1.05055182                6.98541058               52.05376147                0.82694787               -0.03319813                0.00782978                0.11119120                0.13327565               -0.01577812                0.01781815
               2.05018591                6.97985108               52.05440638                0.01000000               -0.53103213               -0.23036403                0.13367714                1.03941951                0.02231432               -0.02455024
               3.03993117                6.98110069               52.05586969                0.01000001               -0.82624965               -0.53306890                0.14824194                1.80240089                0.03271854               -0.07899013
               4.03366091                6.98539452               52.05756878                0.01021121               -0.66318406               -0.27557678                0.14927869                1.90707716                0.11171214               -0.12562383
               5.02666749                6.99288420               52.06010959                0.01003400               -0.66345275               -0.24112651                0.14554357                1.87112488                0.24228902               -0.08877859
               6.02039186                6.99991569               52.06350778                0.01000000               -0.56751786               -0.21989235                0.15267532                1.52268137                0.35104038                0.05323790
               7.01531713                7.00497552               52.06737278                0.01000000               -0.39433180               -0.30658698                0.15430468                1.04049574                0.37729446                0.23145183
               8.01250522                7.00702075               52.07118292                0.01000000               -0.17103946               -0.43811222                0.15315451                0.53969783                0.33447515                0.41432435
               9.01189634                7.00673937               52.07422630                0.01000002               -0.03908726               -0.42830291                0.14829539                0.19901667                0.20596324                0.52986669
              10.01172348                7.00506894               52.07555968                0.01000000               -0.01728689               -0.03032473                0.16530202                0.05105703                0.10818713                0.53927908
               0.05645775                7.99071440               52.05384838                1.00000000               -0.03056903               -0.02661123                0.08973177                0.00042039               -0.00332040                0.01690943
               1.05615206                7.98507326               52.05453281                0.99999999               -0.03401950               -0.03404539                0.11350249                0.00015608               -0.00395109                0.00364533
               2.05577736                7.97944125               52.05520553                0.23889931               -0.04123918               -0.04147904                0.13689404               -0.00063134                0.00175147               -0.00772086
               3.05532728                7.97380169               52.05601520                0.01000000               -0.52130539               -0.38898151                0.15945386                1.27023670                0.06489917               -0.06438505
               4.04535125                7.98378732               52.05796996                0.01055080               -0.92821182               -0.06600027                0.10958587                1.68153470                0.21664213               -0.25998501
               5.03676304                7.99125353               52.06117578                0.01000000               -0.88391964               -0.01777730                0.14165506                1.45595241                0.49402129               -0.26167982
               6.02767286                7.99899409               52.06544250                0.01000000               -0.85131895                0.04286912                0.14997760                1.08296800                0.55042168               -0.00936527
               7.01973666                8.00325831               52.07033271                0.01000000               -0.68894243               -0.01956533                0.15889439                0.48622600                0.57142283                0.17916193
               8.01389401                8.00376487               52.07579116                0.01000002               -0.42362579               -0.14500469                0.15248098               -0.09355273                0.52155477                0.38106882
               9.01126414                8.00300633               52.07997818                0.01000004               -0.18187459               -0.27882049                0.14691495               -0.47114549                0.33204664                0.78432379
              10.01025652                8.00511401               52.08199604                0.01000001               -0.10076262               -0.22707338                0.17295253               -0.34546302                0.20063424                0.70644564
               0.06214055                8.99044475               52.05469301                1.00000000               -0.03124675               -0.02731574                0.09201446                0.00050113                0.00284166                0.01688380
               1.06182809                8.98472967               52.05532973                0.99999999               -0.03478549               -0.03478249                0.11594443                0.00012400                0.00293604                0.00312076
               2.06144484                8.97902150               52.05596568                1.00000000               -0.04191282               -0.04218365                0.13997614                0.00002486               -0.00171780               -0.00604404
               3.06098983                8.97332106               52.05651691                0.02229328               -0.58025363               -0.04897455                0.16409170                0.82245246                0.12872390               -0.02607554
               4.04983977                8.98407451               52.05977943                0.01000000               -1.02050253                0.18741268                0.17478398                1.04630703                0.83618400               -0.59639316
               5.04057978                8.99252866               52.06242973                0.01000000               -0.98966706                0.22306601                0.10437515                0.83210459                0.73291443               -0.25283943
               6.03004643                9.00077307               52.06723869                0.01000000               -1.01544568                0.24238270                0.15532738                0.57300880                0.67032540               -0.01583006
               7.02027087                9.00458421               52.07282594                0.01000002               -0.95801369                0.19525763                0.16694332                0.13112721                0.67613207                0.10290313
               8.01088616                9.00412066               52.07935287                0.01000000               -0.95732835                0.18049546                0.17036639               -0.32071169                0.89608039                0.24668006
               9.00112430                9.00116296               52.08997880                1.00000000               -0.51436556               -0.11845712                0.17609081               -0.65520889                0.54082253                0.51029110
              10.00059884                9.00052747               52.08978084                0.99863770               -0.05254535               -0.25526767                0.17399692               -0.51467523               -0.00035774                0.39876784
               0.06789792                9.99016808               52.05545955                1.00000000               -0.03201323               -0.02766680                0.09446787               -0.00331026                0.01415583                0.01349351
               1.06757779                9.98437761               52.05609460                0.99966369               -0.03557281               -0.03520657                0.11848685               -0.00355473                0.01865870                0.00148365
               2.06718647                9.97859757               52.05681335                0.99616072               -0.04272400               -0.04239224                0.14258127               -0.00360784                0.01877226               -0.00222705
               3.06672331                9.97282220               52.05745479                0.99999995               -1.00583361               -0.04988607                0.16662117                1.02024846                0.38219887               -0.00538694
               4.04706980                9.98753558               52.06545676                0.01003509               -1.50083706                0.34610684                0.14183230                0.86763484                1.31995401               -0.64980067
               5.03670657                9.99571485               52.06494859                0.01000001               -0.99961582                0.31861893                0.14074357                0.42798728                0.48715127               -0.08247715
               6.02707748               10.00384174               52.06921217                0.01000000               -0.88474777                0.30686693                0.16932989                0.27553597                0.56407975                0.01606128
               7.01901162               10.00716347               52.07433523                0.01000001               -0.80882263                0.25792535                0.17582682                0.05072723                0.63641220                0.06174340
               8.01090103               10.00737478               52.08137163                0.01000000               -0.86292317                0.32541240                0.17920143               -0.32482711                0.77849874                0.17201910
               9.00175315               10.00063718               52.08978108                0.99866271               -0.48335168               -0.05257805                0.17420298               -0.30542089                0.43074036                0.00037069
              10.00123399               10.00000866               52.08958311                0.99548205               -0.05191589               -0.05188165                0.17210907                0.00066229                0.00035561               -0.00035538
              -0.02854958                0.00335500               53.04147859                0.99234249               -0.02305354               -0.02183102                0.07130746                0.00232444               -0.00835793                0.00802737
               0.97121988                0.00043772               53.04420421                1.00000000               -0.02468306               -0.02531392                0.08247021                0.00178995               -0.00894176               -0.00153511
               1.97095676               -0.00246733               53.04691744                0.01000001                0.01533774               -0.02879332                0.09360588                0.06933354               -0.05506305               -0.00361587
               2.97152664               -0.00400804               53.04871553                0.01000000               -0.00264607                0.02411743                0.06868044                0.20564485               -0.06128880                0.06475049
               3.97090384                0.00016552               53.05107120                0.01000000               -0.19504863                0.09549991                0.11514306                0.31034836               -0.10701429                0.02895462
               4.96762566                0.01041541               53.05227489                0.01000000               -0.68729683                0.12617048                0.08331174                0.78456705               -0.17273962                0.05583580
               5.95715790                0.03026517               53.05305937                0.01447271               -0.54691925               -0.02805494                0.08296520                0.87050961               -0.06498364               -0.00273548
               6.95668728                0.03292299               53.05596108                0.97253859               -0.03788193               -0.02922987                0.09255778                0.02031010                0.01781613               -0.00158261
               7.95640026                0.03522839               53.05853708                1.00000000               -0.02972851               -0.03141232                0.09950406                0.00109598                0.00222290               -0.00008258
               8.95609271                0.03756512               53.06112349                0.99980553               -0.03179159               -0.03346974                0.10641571                0.00112417                0.00240780                0.00117704
               9.95576443                0.03993475               53.06369710                1.00000000               -0.03282811               -0.03561266                0.11339518               -0.00048592                0.00221150                0.00334196
              -0.02560906                1.00313669               53.04187771                0.99999999               -0.02419935               -0.02233822                0.07499060                0.00065001                0.00143210                0.00851133
               0.97414894                1.00018459               53.04460478                0.01000000               -0.02589827               -0.02596244                0.08620817                0.00012585                0.00440469               -0.00457571
               1.97387297                0.99724474               53.04739311                0.01000000               -0.09411416               -0.06931521                0.09744769                0.02744834               -0.02936571               -0.00995188
               2.97226666                0.99623314               53.04944205                0.01000001               -0.35386876                0.03513350                0.11291793                0.25253570               -0.15416291                0.06994948
               3.96679560                1.00112052               53.05150824                0.01000000               -0.59225755                0.06618897                0.11865098                0.65693354               -0.13747694                0.04530630
               4.96042151                1.01167711               53.05265325                0.01000000               -0.60931968                0.02597458                0.09995011                1.22820692               -0.22215582                0.08076412
               5.95460920                1.02998462               53.05285841                0.01000001               -0.30063690               -0.43636309                0.09658312                1.14334549               -0.11056438                0.11062355
               6.95440877                1.03263069               53.05564328                0.94710570               -0.02595261               -0.03071795                0.10266674                0.01971453                0.01100868               -0.00165315
               7.95409015                1.03491427               53.05822219                0.99999999               -0.03290000               -0.03289550                0.10965996                0.00004920                0.00074798                0.00002492
               8.95375077                1.03723043               53.06080541                0.99999999               -0.03501029               -0.03499535                0.11667477                0.00005210                0.00056024                0.00161438
               9.95338995                1.03957862               53.06338142                1.00000000               -0.03608263               -0.03712145                0.12368916               -0.00153341                0.00027753                0.00486766
              -0.02263237                2.00290824               53.04228949                0.01040581               -0.02532799                0.07318779                0.07866876                0.10854463                0.00348864                0.08959195
               0.97711435                1.99991848               53.04494297                0.01000000               -0.09552283               -0.10089938                0.08991442                0.05399185                0.01024580                0.08465026
               1.97545717                1.99614637               53.04773594                0.01000001               -0.22063888               -0.13202394                0.20154985                0.21988044               -0.07111584                0.02695388
               2.97270157                1.99669463               53.05053176                0.01000000               -0.34293191               -0.05524880                0.12148692                0.62269507               -0.06224738                0.09475790
               3.96859853                2.00148930               53.05236642                0.01000000               -0.46879341               -0.06030828                0.12293121                1.16997707               -0.13279985                0.08540662
               4.96332570                2.01093490               53.05368406                0.01000001               -0.47636513               -0.20574367                0.11850699                1.57848298               -0.14595043                0.12160442
               5.95907123                2.02153791               53.05493366                0.01000000               -0.55868873               -0.61776447                0.11863448                1.67377140               -0.18290475                0.18566564
               6.95215193                2.03230863               53.05532551                0.01000000               -0.36348617               -0.34202210                0.11271963                0.99117729               -0.10970096                0.13582100
               7.95180151                2.03457048               53.05790824                0.25205846               -0.03612651               -0.03584331                0.11979605               -0.00004215               -0.00062617                0.00846266
               8.95142940                2.03686522               53.06049197                0.99740219               -0.03820672               -0.03804285                0.12702545                0.00003098               -0.00045384                0.00092365
               9.95103737                2.03919232               53.06308809                0.99999999               -0.03920251               -0.04024154                0.13411753               -0.00155036               -0.00015876                0.00499291
              -0.01745865                3.00460045               53.04431557                0.01014836               -0.05507045                0.13376159                0.07479368                0.11059604               -0.01394336                0.16234531
               0.98199065                2.99816660               53.04712857                0.01000001               -0.05234638               -0.22447348                0.09303950                0.26950656               -0.02404580                0.23305365
               1.98149442                2.99460426               53.04969369                0.01000000               -0.13065081               -0.24757614                0.10603996                0.68724073               -0.05762577                0.17424262
               2.97937763                2.99512816               53.05188159                0.01000000               -0.27697746               -0.22948944                0.13048851                1.15424488               -0.10524633                0.12174004
               3.97595487                2.99991436               53.05371994                0.01025692               -0.37175345               -0.24183908                0.12863712                1.55516403               -0.11406339                0.11879848
               4.97194256                3.00756224               53.05526730                0.01000000               -0.46219868               -0.34720892                0.13107141                1.89180061               -0.12634011                0.13940964
               5.96671090                3.01762933               53.05652485                0.01000001               -0.53714059               -0.43762530                0.13173290                1.93402972               -0.12982436                0.17481553
               6.96119975                3.02579025               53.05776461                0.01000001               -0.85890902               -0.53664344                0.13394199                1.99104406               -0.18843944                0.25098108
               7.94953272                3.03419740               53.05776676                0.01000000               -0.60350981               -0.38928235                0.13149806                1.62288656               -0.14099583                0.22909838
               8.94912955                3.03646957               53.06016287                0.01000000               -0.04139922               -0.49319905                0.13752899                1.25308493               -0.01166658                0.19153709
               9.94870474                3.03877379               53.06277205                0.99639202               -0.04248172               -1.04398526                0.14460676                1.44685251               -0.00169943                0.16058532
              -0.00755276                4.00558347               53.04645533                0.01000000                0.00534170               -0.02478261                0.08746407                0.29825555               -0.03044095                0.20898807
               0.99250066                3.99542901               53.04943346                0.01000000               -0.01034116               -0.39830847                0.10721875                0.66602224               -0.07505173                0.27453363
               1.99224042                3.99119485               53.05177875                0.01000000               -0.10121440               -0.39499366                0.12210479                1.18916200               -0.12459241                0.21741153
               2.99047637                3.99210484               53.05362541                0.01025295               -0.24863420               -0.34189368                0.12956023                1.54834220               -0.13094374                0.14490442
               3.98726774                3.99665252               53.05530705                0.01000000               -0.35148184               -0.37301879                0.13687942                1.87154426               -0.10888494                0.11572600
               4.98344674                4.00399072               53.05695251                0.01000001               -0.38719613               -0.40180621                0.14012412                2.09316241               -0.08344650                0.13347778
               5.97952381                4.01278541               53.05858646                0.01000001               -0.40209971               -0.49868630                0.14263022                2.24718009               -0.06948938                0.18838414
               6.97540474                4.02157576               53.06012293                0.01023346               -0.29719498               -0.54129399                0.14497505                2.21220006               -0.05088789                0.25485141
               7.97357992                4.02678483               53.06188119                0.01059540               -0.17450183               -0.71898280                0.15067345                2.28913957               -0.02909173                0.37269643
               8.97191471                4.02700124               53.06367338                0.01000000                0.08930333               -0.90448539                0.15939781                1.66426614               -0.01901914                0.35605111
               9.97536598                4.01831261               53.06559606                0.01000001                0.34512758               -1.49181500                0.17280016                1.32241566               -0.00857839                0.30329581
               0.00881539                5.00410479               53.04852690                0.01000000                0.08843256               -0.56919480                0.09473302                0.84454074               -0.09757023                0.26521639
               1.00969971                4.99020043               53.05192820                0.01000000               -0.01067803               -0.56185748                0.12612873                1.33761287               -0.19096909                0.36380972
               2.00860183                4.98670439               53.05384564                0.01000001               -0.24064551               -0.38016491                0.12995509                1.64851037               -0.23307606                0.22109557
               3.00488680                4.98829029               53.05533130                0.01000000               -0.35509701               -0.43266912                0.13873982                1.88610366               -0.15328167                0.10044814
               4.00149988                4.99245398               53.05692035                0.01000001               -0.36069376               -0.42907478                0.14516371                2.05461747               -0.07796197                0.07606917
               4.99767293                4.99952611               53.05874688                0.01000001               -0.37152113               -0.45781003                0.15012758                2.21087061               -0.01710013                0.10364767
               5.99406946                5.00765561               53.06079574                0.01017022               -0.31143011               -0.51669990                0.15247465                2.20615556                0.02428401                0.17049776
               6.99144432                5.01496437               53.06291689                0.01005493               -0.20897130               -0.63374864                0.15427804                2.09346207                0.04106589                0.26345194
               7.98989004                5.01981774               53.06500083                0.01000000               -0.02786136               -0.71928262                0.15724908                1.69172693                0.04481708                0.34314423
               8.99088710                5.01837986               53.06710876                0.01000000                0.13201296               -0.77418912                0.16814752                1.08336357                0.03736556                0.37215105
               9.99253030                5.00893749               53.06897805                0.01000000                0.16431992               -0.64724112                0.18805946                0.53609792                0.02823973                0.32693432
               0.03714679                5.99419957               53.05044503                0.01202707               -0.04934671               -0.68912549               -0.00175018                1.05392583               -0.49373171                0.69203186
               1.03665332                5.98419186               53.05432840                0.01000001               -0.50130106               -0.27730037                0.12571420                1.46505324               -0.54702345                0.28447287
               2.02712077                5.98359155               53.05575901                0.01000000               -0.71022337               -0.38566826                0.14088615                1.99466800               -0.27660511                0.03428862
               3.02244886                5.98345146               53.05666173                0.01000001               -0.49982536               -0.42678044                0.14606191                1.90234089               -0.12797679                0.00623869
               4.01712426                5.98807103               53.05827114                0.01000001               -0.49931666               -0.45321674                0.15625221                2.12421509               -0.01020424               -0.00373983
               5.01246252                5.99483452               53.06042675                0.01017009               -0.44577947               -0.44347898                0.16240768                2.13463402                0.08185403                0.03254080
               6.00820867                6.00245141               53.06300342                0.01004127               -0.36753368               -0.46833139                0.16441930                2.01226901                0.14654300                0.12986896
               7.00511185                6.00890079               53.06585263                0.01000000               -0.21048564               -0.53811696                0.16254192                1.68350796                0.17705853                0.25890697
               8.00399896                6.01239918               53.06871409                0.01000000               -0.03248082               -0.65286029                0.16357512                1.25075829                0.16232039                0.37617782
               9.00446223                6.01151745               53.07115269                0.01000000                0.04868626               -0.58714315                0.17145154                0.68311309                0.09892482                0.42822916
              10.00497268                6.00536779               53.07274824                0.01000000                0.05104525               -0.20966629                0.19207700                0.32202653                0.05209194                0.38053642
               0.04990933                6.99032228               53.05394765                0.93933806               -0.03005345               -0.20691033                0.08725956                0.35690443               -0.01346206                0.14839535
               1.04960880                6.98465442               53.05488168                0.80173784               -0.03368767                0.00605188                0.11288471                0.36649440               -0.01654570               -0.00933890
               2.04923558                6.97899102               53.05575914                0.01000000               -0.55773276               -0.25098360                0.13688099                1.14568237                0.01761993               -0.04547463
               3.03845414                6.97975468               53.05739109                0.01000001               -0.83172245               -0.53145636                0.15404119                1.82115888                0.01597376               -0.07875317
               4.03260113                6.98338965               53.05920862                0.01022917               -0.62344590               -0.44559574                0.17179584                1.90141292                0.09005529               -0.12589792
               5.02598522                6.99065653               53.06175183                0.01005659               -0.61762781               -0.41433240                0.18294807                2.04657473                0.21739436               -0.07630405
               6.02024857                6.99828898               53.06516361                0.01000000               -0.54092575               -0.27738865                0.17740603                1.70328078                0.32361875                0.06382622
               7.01516671                7.00420203               53.06901228                0.01000000               -0.39800191               -0.33111990                0.17323959                1.17921864                0.34604494                0.23900712
               8.01228854                7.00676054               53.07279304                0.01000003               -0.17929809               -0.44912854                0.16945587                0.62850583                0.30234425                0.41296521
               9.01158075                7.00663700               53.07586040                0.01000002               -0.05091919               -0.42599127                0.17186657                0.24282188                0.18113585                0.51367729
              10.01127015                7.00474416               53.07738090                0.01000000               -0.03105960               -0.01834969                0.19062818                0.06836608                0.09250178                0.51733322
               0.05562060                7.99006137               53.05474194                1.00000000               -0.03061342               -0.02635552                0.08897342                0.00031721               -0.00345939                0.01665154
               1.05531447                7.98431289               53.05567291                0.99999999               -0.03432235               -0.03435679                0.11452930                0.00016187               -0.00429424                0.00347785
               2.05493416                7.97857188               53.05658812                0.25104549               -0.04205296               -0.04233099                0.13965632               -0.00058425                0.00054988               -0.00703132
               3.05447341                7.97282234               53.05762719                0.01000000               -0.53417459               -0.37136497                0.16383751                1.11917713                0.04625600               -0.05966773
               4.04425067                7.97915911               53.05947866                0.01060245               -0.79893642               -0.79087323                0.22136891                2.10113653                0.20174264               -0.21114474
               5.03849468                7.98654787               53.06294772                0.01000000               -0.77609360               -0.15180558                0.20169259                1.88260297                0.47093724               -0.25153398
               6.02872879                7.99690363               53.06717019                0.01000000               -0.91350095                0.01681688                0.19587210                1.35651056                0.51806723                0.00665205
               7.02022466                8.00227839               53.07205295                0.01000003               -0.72973442               -0.03180244                0.18552146                0.61599166                0.54116119                0.19145870
               8.01413411                8.00341661               53.07745782                0.01000002               -0.44448098               -0.14947444                0.17650232               -0.01673849                0.48875842                0.38787973
               9.01133504                8.00299763               53.08165337                0.01000002               -0.20042149               -0.26315622                0.17414711               -0.43337955                0.31387646                0.79357890
              10.01012568                8.00500080               53.08381564                0.01000001               -0.12093685               -0.20065705                0.18659876               -0.32300844                0.19464222                0.69162602
               0.06141262                8.98979517               53.05560642                0.99990171               -0.03110962               -0.02687976                0.09063695                0.00041638                0.00282179                0.01669170
               1.06110152                8.98396729               53.05649120                0.99999999               -0.03490830               -0.03490078                0.11634881                0.00013251                0.00297336                0.00308131
               2.06071445                8.97814440               53.05737613                1.00000000               -0.04255353               -0.04285515                0.14214427                0.00002952               -0.00160906               -0.00573600
               3.06025045                8.97232738               53.05817711                0.07274508                0.00919361               -0.05025834                0.16800925                0.05293184                0.16187399               -0.02491370
               4.06089833                8.96757218               53.06235047                0.01000000               -0.71788458               -0.61077799                0.16709396                1.86362595                0.74640233               -0.69567768
               5.04589276                8.98762042               53.06399587                0.01000000               -1.46250292                0.32930253                0.23969514                1.65909760                0.64642871               -0.21760857
               6.03164827                8.99862532               53.06910047                0.01000000               -1.24595965                0.24956781                0.20727403                0.76961310                0.64928752               -0.00791368
               7.02097357                9.00356598               53.07462943                0.01000002               -1.02068698                0.19808586                0.19394310                0.21060543                0.65123684                0.11318984
               8.01123453                9.00377105               53.08114506                0.01000000               -0.98222989                0.18154241                0.18602657               -0.26878714                0.88189647                0.25709802
               9.00132897                9.00137387               53.09173955                1.00000000               -0.52154405               -0.10747931                0.17606651               -0.62049006                0.54029936                0.51549628
              10.00080365                9.00073102               53.09152055                0.99891530               -0.05253237               -0.23942719                0.17394320               -0.49827018               -0.00036257                0.39569178
               0.06728471                9.98952377               53.05639453                1.00000000               -0.03168195               -0.02714034                0.09248111               -0.00368020                0.01421179                0.01341444
               1.06696789                9.98361488               53.05727861                0.99941908               -0.03550278               -0.03524067                0.11829349               -0.00381312                0.01879608                0.00150527
               2.06657465                9.97771477               53.05824721                0.99999999               -0.04318093               -0.04296298                0.14418462               -0.00386548                0.01897646               -0.00217022
               3.06610427                9.97181717               53.05913809                0.99999999               -0.01722552               -0.05102115                0.17004944                0.04682066                0.20926244               -0.00549728
               4.06623014                9.96694355               53.06392661                0.01000000               -1.27403862               -0.06286309               -0.04640546                1.59901940                1.27560973               -0.95634133
               5.04062350                9.99313392               53.06710481                0.01000001               -1.90273221                0.55134993                0.22278179                1.22064575                0.58286904               -0.02700783
               6.02817550               10.00189499               53.07099952                0.01000000               -1.06662288                0.32696724                0.19551729                0.30803242                0.51883692                0.01034921
               7.01929104               10.00624011               53.07619367                0.01000001               -0.86125155                0.26741271                0.19225218                0.08937066                0.62039491                0.06736700
               8.01095047               10.00704746               53.08320724                0.01000000               -0.86628857                0.32764080                0.18708468               -0.29800920                0.76616977                0.17442961
               9.00196527               10.00084804               53.09152337                0.99893922               -0.47522465               -0.05258324                0.17425870               -0.27813029                0.42712793                0.00037164
              10.00144597               10.00021225               53.09130436                0.99555786               -0.05192950               -0.05187702                0.17213538                0.00065393                0.00035776               -0.00035748
              -0.03141488                0.00301753               54.04219298                0.99317923               -0.02301266               -0.02197505                0.07155673                0.00225263               -0.00838833                0.00799792
               0.96835499                0.00000303               54.04502662                1.00000000               -0.02453704               -0.02522041                0.08198864                0.00165097               -0.00896919               -0.00154895
               1.96809437               -0.00299821               54.04784773                0.01000000                0.01053062               -0.02845415                0.09240906                0.10755464               -0.03003116               -0.00362030
               2.96856560               -0.00386707               54.05025491                0.01000005               -0.01891329               -0.00378208                0.19112358                0.04517474               -0.09000205               -0.02229634
               3.96771611               -0.00001480               54.05204240                0.01000000               -0.19217460                0.07851988                0.09149293                0.31862775               -0.12980091                0.00126598
               4.96472211                0.01069927               54.05298903                0.01070998               -0.65336600                0.11807108                0.08478264                0.77289438               -0.18080598                0.07347922
               5.95464879                0.03036129               54.05388952                0.01000000               -0.53153450               -0.02823767                0.08338921                0.85542756               -0.05788203               -0.00382011
               6.95409142                0.03317451               54.05688523                0.97212115               -0.04214049               -0.02929709                0.09227185                0.02759331                0.01908786               -0.00158422
               7.95380598                0.03549151               54.05952831                1.00000000               -0.02950854               -0.03135300                0.09877973                0.00101867                0.00209702               -0.00006981
               8.95350125                0.03784348               54.06218159                1.00000000               -0.03142981               -0.03328278                0.10519896                0.00105563                0.00223877                0.00111690
               9.95317738                0.04023168               54.06482274                1.00000000               -0.03238655               -0.03520336                0.11167569               -0.00075600                0.00204177                0.00305441
              -0.02837786                1.00279778               54.04263100                1.00000000               -0.02427780               -0.02254784                0.07564817                0.00069131                0.00143774                0.00848938
               0.97137937                0.99975082               54.04546635                0.01000000               -0.02585864               -0.02591439                0.08609221                0.00010259                0.00441653               -0.00458771
               1.97110497                0.99671725               54.04836279                0.01000000               -0.19268609               -0.04453738                0.09652303                0.04523757               -0.00737282                0.01494918
               2.96752565                0.99609511               54.05095936                0.01000001               -0.37428786                0.00371599                0.15623368                0.27867941               -0.05045376               -0.01896807
               3.96361921                1.00077040               54.05252901                0.01000000               -0.51313178                0.05862745                0.10283598                0.68490165               -0.15088819                0.03543569
               4.95726301                1.01187998               54.05363819                0.01000000               -0.58268858                0.00562508                0.10477346                1.25715129               -0.23635998                0.09713372
               5.95196544                1.03007891               54.05383462                0.01000001               -0.27303848               -0.44299793                0.09809090                1.13644391               -0.11621027                0.11295594
               6.95180224                1.03288154               54.05667371                0.94130843               -0.02418801               -0.03093001                0.10338284                0.02705355                0.01044372               -0.00164149
               7.95148168                1.03517798               54.05932040                0.99999999               -0.03302581               -0.03297701                0.11001165                0.00003225                0.00082711               -0.00000234
               8.95114172                1.03751065               54.06197143                0.99999999               -0.03500287               -0.03498267                0.11660504                0.00000358                0.00057227                0.00166383
               9.95078163                1.03987964               54.06461506                0.99999995               -0.03600981               -0.03682516                0.12302758               -0.00173984                0.00027174                0.00478322
              -0.02530715                2.00256657               54.04308166                0.01000001               -0.02552867                0.05569252                0.07974115                0.07894615                0.00348494                0.08497606
               0.97443757                1.99948474               54.04584340                0.01000000               -0.10190052               -0.06140712                0.09018112                0.05731358                0.03515595                0.07797977
               1.97265484                1.99611105               54.04924262                0.01000001               -0.21757632               -0.11151742                0.12991719                0.20075543                0.02107467                0.08732872
               2.97008604                1.99620725               54.05174996                0.01000000               -0.35127888               -0.06081678                0.11435942                0.69070282               -0.07078799                0.05624692
               3.96562927                2.00115775               54.05357149                0.01000000               -0.47647091               -0.05807519                0.11911305                1.20294338               -0.13387266                0.08979644
               4.96055662                2.01081177               54.05486681                0.01000001               -0.46265802               -0.22950431                0.11872387                1.61451032               -0.15010629                0.12635350
               5.95637611                2.02150133               54.05611646                0.01000000               -0.55116024               -0.62826682                0.11802969                1.69426599               -0.19210265                0.19136509
               6.94953342                2.03255591               54.05646159                0.01000000               -0.35992955               -0.35125484                0.11442339                1.00850836               -0.11512382                0.14118586
               7.94917752                2.03483197               54.05911290                0.26443440               -0.03668785               -0.03643445                0.12121988               -0.00028550               -0.00018222                0.00968250
               8.94879966                2.03714383               54.06176849                0.99999997               -0.03864560               -0.03842424                0.12811649               -0.00028091               -0.00017066                0.00124917
               9.94840460                2.03949517               54.06443388                0.99999999               -0.03950583               -0.04022056                0.13444822               -0.00181920                0.00003424                0.00526755
              -0.02063526                3.00391163               54.04505478                0.01000000               -0.03835702                0.15356097                0.03898435                0.17839944               -0.02293600                0.12973653
               0.97898117                2.99852268               54.04793453                0.01000001               -0.04835806               -0.18029327                0.07190619                0.25327090               -0.01808184                0.21697726
               1.97839757                2.99448691               54.05079004                0.01000000               -0.13440839               -0.23500101                0.10780924                0.62350453               -0.05324967                0.16845522
               2.97629300                2.99487877               54.05312499                0.01000000               -0.26620087               -0.21657385                0.11708536                1.11493518               -0.09574865                0.12619950
               3.97307356                2.99960890               54.05497079                0.01026075               -0.35416805               -0.24727907                0.12202383                1.56019689               -0.11940985                0.11831856
               4.96920964                3.00728989               54.05656352                0.01000000               -0.44834674               -0.36189835                0.12758551                1.91156002               -0.13370064                0.14324497
               5.96410662                3.01751358               54.05783944                0.01000001               -0.52839364               -0.44944617                0.13020541                1.96723600               -0.13856524                0.17902822
               6.95864176                3.02585645               54.05911294                0.01000001               -0.86092808               -0.55207392                0.13538892                2.02829074               -0.19734068                0.25772222
               7.94688806                3.03444929               54.05910260                0.01000000               -0.60844285               -0.39912871                0.13817571                1.65702401               -0.14598893                0.23458448
               8.94647291                3.03674217               54.06155396                0.01000000               -0.04227569               -0.50495851                0.13989199                1.28083522               -0.01266669                0.19779315
               9.94604255                3.03907523               54.06423126                0.99999997               -0.04303601               -1.06381141                0.14596229                1.47680398               -0.00173777                0.17125265
              -0.01096126                4.00563779               54.04731579                0.01000000               -0.01110299                0.06181611                0.09018453                0.28357057               -0.01847796                0.21752551
               0.98892771                3.99587888               54.05042994                0.01000000               -0.01349478               -0.32295540                0.09069520                0.58098940               -0.07602894                0.27795672
               1.98876885                3.99141103               54.05286437                0.01000000               -0.08324796               -0.36596701                0.09819966                1.08667391               -0.12539745                0.21998218
               2.98726275                3.99187577               54.05485163                0.01025615               -0.21733832               -0.35467591                0.11619827                1.50832894               -0.13135691                0.14789260
               3.98442208                3.99621217               54.05663836                0.01000000               -0.31898039               -0.39287420                0.12866885                1.87565745               -0.11334514                0.12375298
               4.98088315                4.00357380               54.05833850                0.01000001               -0.36339020               -0.42255206                0.13617490                2.12712255               -0.09508478                0.14215177
               5.97715428                4.01251241               54.06001071                0.01000001               -0.38598152               -0.51768926                0.14038520                2.29702893               -0.08467621                0.19671466
               6.97316351                4.02151443               54.06157885                0.01025297               -0.28610006               -0.55658356                0.14355405                2.26625024               -0.06549507                0.25980500
               7.97143227                4.02684940               54.06340295                0.01064939               -0.16865424               -0.73218311                0.15172591                2.33800465               -0.03930385                0.37686698
               8.96979043                4.02704466               54.06529463                0.01000000                0.09211390               -0.92086904                0.16445171                1.70238848               -0.02375296                0.36421219
               9.97327455                4.01821894               54.06736938                0.01002827                0.34841229               -1.52330079                0.18374719                1.35659327               -0.01192755                0.32407931
               0.00455398                5.00514795               54.04954248                0.01000000                0.02737355               -0.24238566                0.08453308                0.49569617               -0.08566717                0.23967407
               1.00482772                4.99206357               54.05292812                0.01000000               -0.02099132               -0.41131165                0.07330000                0.95990503               -0.18905919                0.36924267
               2.00413416                4.98716756               54.05497136                0.01000001               -0.15846431               -0.42951143                0.09582897                1.48832390               -0.22909743                0.21959131
               3.00165843                4.98778525               54.05661621                0.01000000               -0.26227437               -0.46738618                0.11913395                1.85360632               -0.15057465                0.11006985
               3.99888867                4.99175141               54.05834154                0.01000001               -0.31032918               -0.46381878                0.13846076                2.08278201               -0.08418651                0.09337802
               4.99545185                4.99883885               54.06025365                0.01000001               -0.33910498               -0.49259407                0.14904201                2.26458772               -0.03261643                0.12435957
               5.99210657                5.00715979               54.06233537                0.01018744               -0.29110371               -0.54454827                0.15298889                2.27735826                0.00083677                0.18980356
               6.98962978                5.01472477               54.06447532                0.01007650               -0.19943193               -0.65208115                0.15394428                2.16723150                0.01482731                0.27632474
               7.98811793                5.01980563               54.06659046                0.01000000               -0.02393222               -0.72954680                0.15681549                1.74889950                0.02352013                0.34809402
               8.98915113                5.01832479               54.06882245                0.01000000                0.13539503               -0.78296626                0.17257456                1.11447538                0.02661905                0.37456247
               9.99082583                5.00860922               54.07091998                0.01000000                0.16747016               -0.66452806                0.20031777                0.55197889                0.02352733                0.33610241
               0.02512142                6.00079008               54.05034308                0.01000000                0.09847768               -0.77499882                0.08326728                0.89418531               -0.36337817                0.65095790
               1.02610620                5.98765264               54.05520360                0.01000001               -0.11538892               -0.40921396                0.04573155                1.28062047               -0.42139332                0.35582734
               2.02281365                5.98282080               54.05681890                0.01000000               -0.31775853               -0.45275446                0.08470620                1.93850672               -0.24436117                0.04322877
               3.01975103                5.98252805               54.05805973                0.01000001               -0.38947639               -0.46125424                0.13308241                1.96288652               -0.11684671                0.02754751
               4.01502412                5.98693579               54.05985432                0.01000001               -0.44922545               -0.50411874                0.15607006                2.17032455               -0.01637421                0.03038815
               5.01076652                5.99372192               54.06210267                0.01018455               -0.41042988               -0.50008512                0.16905810                2.21470907                0.05935222                0.07844523
               6.00681552                6.00162144               54.06470760                0.01006171               -0.34521094               -0.50671748                0.17121743                2.11240500                0.11269981                0.16622044
               7.00386230                6.00847281               54.06752254                0.01000000               -0.20026338               -0.55847158                0.16774085                1.78079242                0.13809029                0.28448820
               8.00281025                6.01225846               54.07039160                0.01000000               -0.02929740               -0.66346490                0.16785050                1.32492849                0.12995588                0.39029106
               9.00327636                6.01138533               54.07292604                0.01000003                0.04675087               -0.59062705                0.17927784                0.72249972                0.07960485                0.43075932
              10.00374527                6.00492838               54.07475563                0.01000000                0.04689157               -0.21305062                0.20703700                0.33963919                0.04202517                0.37912171
               0.04871257                6.98964798               54.05481973                0.94107271               -0.03031563               -0.57007110                0.08717827                0.89339191               -0.01344177                0.19616859
               1.04840941                6.98387929               54.05601916                0.77485915               -0.03418394               -0.20596751                0.11463319                0.82891439               -0.01743434                0.00287996
               2.04802889                6.97811248               54.05714400                0.01000000               -0.58041213               -0.25685858                0.14003290                1.28506494                0.01221028               -0.02941996
               3.03680117                6.97856017               54.05895052                0.01000001               -0.84638023               -0.53528607                0.15357433                1.85836952                0.02095726               -0.04899263
               4.03110128                6.98166904               54.06100470                0.01024529               -0.58703922               -0.52566059                0.18429744                1.96592211                0.08217041               -0.01951187
               5.02506038                6.98883715               54.06376855                0.01007919               -0.57487505               -0.48715601                0.19975492                2.15400699                0.18446210                0.00907779
               6.01960378                6.99702544               54.06705590                0.01000000               -0.52258909               -0.32155881                0.19331068                1.84158192                0.26095333                0.13070148
               7.01460860                7.00355534               54.07083757                0.01000000               -0.39498998               -0.35012383                0.18552823                1.29604222                0.29386469                0.27693588
               8.01170398                7.00653633               54.07457203                0.01002587               -0.18386980               -0.45440083                0.18159370                0.71077063                0.26003664                0.43259266
               9.01093121                7.00651224               54.07766363                0.01000002               -0.05857368               -0.41932905                0.18291395                0.28596824                0.15559482                0.51839117
              10.01053251                7.00434820               54.07937224                0.01000000               -0.03986961               -0.00607535                0.20296148                0.08757351                0.07970855                0.50867136
               0.05452663                7.98938866               54.05562785                1.00000000               -0.03066373               -0.02609940                0.08821670                0.00020607               -0.00358754                0.01637619
               1.05421999                7.98353329               54.05682340                0.99999999               -0.03462777               -0.03468484                0.11559152                0.00016978               -0.00465399                0.00330339
               2.05383407                7.97768363               54.05799866                0.26206712               -0.04290660               -0.04323913                0.14248626               -0.00065496               -0.00032734               -0.00617366
               3.05336186                7.97182232               54.05929195                0.01000000               -0.48842479               -0.36241371                0.17025311                1.05953819                0.09485876               -0.05420790
               4.04406558                7.97642258               54.06239734                0.01065607               -0.74357998               -0.79780144                0.24132711                2.00021235                0.21867944               -0.08190912
               5.03849026                7.98397880               54.06520964                0.01000000               -0.75683041               -0.24088801                0.22875067                2.02328221                0.29919038               -0.02496233
               6.02892897                7.99519027               54.06935994                0.01000000               -0.91090023               -0.01199903                0.21885010                1.51431851                0.41588181                0.08270813
               7.02027225                8.00147033               54.07404313                0.01002657               -0.74301023               -0.04240239                0.20482560                0.73112950                0.47174121                0.23106733
               8.01406876                8.00317045               54.07932120                0.01000002               -0.45442013               -0.15115706                0.18973347                0.06191966                0.44539074                0.41180210
               9.01118385                8.00299875               54.08346112                0.01000002               -0.21219700               -0.24546802                0.18210904               -0.38699903                0.29224132                0.79767563
              10.00982482                8.00480688               54.08572802                0.01000001               -0.13590278               -0.16978091                0.19349478               -0.29433318                0.18674992                0.67311984
               0.06042742                8.98912599               54.05650575                1.00000000               -0.03095842               -0.02642589                0.08919087                0.00033005                0.00278416                0.01647495
               1.06011784                8.98318560               54.05765670                0.99999999               -0.03503327               -0.03501952                0.11674511                0.00013772                0.00298579                0.00305891
               2.05972676                8.97724769               54.05880856                1.00000000               -0.04324306               -0.04358018                0.14438080               -0.00006286               -0.00153577               -0.00539871
               3.05925298                8.97131189               54.05987709                0.09120375               -0.03888522               -0.05160129                0.17212082                0.01663096                0.10205291               -0.02417449
               4.05894905                8.96571301               54.06312131                0.01000000               -0.62473159               -0.55830567                0.14117640                1.66285917                0.20117153               -0.04426228
               5.04675835                8.98401939               54.06722364                0.01000000               -1.32752152                0.24890015                0.26456461                1.69366148                0.39567372               -0.04532535
               6.03239862                8.99678546               54.07138417                0.01000003               -1.27536673                0.25301808                0.23043575                0.90621486                0.48613066                0.03985419
               7.02125101                9.00270729               54.07670480                0.01000002               -1.04923297                0.19559962                0.21105198                0.28336357                0.58400015                0.13774258
               8.01141396                9.00351319               54.08307340                0.01000001               -0.98481071                0.17842863                0.19547882               -0.21392280                0.84723505                0.27290477
               9.00155480                9.00160288               54.09350013                1.00000000               -0.51921855               -0.09608882                0.17605354               -0.57729353                0.53297829                0.51402574
              10.00102959                9.00095258               54.09325971                0.99920788               -0.05252049               -0.21864943                0.17388475               -0.47231259               -0.00036739                0.38791038
               0.06641401                9.98886014               54.05730917                1.00000000               -0.03129706               -0.02658482                0.09035545               -0.00406504                0.01420916                0.01331021
               1.06610104                9.98283290               54.05846047                0.99999999               -0.03537457               -0.03526963                0.11802083               -0.00408562                0.01889754                0.00154537
               2.06570652                9.97681202               54.05969705                1.00000000               -0.04359398               -0.04356696                0.14574136               -0.00415384                0.01922687               -0.00209487
               3.06522916                9.97079030               54.06085578                0.99999997               -0.05456290               -0.05215941                0.17347839                0.01984068                0.14041894               -0.00566783
               4.06461526                9.96525647               54.06452865                0.01043174               -1.19690619               -0.04565405                0.12642463                1.47494629                0.29620403               -0.02977337
               5.04129104                9.98895681               54.06940423                0.01000001               -1.81249497                0.49374151                0.18298253                1.20297709                0.39902493               -0.06484925
               6.02836536               10.00025063               54.07312252                0.01000000               -1.10396221                0.34651664                0.20453296                0.41795007                0.40700804                0.02918091
               7.01921179               10.00538233               54.07818027                0.01000001               -0.87353220                0.26750328                0.19833202                0.12049786                0.57294962                0.07363120
               8.01089472               10.00673902               54.08511333                0.01000000               -0.85066016                0.32258264                0.19245167               -0.26719217                0.74232515                0.17698719
               9.00219859               10.00107697               54.09326625                0.99923379               -0.46077740               -0.05259114                0.17431913               -0.25087727                0.42003981                0.00037278
              10.00167917               10.00043389               54.09302582                0.99564391               -0.05194195               -0.05186969                0.17215034                0.00064940                0.00035987               -0.00035971
              -0.03438461                0.00263893               55.04290972                0.99410449               -0.02296325               -0.02211266                0.07178550                0.00219463               -0.00838636                0.00797887
               0.96538576               -0.00047273               55.04584398                0.99998817               -0.02437733               -0.02512262                0.08147422                0.00153387               -0.00896750               -0.00156016
               1.96512784               -0.00356986               55.04876562                0.01824454                0.00730866               -0.02813142                0.09115855                0.04096055                0.03321305               -0.00360978
               2.96553193               -0.00586286               55.05253800                0.01000000                0.02229282                0.02215828                0.10406521                0.29531649               -0.09932942               -0.11336438
               3.96557370               -0.00078239               55.05290106                0.01000000               -0.16847532                0.10825361                0.11301693                0.37500708               -0.14905849               -0.00735579
               4.96216242                0.01058667               55.05397055                0.01037065               -0.67348193                0.11553331                0.09884525                0.77667554               -0.14713516                0.03340261
               5.95210406                0.03029856               55.05472715                0.01000000               -0.53660880               -0.02817625                0.08353389                0.85092442               -0.06563439               -0.00460403
               6.95143025                0.03331433               55.05780651                0.97168597               -0.04791108               -0.02928373                0.09206444                0.03737423                0.02019279               -0.00172150
               7.95114584                0.03564280               55.06051267                1.00000000               -0.02935945               -0.03131784                0.09807424                0.00098587                0.00201784               -0.00011792
               8.95084306                0.03800778               55.06322747                0.99998036               -0.03114342               -0.03309763                0.10407690                0.00086928                0.00198255                0.00114107
               9.95052297                0.04041119               55.06593061                1.00000000               -0.03200880               -0.03480458                0.11012817               -0.00114405                0.00168376                0.00264229
              -0.03125101                1.00241780               55.04339068                1.00000000               -0.02435029               -0.02274736                0.07627799                0.00074765                0.00143611                0.00847748
               0.96850549                0.99927605               55.04632662                0.01000000               -0.02582378               -0.02586881                0.08596508                0.00008901                0.00441153               -0.00459488
               1.96823251                0.99614883               55.04932357                0.01000000               -0.07070615               -0.04822248                0.09564280               -0.00365297                0.01991259                0.01936054
               2.96709136                0.99435872               55.05256673                0.01000001               -0.35667549                0.07583983                0.09442197                0.27881639                0.03788516               -0.09047248
               3.96109900                1.00030014               55.05356496                0.01000000               -0.63513309                0.08129222                0.11643869                0.73069083               -0.13482450                0.03192101
               4.95438870                1.01174201               55.05474872                0.01000000               -0.59247647               -0.00250192                0.11284223                1.26664177               -0.19517219                0.06179997
               5.94924947                1.03001680               55.05482023                0.01000001               -0.26284170               -0.44690830                0.09982451                1.14049122               -0.12632494                0.11367654
               6.94913187                1.03302150               55.05771094                0.93421803               -0.02202497               -0.03106065                0.10394586                0.03677963                0.01002742               -0.00183704
               7.94880897                1.03532963               55.06042242                0.99999999               -0.03321536               -0.03304364                0.11036671                0.00002146                0.00106878                0.00017821
               8.94846756                1.03767680               55.06313751                0.99999999               -0.03504266               -0.03500504                0.11651329               -0.00022695                0.00063150                0.00182131
               9.94810812                1.04006314               55.06584197                0.99980546               -0.03594386               -0.03648553                0.12227670               -0.00215085                0.00018444                0.00412680
              -0.02808615                2.00218398               55.04388431                0.01000001               -0.02573427                0.02716211                0.08077693                0.06129890                0.00348950                0.04472057
               0.97165651                1.99900990               55.04674660                0.01000000               -0.09708720               -0.06782215                0.09046694                0.03349885                0.03955604                0.06226598
               1.96997210                1.99546570               55.05033429                0.01000001               -0.23497809               -0.08986052                0.09932273                0.18252478                0.02305157                0.07043396
               2.96695694                1.99565394               55.05281895                0.01000000               -0.35839359                0.00958795                0.10267965                0.57841483               -0.07628784                0.03116213
               3.96280423                2.00084345               55.05474868                0.01000000               -0.45891708               -0.05431442                0.11302319                1.19559202               -0.12075519                0.08524732
               4.95777860                2.01053663               55.05605854                0.01000001               -0.45849194               -0.23932814                0.11935299                1.62640719               -0.15502844                0.11686964
               5.95363439                2.02136039               55.05729425                0.01000000               -0.54627957               -0.63505717                0.11830570                1.71485950               -0.19897410                0.19538968
               6.94685301                2.03269312               55.05761398                0.01000000               -0.35717164               -0.35970326                0.11578761                1.02397233               -0.11896455                0.14571120
               7.94649096                2.03498193               55.06033263                0.27875950               -0.03740032               -0.03652909                0.12295258               -0.00112461                0.00060961                0.01434413
               8.94610500                2.03730768               55.06305430                1.00000000               -0.03918427               -0.03887526                0.12944087               -0.00102255                0.00000811                0.00164012
               9.94570728                2.03968147               55.06577705                0.99999999               -0.03977290               -0.03998974                0.13400016               -0.00225729               -0.00011540                0.00443756
              -0.02367687                3.00296104               55.04509526                0.01000000               -0.04293854                0.16311466                0.09129787                0.19263345                0.07633520                0.21712322
               0.97589375                2.99791960               55.04856669                0.01000001               -0.05420827               -0.15076745                0.09312524                0.25827897                0.03237710                0.17577721
               1.97523897                2.99435162               55.05184987                0.01000000               -0.13059221               -0.20262646                0.09610487                0.59847791               -0.02817238                0.14462360
               2.97328190                2.99455048               55.05422330                0.01000000               -0.25554101               -0.20412289                0.10589859                1.09902663               -0.08525559                0.11802979
               3.97012815                2.99921385               55.05616042                0.01026461               -0.34410010               -0.25433100                0.11693835                1.55573448               -0.11420267                0.11301272
               4.96639990                3.00695544               55.05781901                0.01000000               -0.43689845               -0.36965059                0.12419272                1.92479476               -0.13661013                0.14206639
               5.96139018                3.01731565               55.05912896                0.01000001               -0.52050624               -0.45683101                0.12663059                1.99137666               -0.14747754                0.17997579
               6.95598978                3.02582743               55.06047238                0.01000001               -0.86091267               -0.56418220                0.13345602                2.05664890               -0.20077426                0.26209131
               7.94417192                3.03459904               55.06053028                0.01000000               -0.61211055               -0.40738108                0.15377656                1.68294833               -0.14489150                0.23462832
               8.94374757                3.03689930               55.06296071                0.01000000               -0.04282727               -0.51453456                0.14271516                1.30162556               -0.01639909                0.20493186
               9.94331538                3.03926334               55.06569129                1.00000000               -0.04321860               -1.07879993                0.14582734                1.49993742               -0.00191616                0.18697412
              -0.01415060                4.00544627               55.04825903                0.01000000               -0.04178880                0.14549722                0.08597184                0.25520924               -0.01900973                0.24190050
               0.98543151                3.99599455               55.05124737                0.01000000               -0.02693064               -0.25539930                0.07618536                0.52813945               -0.05280598                0.24195683
               1.98531078                3.99141317               55.05374274                0.01000000               -0.06781328               -0.36049690                0.08811941                1.03348770               -0.09427344                0.17871684
               2.98407524                3.99157148               55.05594937                0.01025930               -0.18984103               -0.36334509                0.10678874                1.47834457               -0.10355888                0.13683964
               3.98151396                3.99575683               55.05788042                0.01000000               -0.29512726               -0.40541363                0.12198839                1.88113518               -0.10420788                0.12823403
               4.97817270                4.00314362               55.05967601                0.01000001               -0.34620111               -0.43531562                0.13184099                2.15469085               -0.10170643                0.15160619
               5.97458994                4.01222377               55.06139417                0.01000001               -0.37350489               -0.52804356                0.13471515                2.33701013               -0.10367596                0.20697619
               6.97070260                4.02140948               55.06299401                0.01027349               -0.27559391               -0.56401271                0.13546110                2.30532655               -0.08694671                0.26414118
               7.96907806                4.02683431               55.06491571                0.01070597               -0.16146922               -0.74040369                0.14081898                2.37244481               -0.05471178                0.37556634
               8.96747322                4.02701699               55.06696242                0.01000000                0.09499324               -0.93297998                0.16657251                1.73067814               -0.02602487                0.37099981
               9.97097793                4.01810548               55.06927101                0.01068547                0.35047115               -1.54950297                0.20317285                1.38336922               -0.01627202                0.35624565
               0.00033077                5.00587099               55.05021756                0.01000000                0.01588757               -0.17523984                0.08768109                0.40950249               -0.04966004                0.22070618
               1.00048964                4.99281162               55.05339420                0.01000000                0.00005106               -0.38885934                0.05715643                0.87944112               -0.09898128                0.22582794
               2.00033179                4.98714168               55.05576222                0.01000001               -0.09922571               -0.45648388                0.07974742                1.42692983               -0.12789034                0.16328909
               2.99850513                4.98728358               55.05771397                0.01000000               -0.20765403               -0.49516893                0.10890264                1.84825795               -0.10675046                0.11483422
               3.99617871                4.99110558               55.05968956                0.01000001               -0.27391773               -0.48705981                0.13250737                2.11027108               -0.07114253                0.11339080
               4.99302677                4.99824913               55.06172772                0.01000001               -0.31570904               -0.51275473                0.14532283                2.31363954               -0.04367164                0.15291299
               5.98986453                5.00675478               55.06385552                0.01020184               -0.27705016               -0.55842476                0.14859401                2.33754554               -0.02748345                0.21781728
               6.98748577                5.01454718               55.06599578                0.01010337               -0.19256081               -0.65905877                0.14684398                2.22616207               -0.02200945                0.29742314
               7.98601331                5.01979097               55.06813714                0.01000000               -0.01979048               -0.73054391                0.14648172                1.79045152               -0.00882050                0.36390731
               8.98708996                5.01823970               55.07056025                0.01000000                0.13962357               -0.78627637                0.16647684                1.13496992                0.01112085                0.38434151
               9.98880578                5.00827329               55.07298440                0.01000000                0.17158207               -0.68037569                0.21253315                0.56216293                0.01725788                0.35292349
               0.02015818                6.00194148               55.05211038                0.01000001                0.15914508               -0.84550497                0.16311111                0.97313236               -0.06652580                0.31887015
               1.02174964                5.98821736               55.05524303                0.01000001               -0.03903843               -0.48596972                0.04465917                1.33941060               -0.07911404                0.18635929
               2.01937742                5.98228349               55.05745314                0.01000000               -0.23365668               -0.49594075                0.07714734                1.98336899               -0.10119855                0.07883260
               3.01707650                5.98166810               55.05932338                0.01000001               -0.33117906               -0.48704855                0.12520415                2.01198048               -0.06302912                0.05566575
               4.01275383                5.98601564               55.06139254                0.01000001               -0.41401077               -0.53245949                0.15204980                2.22341128               -0.00783566                0.07763846
               5.00879629                5.99288853               55.06380791                0.01020060               -0.38555146               -0.52590017                0.16780588                2.28180651                0.04117003                0.13222647
               6.00504281                6.00105528               55.06642776                0.01008208               -0.33033161               -0.52520569                0.16969719                2.19369300                0.07244184                0.21669816
               7.00218965                6.00822830               55.06920745                0.01000000               -0.19241169               -0.56635140                0.16500595                1.86051268                0.09030391                0.32369538
               8.00119457                6.01222343               55.07207110                0.01000000               -0.02496778               -0.66540896                0.16495384                1.38565284                0.08840283                0.41941244
               9.00169030                6.01129146               55.07473825                0.01007816                0.04797179               -0.58849772                0.17708000                0.75385024                0.05582206                0.44491531
              10.00215401                6.00449796               55.07688898                0.01000000                0.04637091               -0.21640392                0.21543982                0.35271636                0.03217422                0.38168099
               0.04724165                6.98896089               55.05569122                0.94329442               -0.03058015               -0.66193013                0.08714200                1.06311202               -0.01341288                0.15081258
               1.04693584                6.98309222               55.05717434                0.74539478               -0.03466084               -0.27379705                0.11638018                0.96814614               -0.01854189                0.05816339
               2.04654843                6.97722287               55.05855980                0.01000000               -0.59616257               -0.27498215                0.14292280                1.37660164                0.00183021                0.01016421
               3.03501259                6.97754261               55.06046258                0.01000001               -0.85609604               -0.54282512                0.15280823                1.90644655                0.02760986               -0.00990715
               4.02942651                6.98045639               55.06289457                0.01026581               -0.56946657               -0.53056612                0.18231302                2.00706240                0.08217532                0.04486771
               5.02362326                6.98773113               55.06574693                0.01010147               -0.55139463               -0.51474971                0.19502653                2.22569390                0.14124960                0.09897353
               6.01839862                6.99625067               55.06902983                0.01000000               -0.50476942               -0.34128731                0.19451808                1.93295735                0.20281382                0.20092483
               7.01352787                7.00322015               55.07272284                0.01000000               -0.38677023               -0.35978948                0.18699468                1.38703473                0.23521905                0.33101275
               8.01066321                7.00648279               55.07642492                0.01012268               -0.18177182               -0.45360747                0.18361768                0.78394772                0.20986158                0.46613115
               9.00989244                7.00646974               55.07951868                0.01000002               -0.06080542               -0.40884061                0.18281693                0.32725866                0.12278496                0.53274251
              10.00944710                7.00394521               55.08144013                0.01000000               -0.04453344                0.00388836                0.20437059                0.10619035                0.06147167                0.50294759
               0.05315775                7.98870287               55.05650627                1.00000000               -0.03071750               -0.02587692                0.08748854                0.00009227               -0.00367832                0.01606547
               1.05285058                7.98274142               55.05798474                0.99999999               -0.03493461               -0.03504136                0.11671006                0.00017774               -0.00500089                0.00318145
               2.05245906                7.97678385               55.05943785                0.27228351               -0.04393354               -0.04424107                0.14539042               -0.00074525                0.00027373               -0.00488690
               3.05197191                7.97081160               55.06103225                0.01000000               -0.48762479               -0.36312758                0.18078860                1.07933166                0.09022065               -0.04366467
               4.04270657                7.97540431               55.06430520                0.01071019               -0.72280107               -0.79503855                0.18133395                1.99653198                0.16813273                0.01262118
               5.03751589                7.98259353               55.06752273                0.01000000               -0.72468171               -0.26059025                0.22116750                2.03726700                0.24256725                0.06487288
               6.02821293                7.99422953               55.07154719                0.01000000               -0.89088295               -0.02954221                0.21610897                1.59650409                0.32883913                0.16754302
               7.01969823                8.00103251               55.07614947                0.01011965               -0.72944998               -0.05182274                0.20902901                0.81791058                0.39908868                0.28278017
               8.01362393                8.00315128               55.08125249                0.01000002               -0.44625858               -0.15228850                0.19198529                0.14014125                0.39137911                0.44344099
               9.01077306                8.00311465               55.08529555                0.01000002               -0.21485236               -0.23102412                0.18250350               -0.33328781                0.26469470                0.80606026
              10.00932689                8.00457573               55.08768553                0.01000001               -0.14461710               -0.13768896                0.19597040               -0.26238983                0.17765874                0.65401972
               0.05916640                8.98844335               55.05739024                1.00000000               -0.03079707               -0.02598726                0.08770778                0.00023216                0.00273664                0.01615331
               1.05885843                8.98239140               55.05882610                0.99999999               -0.03515266               -0.03515818                0.11716628                0.00010420                0.00300755                0.00305274
               2.05846334                8.97633805               55.06026375                0.99999999               -0.04398344               -0.04439684                0.14672057               -0.00032608               -0.00139379               -0.00495110
               3.05797876                8.97028006               55.06161952                0.11256431               -0.04440660               -0.05325785                0.17667487                0.01633538                0.10337785               -0.02477003
               4.05757521                8.96455562               55.06517399                0.01000000               -0.62176887               -0.59354558                0.23955446                1.65692353                0.25747695               -0.02213622
               5.04554338                8.98251932               55.06928716                0.01000000               -1.28427463                0.24411094                0.19738729                1.67992252                0.30327180                0.04536297
               6.03188972                8.99565983               55.07370919                0.01008844               -1.22895231                0.23861862                0.22222098                0.94955279                0.39080795                0.09832317
               7.02096434                9.00218369               55.07885047                0.01000002               -1.02529099                0.18646353                0.21128158                0.34190965                0.51314658                0.16677961
               8.01138390                9.00343702               55.08505464                0.01000001               -0.95810510                0.16780360                0.19912315               -0.16236877                0.80641012                0.29346350
               9.00180223                9.00184926               55.09526062                1.00000000               -0.50533808               -0.08957006                0.17605143               -0.52825388                0.52303540                0.51118291
              10.00127714                9.00119143               55.09499825                0.99950802               -0.05250944               -0.19514499                0.17382153               -0.43542570               -0.00037217                0.37780664
               0.06526630                9.98818313               55.05820164                1.00000000               -0.03083371               -0.02602208                0.08814606               -0.00449660                0.01404062                0.01303603
               1.06495797                9.98203826               55.05963902                0.99999999               -0.03512132               -0.03531396                0.11763670               -0.00440705                0.01880660                0.00157062
               2.06456388                9.97589591               55.06116203                0.99761861               -0.04384630               -0.04421373                0.14705752               -0.00453745                0.01939020               -0.00201629
               3.06408104                9.96974644               55.06260765                0.99999997               -0.04790521               -0.05336168                0.17670554               -0.00789714                0.13528053               -0.00591796
               4.06360577                9.96353340               55.06645510                0.01120592               -1.20354541               -0.10222199                0.22427038                1.48952159                0.31297672               -0.01987940
               5.04001013                9.98747575               55.07076447                0.01000001               -1.80330783                0.49564304                0.14993241                1.22010036                0.29941160                0.02832520
               6.02753962                9.99900191               55.07509018                0.01000000               -1.06254536                0.33420796                0.18831715                0.42929110                0.35844514                0.04804499
               7.01875923               10.00476178               55.08016031                0.01000001               -0.84143130                0.25780880                0.19404846                0.15476150                0.53714027                0.08214789
               8.01071099               10.00650735               55.08705628                0.01000000               -0.81528266                0.30703331                0.19701464               -0.23921779                0.71910697                0.18049411
               9.00245357               10.00132324               55.09500976                0.99953231               -0.43884776               -0.05260148                0.17438427               -0.22659232                0.41116625                0.00037381
              10.00193404               10.00067283               55.09474737                0.99573858               -0.05195367               -0.05185981                0.17215439                0.00064814                0.00036237               -0.00036174
              -0.03745113                0.00221520               56.04362869                0.99505389               -0.02291252               -0.02224576                0.07200844                0.00214474               -0.00836821                0.00795289
               0.96231974               -0.00099345               56.04665610                0.99998984               -0.02421271               -0.02502316                0.08095240                0.00142155               -0.00895292               -0.00155609
               1.96206462               -0.00418629               56.04967090                0.01000000                0.00619148               -0.02779113                0.08990083                0.05993315               -0.02680082               -0.00358871
               2.96244357               -0.00619180               56.05233621                0.01170789                0.06188905                0.01965178                0.00673840                0.29466779               -0.04386983                0.03825602
               3.96330240               -0.00148971               56.05430273                0.01000000               -0.12451303                0.10509108                0.10994361                0.34397295               -0.13920314                0.00646320
               4.95995331                0.00981098               56.05496593                0.01000002               -0.69011306                0.12170060                0.10499395                0.79373589               -0.18369992                0.01831252
               5.94950014                0.03008305               56.05556020                0.01000001               -0.56217803               -0.02977098                0.08330000                0.87367102               -0.07221283               -0.00588055
               6.94870975                0.03333123               56.05872652                0.97166583               -0.05373789               -0.02938912                0.09206277                0.04841472                0.02153888               -0.00220954
               7.94842538                0.03566966               56.06148979                1.00000000               -0.02933953               -0.03080730                0.09782571                0.00086007                0.00188093                0.00000678
               8.94812296                0.03804622               56.06426313                0.99961904               -0.03102978               -0.03259666                0.10350435                0.00079031                0.00192060                0.00117671
               9.94780478                0.04046179               56.06702530                1.00000000               -0.03181804               -0.03460566                0.10920541               -0.00128147                0.00152118                0.00194658
              -0.03422103                1.00199275               56.04415656                1.00000000               -0.02442655               -0.02293981                0.07689328                0.00081693                0.00143322                0.00846134
               0.96553471                0.99875631               56.04718565                0.01000000               -0.02579263               -0.02582768                0.08584820                0.00010070                0.00439979               -0.00459289
               1.96526312                0.99553579               56.05027565                0.01000000               -0.07463749               -0.04101422                0.09477846                0.01136552               -0.01832663                0.01415595
               2.96404196                0.99400471               56.05284780                0.01000001               -0.32611943                0.06828598                0.04548707                0.28638656               -0.12898991                0.05873727
               3.95874073                0.99956120               56.05485779                0.01000000               -0.59688333                0.08784707                0.11696970                0.68477236               -0.12095639                0.01599942
               4.95210429                1.01102799               56.05589503                0.01000000               -0.61320057                0.01339462                0.11273496                1.25906530               -0.19989592                0.04176849
               5.94647672                1.02978534               56.05583111                0.01000001               -0.28518479               -0.44913283                0.10367662                1.16752013               -0.13809725                0.11142618
               6.94640060                1.03303734               56.05875263                0.92504517               -0.02001186               -0.03112688                0.10457241                0.04911182                0.00872461               -0.00249551
               7.94607648                1.03536159               56.06152774                0.99999999               -0.03328984               -0.03293298                0.11002395                0.00034591                0.00141498                0.00041236
               8.94573480                1.03772025               56.06430170                0.99999999               -0.03500465               -0.03463936                0.11592653               -0.00067046                0.00069359                0.00224360
               9.94537639                1.04011574               56.06706060                0.99948405               -0.03584077               -0.03635922                0.12170951               -0.00285120                0.00012841                0.00285400
              -0.03096193                2.00175641               56.04469720                0.01000000               -0.02593612                0.09433170                0.08178113                0.08183830                0.00349141                0.09099664
               0.96877871                1.99848999               56.04765274                0.01000000               -0.09972725               -0.06094299                0.09077930                0.02881990                0.03433198                0.07611987
               1.96704353                1.99499342               56.05122908                0.01000001               -0.23164063               -0.07824353                0.09023981                0.17991607                0.00496852                0.07778181
               2.96414590                1.99517392               56.05380355                0.01000000               -0.35344780                0.00521124                0.09723451                0.57545952               -0.05819522                0.07366728
               3.95997457                2.00026723               56.05583195                0.01000000               -0.46177086               -0.04118992                0.10675689                1.16790101               -0.11732090                0.06176779
               4.95491048                2.01007887               56.05725387                0.01000001               -0.45666910               -0.22571176                0.11804536                1.61188831               -0.15741392                0.10388245
               5.95084119                2.02110040               56.05848258                0.01000000               -0.53973674               -0.63860842                0.12016868                1.73283949               -0.20836878                0.19110573
               6.94411575                2.03270869               56.05877734                0.01000000               -0.35459017               -0.36595492                0.11607571                1.03674834               -0.12309404                0.14602549
               7.94374938                2.03501100               56.06157195                0.29817159               -0.03801701               -0.04013984                0.12552022                0.00350777                0.00142528                0.02910400
               8.94335540                2.03735343               56.06435731                0.99999999               -0.03962986               -0.03937821                0.13076958               -0.00136409                0.00029854                0.00349529
               9.94295679                2.03973461               56.06711389                0.99999999               -0.03986177               -0.03974870                0.13314345               -0.00354856               -0.00053346                0.00228514
              -0.02605143                3.00387938               56.04688073                0.01085721               -0.10744769                0.17985446                0.13940828                0.04799707                0.02365186                0.23304767
               0.97287409                2.99753745               56.04979703                0.01000001               -0.08855250               -0.12997458                0.11411789                0.18503553               -0.00175906                0.17383120
               1.97217752                2.99397092               56.05271214                0.01000000               -0.12983776               -0.19602020                0.09058642                0.58546655               -0.02567953                0.12694718
               2.97027734                2.99410894               56.05524296                0.01000000               -0.24918622               -0.20260148                0.10206775                1.08372385               -0.06688989                0.10994388
               3.96719380                2.99873740               56.05730956                0.01026514               -0.33842206               -0.25097641                0.11478001                1.55207652               -0.10222813                0.10880004
               4.96350890                3.00651375               56.05904737                0.01000000               -0.43450503               -0.36908280                0.12297396                1.93502805               -0.14011699                0.13563503
               5.95850369                3.01701317               56.06037205                0.01000001               -0.51419688               -0.45875142                0.12546893                2.00630287               -0.16137566                0.17454844
               6.95322496                3.02571824               56.06178206                0.01000001               -0.85008957               -0.57174144                0.12144449                2.06664573               -0.20760139                0.25554535
               7.94150190                3.03455879               56.06217813                0.01000007               -0.61205241               -0.41285692                0.18967668                1.69173455               -0.15766868                0.24359524
               8.94098391                3.03693269               56.06440826                0.01000000               -0.04794193               -0.52441593                0.14732030                1.31605994               -0.02710637                0.21241732
               9.94054306                3.03932076               56.06714780                1.00000000               -0.04408461               -1.08419311                0.14412669                1.50756493               -0.00114809                0.21328139
              -0.01731814                4.00535350               56.04903523                0.01000000               -0.02939864                0.09156712                0.08990118                0.21664736               -0.00627697                0.19760338
               0.98238788                3.99589050               56.05195365                0.01000000               -0.02502451               -0.24764911                0.08172851                0.50744347               -0.01681748                0.18626452
               1.98218137                3.99107302               56.05462676                0.01000000               -0.06669912               -0.36239865                0.09218639                1.01552225               -0.04898818                0.15002767
               2.98105389                3.99112189               56.05698740                0.01026229               -0.17850429               -0.37005034                0.10536984                1.47467139               -0.07174418                0.12606285
               3.97861129                3.99524771               56.05907813                0.01000000               -0.28593112               -0.41151476                0.12037675                1.89168072               -0.08946573                0.12950998
               4.97533527                4.00269722               56.06097532                0.01000001               -0.34242642               -0.43742696                0.13013068                2.17906135               -0.10821419                0.15870710
               5.97176276                4.01192537               56.06270501                0.01000001               -0.37161136               -0.52653163                0.13012406                2.36808954               -0.13316951                0.21545182
               6.96790304                4.02127386               56.06428807                0.01029527               -0.26965642               -0.56292232                0.12013503                2.32557509               -0.13887411                0.27033946
               7.96636963                4.02675386               56.06621933                0.01076494               -0.14942057               -0.73152050                0.10622876                2.37331967               -0.09534925                0.36141775
               8.96491463                4.02686511               56.06862608                0.01000000                0.09811524               -0.93484524                0.15320219                1.74196297               -0.04460766                0.40344834
               9.96833193                4.01805075               56.07143284                0.01133094                0.34173022               -1.56355232                0.24506137                1.40754462               -0.02058016                0.40932496
              -0.00279249                5.00571072               56.05129610                0.01000000                0.00959334               -0.18298321                0.11265537                0.42956258               -0.01396306                0.19905195
               0.99730344                4.99258447               56.05407125                0.01000000                0.00245358               -0.41454072                0.08378416                0.89027579               -0.03204947                0.16812555
               1.99725658                4.98672295               56.05656631                0.01000001               -0.08536816               -0.47365736                0.09013259                1.43257068               -0.05514522                0.13458398
               2.99559608                4.98670793               56.05879426                0.01000000               -0.19022508               -0.51145660                0.11172351                1.86406536               -0.06091303                0.11772340
               3.99345208                4.99050711               56.06099169                0.01000001               -0.25918082               -0.49820723                0.13068036                2.14144343               -0.05420577                0.13143571
               4.99041246                4.99776521               56.06316011                0.01000001               -0.30816184               -0.51749872                0.14266284                2.35974314               -0.05434619                0.17932228
               5.98728884                5.00648254               56.06530725                0.01022022               -0.27522475               -0.55721340                0.14298421                2.38983188               -0.06486257                0.24838808
               6.98490797                5.01445979               56.06741220                0.01012241               -0.19558957               -0.65271031                0.13382822                2.27839178               -0.07766578                0.33030050
               7.98337705                5.01992838               56.06952010                0.01000000               -0.01908397               -0.71974623                0.12849035                1.82269331               -0.05498766                0.37399269
               8.98452629                5.01823578               56.07215199                0.01000000                0.14728195               -0.77699497                0.14182875                1.13908134               -0.01142490                0.40675407
               9.98632269                5.00804971               56.07517064                0.01000002                0.17964015               -0.69722333                0.22420888                0.56916194                0.01439752                0.36093245
               0.01752561                6.00169383               56.05360530                0.01000001                0.16555500               -0.87211933                0.13567144                1.00411280               -0.00539747                0.22669444
               1.01918116                5.98759969               56.05609679                0.01000001               -0.04081435               -0.51418095                0.09954187                1.38862943               -0.01188371                0.14869671
               2.01670933                5.98159987               56.05836185                0.01000000               -0.23150604               -0.51959510                0.10358717                2.04068723               -0.03365946                0.09866163
               3.01455104                5.98089275               56.06056381                0.01000001               -0.31632262               -0.50273922                0.12695877                2.05531044               -0.02326998                0.08308825
               4.01038287                5.98528356               56.06289532                0.01000001               -0.39981703               -0.54266879                0.14957058                2.27314289                0.00373447                0.11587430
               5.00655470                5.99234724               56.06545879                0.01021399               -0.37590288               -0.53317078                0.16293725                2.34175972                0.02411798                0.18143237
               6.00286482                6.00078110               56.06810155                0.01010465               -0.32648303               -0.52790139                0.16469581                2.26338588                0.03074015                0.26789714
               7.00002504                6.00821966               56.07082266                0.01000000               -0.19086535               -0.56131062                0.15771963                1.92938821                0.03651674                0.37018295
               7.99904751                6.01235894               56.07369068                0.01000000               -0.02250582               -0.66254020                0.15417717                1.44169419                0.03022954                0.46336269
               8.99957492                6.01132521               56.07646764                0.01018159                0.05198985               -0.58129927                0.16023821                0.77963747                0.01435716                0.48497902
              10.00008731                6.00410628               56.07906443                0.01000000                0.05123813               -0.22195595                0.20615778                0.35792439                0.01311288                0.39701082
               0.04547805                6.98826834               56.05656257                0.94593453               -0.03080633               -0.68414426                0.08728639                1.10177789               -0.01347247                0.11950028
               1.04516999                6.98230085               56.05834676                0.71222010               -0.03503994               -0.28272635                0.11800726                1.00349738               -0.02020200                0.07396019
               2.04477726                6.97633105               56.06000246                0.01000000               -0.60756974               -0.28589666                0.14494533                1.42174993               -0.00954081                0.03833238
               3.03301860                6.97665315               56.06200668                0.01000001               -0.86584050               -0.55503333                0.15578418                1.95352795                0.02437641                0.03285950
               4.02746045                6.97965373               56.06465096                0.01028456               -0.56342396               -0.54439905                0.17257563                2.05017643                0.07591675                0.08172525
               5.02175012                6.98710180               56.06766908                0.01012597               -0.53881502               -0.53056110                0.18831796                2.29078484                0.11483245                0.16629558
               6.01668415                6.99592451               56.07094626                0.01000000               -0.49161122               -0.34596676                0.18775587                2.00729920                0.14915663                0.26784456
               7.01191789                7.00323358               56.07457747                0.01000000               -0.37893831               -0.36106741                0.18259128                1.46383756                0.17849776                0.38765232
               8.00910538                7.00667758               56.07824439                0.01022100               -0.17730990               -0.44746969                0.17915655                0.85394836                0.15542270                0.51039170
               9.00837169                7.00660980               56.08131997                0.01000002               -0.05931688               -0.39736018                0.17714580                0.37013961                0.08351029                0.56245868
              10.00791904                7.00361060               56.08345965                0.01000000               -0.04526532                0.01114359                0.19946582                0.12561624                0.03867799                0.50296351
               0.05149613                7.98801095               56.05737762                1.00000000               -0.03077373               -0.02573252                0.08684111                0.00003950               -0.00380256                0.01570829
               1.05118840                7.98194516               56.05915760                0.99999999               -0.03520521               -0.03542448                0.11777070                0.00027376               -0.00520574                0.00317345
               2.05079203                7.97588194               56.06090647                0.28303599               -0.04447402               -0.04532818                0.14844806               -0.00124327                0.00544620               -0.00267718
               3.05029892                7.96979209               56.06290772                0.01000000               -0.49271391               -0.37060283                0.20381706                1.09526681                0.06937580               -0.02609174
               4.04093775                7.97439558               56.06602402                0.01076962               -0.70996493               -0.82666726                0.18749686                2.04572199                0.14074207                0.07303905
               5.03609962                7.98173602               56.06963299                0.01000000               -0.70293675               -0.27084404                0.20588683                2.10023270                0.18533584                0.14063545
               6.02687902                7.99386176               56.07368212                0.01000000               -0.87754440               -0.03577912                0.20925254                1.66148088                0.26745381                0.22591332
               7.01854873                8.00099831               56.07822372                0.01021446               -0.70643775               -0.06007698                0.20458287                0.88991883                0.33746836                0.33020132
               8.01275026                8.00340954               56.08316091                0.01000002               -0.42520166               -0.15494515                0.18827689                0.22031655                0.33949531                0.47956253
               9.01004470                8.00337801               56.08711119                0.01000002               -0.20761160               -0.22487302                0.18084923               -0.26900952                0.23617068                0.82049341
              10.00859803                8.00432915               56.08964743                0.01000001               -0.14466670               -0.10818572                0.19467602               -0.22349287                0.16983186                0.63956218
               0.05761042                8.98775369               56.05825990                0.99968244               -0.03059429               -0.02564495                0.08634851                0.00006414                0.00263303                0.01565521
               1.05730448                8.98159236               56.06000003                0.99999999               -0.03524785               -0.03533433                0.11751847               -0.00004079                0.00311553                0.00308760
               2.05690546                8.97542449               56.06174297                0.99999999               -0.04470930               -0.04534043                0.14929275               -0.00088041               -0.00061093               -0.00431961
               3.05641029                8.96924109               56.06341059                0.17766895               -0.02372554               -0.05482042                0.18215980                0.00193461                0.13610916               -0.02866235
               4.05643095                8.96312039               56.06791240                0.01000000               -0.60608515               -0.60494552                0.21946138                1.71120294                0.21849435                0.02033367
               5.04428859                8.98168492               56.07117138                0.01000000               -1.28897375                0.24163432                0.20645809                1.73165564                0.23975175                0.08402426
               6.03065148                8.99520893               56.07582859                0.01018822               -1.20600484                0.22938892                0.20733212                0.98032634                0.34661199                0.13430263
               7.02016849                9.00203204               56.08093043                0.01000002               -0.97597324                0.17036468                0.20431906                0.39047573                0.46113091                0.19077582
               8.01113201                9.00357867               56.08705587                0.01000001               -0.90482964                0.14680444                0.20312920               -0.11212786                0.75777248                0.31536918
               9.00207190                9.00211233               56.09702115                1.00000000               -0.47925565               -0.08959129                0.17605900               -0.47228342                0.51212845                0.50924682
              10.00154690                9.00144688               56.09673614                0.99982020               -0.05249988               -0.17003705                0.17375343               -0.38588733               -0.00037618                0.36741942
               0.06382006                9.98749805               56.05907209                1.00000000               -0.03032784               -0.02556373                0.08619149               -0.00499340                0.01341641                0.01250557
               1.06351678                9.98123847               56.06081320                1.00000000               -0.03471825               -0.03538911                0.11717205               -0.00491542                0.01806632                0.00155441
               2.06312569                9.97497513               56.06263820                0.99988955               -0.04375376               -0.04493567                0.14772524               -0.00511637                0.01893259               -0.00193340
               3.06264171                9.96869568               56.06438989                0.99999999               -0.02038550               -0.05454118                0.17885808               -0.01078133                0.15898878               -0.00613196
               4.06271798                9.96229667               56.06901406                0.01197817               -1.19987590               -0.08237190                0.20519346                1.52235483                0.24798897               -0.00451424
               5.03864419                9.98656871               56.07240288                0.01000001               -1.82897826                0.48837911                0.17748430                1.24320378                0.23201284                0.05186636
               6.02613842                9.99844954               56.07688886                0.01000000               -1.03278424                0.32406109                0.18540644                0.44053907                0.32978957                0.06795606
               7.01798850               10.00440560               56.08206124                0.01000001               -0.78555040                0.23735610                0.18799287                0.17680584                0.51467925                0.09023681
               8.01042741               10.00634563               56.08905362                0.01000000               -0.76288414                0.27669591                0.20518783               -0.21143101                0.69123667                0.18810195
               9.00273082               10.00158618               56.09675394                0.99984466               -0.41081103               -0.05261533                0.17445412               -0.20496878                0.39964280                0.00037566
              10.00221119               10.00092841               56.09646891                0.99584298               -0.05196295               -0.05184718                0.17214890                0.00065205                0.00036244               -0.00036434
              -0.04060679                0.00174225               57.04434989                0.99600436               -0.02287187               -0.02237322                0.07219710                0.00210430               -0.00840188                0.00792290
               0.95916449               -0.00156296               57.04746303                0.99999999               -0.02407493               -0.02494940                0.08052068                0.00132136               -0.00898586               -0.00152680
               1.95891171               -0.00485112               57.05056364                0.01004891                0.04291021               -0.02751052                0.08882374                0.10131517               -0.05898808               -0.00354401
               2.96002270               -0.00612090               57.05267277                0.01000003                0.06241010                0.01870325                0.08063965                0.14506696               -0.05884744                0.08892825
               3.96015991               -0.00176324               57.05509993                0.01000000               -0.13958677                0.08541484                0.08371770                0.30805390               -0.17146644                0.05489948
               4.95723096                0.00909473               57.05607043                0.01000000               -0.66303475                0.11947153                0.09952586                0.78876692               -0.22505938                0.02479681
               5.94689922                0.02963911               57.05639315                0.01000002               -0.56497679               -0.03161733                0.08377752                0.87923050               -0.07945516               -0.00831206
               6.94593143                0.03321791               57.05964777                0.97256532               -0.06261880               -0.02971564                0.09242781                0.06422777                0.02317446               -0.00209405
               7.94564684                0.03556705               57.06246919                1.00000000               -0.02927315               -0.03113394                0.09791432                0.00094896                0.00189669               -0.00098883
               8.94534596                0.03795417               57.06529756                1.00000000               -0.03088982               -0.03266797                0.10336037                0.00088474                0.00188770                0.00057232
               9.94502905                0.04037953               57.06811472                1.00000000               -0.03169154               -0.03478915                0.10880855               -0.00108003                0.00154388                0.00191803
              -0.03728054                1.00151852               57.04492854                1.00000000               -0.02450692               -0.02312581                0.07747724                0.00087217                0.00139682                0.00843728
               0.96247440                0.99818755               57.04804359                0.01000000               -0.02578128               -0.02580637                0.08580157                0.00010123                0.00434490               -0.00457209
               1.96220384                0.99487377               57.05121914                0.01000000               -0.12724862               -0.02820183                0.09411323                0.04437629               -0.03846111                0.00988644
               2.95992942                0.99406613               57.05347647                0.01000001               -0.32855998                0.04265107                0.09119070                0.26923040               -0.17552407                0.10230424
               3.95563264                0.99909091               57.05590435                0.01000000               -0.52559836                0.06951345                0.09503358                0.65354492               -0.14949038                0.04103459
               4.94941746                1.01028944               57.05700342                0.01000000               -0.60013542                0.01836071                0.10849370                1.24903834               -0.23533448                0.04252367
               5.94362993                1.02932294               57.05689376                0.01000001               -0.29038606               -0.44987725                0.10851126                1.18378198               -0.14889166                0.10535851
               6.94360973                1.03292076               57.05980239                0.91486745               -0.01708629               -0.03168572                0.10506976                0.06515490                0.00443432               -0.00341940
               7.94328820                1.03525571               57.06262290                0.99999999               -0.03305807               -0.03267178                0.11019890               -0.00003051                0.00092926                0.00163656
               8.94294857                1.03762749               57.06545604                0.99999999               -0.03476561               -0.03415750                0.11561510               -0.00004984                0.00128189                0.00296160
               9.94259289                1.04003163               57.06827617                0.99916025               -0.03556805               -0.03697779                0.12134143               -0.00186545                0.00096722                0.00185793
              -0.03392740                2.00127974               57.04551993                0.01000001               -0.02613300                0.08827213                0.08275812                0.07632351                0.00351161                0.09742964
               0.96581127                1.99792092               57.04856218                0.01000000               -0.10759689               -0.05461151                0.09110166                0.04289350                0.03004087                0.08071520
               1.96392066                1.99458484               57.05213908                0.01000001               -0.23105521               -0.06904443                0.09541631                0.19434041               -0.00278209                0.07476200
               2.96119016                1.99473212               57.05476364                0.01000000               -0.34565798               -0.02503091                0.10089356                0.62297259               -0.05859994                0.08954236
               3.95700750                1.99962703               57.05688381                0.01000000               -0.46052320               -0.04736175                0.10905196                1.16881773               -0.11443536                0.05905386
               4.95197970                2.00946194               57.05841945                0.01000001               -0.45319790               -0.21713757                0.11746298                1.60660745               -0.15448682                0.09450464
               5.94794354                2.02064157               57.05969762                0.01000000               -0.53389739               -0.63693753                0.12331428                1.74601550               -0.21770559                0.18079874
               6.94130175                2.03258420               57.05993549                0.01000000               -0.35020213               -0.37465760                0.11758816                1.03469907               -0.12690658                0.13689716
               7.94093950                2.03491362               57.06284304                0.59484232               -0.03663540               -0.02160687                0.12254718               -0.01045164                0.00332818                0.06687276
               8.94056904                2.03727102               57.06566969                0.99999999               -0.03780235               -0.03743093                0.12763726                0.00067741               -0.00086155                0.00696310
               9.94018345                2.03963997               57.06843992                0.99999999               -0.03855910               -0.04108068                0.13405395               -0.00208334               -0.00279284               -0.00047968
              -0.02903642                3.00328397               57.04788342                0.01000000               -0.09364132                0.18516169                0.10312072                0.07185696                0.00425090                0.17286986
               0.97002716                2.99709532               57.05084905                0.01000001               -0.08420652               -0.12376474                0.10071341                0.19506410               -0.00032064                0.16931284
               1.96927945                2.99349288               57.05366160                0.01000000               -0.13402410               -0.20126487                0.09781535                0.59233962               -0.01664184                0.11596880
               2.96734668                2.99356551               57.05626465                0.01000000               -0.25001376               -0.20953390                0.10533293                1.08248084               -0.04962984                0.10313998
               3.96427917                2.99814368               57.05845602                0.01026522               -0.34058064               -0.24810664                0.11694150                1.55552044               -0.08941940                0.10430966
               4.96053507                3.00594669               57.06027849                0.01000000               -0.44255952               -0.36284551                0.12608618                1.94211736               -0.13995462                0.12922727
               5.95542798                3.01658419               57.06163834                0.01000001               -0.52516998               -0.45219757                0.12929646                2.00755853               -0.18290443                0.16304842
               6.95003167                3.02542761               57.06290127                0.01000001               -0.85178150               -0.56990393                0.12382191                2.06742156               -0.19623195                0.23999246
               7.93839235                3.03482358               57.06432381                0.01000006               -0.58979506               -0.40964586                0.11121125                1.66724195               -0.13506152                0.19634951
               8.93823577                3.03687887               57.06590712                0.01000000               -0.02895111               -0.49643985                0.13954684                1.25924769               -0.06285640                0.20530765
               9.93781333                3.03921002               57.06857383                0.99999999               -0.04224391               -1.06854170                0.14661565                1.47158236               -0.00909689                0.26984346
              -0.02011297                4.00498297               57.05005705                0.01000000               -0.03833945                0.09989943                0.11404854                0.22314714                0.00871366                0.19211482
               0.97950363                3.99544562               57.05288194                0.01000000               -0.02948820               -0.25321657                0.10028886                0.50639256               -0.00277719                0.16035690
               1.97929726                3.99055954               57.05558647                0.01000000               -0.06573228               -0.36973067                0.09921822                1.01611219               -0.02108028                0.13573900
               2.97818899                3.99054144               57.05805677                0.01026476               -0.17802660               -0.37519365                0.11005158                1.48100836               -0.04509351                0.11971985
               3.97573673                3.99466490               57.06028796                0.01000000               -0.29037260               -0.41132847                0.12365380                1.90565812               -0.07403544                0.12909436
               4.97238153                4.00220503               57.06227862                0.01000001               -0.35614666               -0.42972927                0.13354617                2.20109724               -0.11345168                0.16134715
               5.96861380                4.01159762               57.06399665                0.01000001               -0.39853678               -0.51290910                0.13390509                2.39341469               -0.17207382                0.21811353
               6.96441080                4.02118612               57.06539671                0.01032000               -0.28903625               -0.54045017                0.11385904                2.34055082               -0.23081556                0.27055099
               7.96283307                4.02672070               57.06704028                0.01000001               -0.15216231               -0.75120512                0.05149542                2.39687626               -0.23245173                0.34958120
               8.96136755                4.02734222               57.07002646                0.01000000                0.10598665               -0.91728299                0.05825777                1.72617946               -0.11587693                0.44212384
               9.96495281                4.01826914               57.07417223                0.01000000                0.35852526               -1.56748393                0.35322490                1.35484581               -0.07084849                0.43429685
              -0.00549878                5.00528195               57.05247067                0.01000000                0.00772251               -0.18870391                0.12080286                0.43391579               -0.00560071                0.19066988
               0.99457844                4.99203099               57.05506989                0.01000000                0.00023269               -0.42649219                0.10704635                0.90340501               -0.01170713                0.15820161
               1.99450587                4.98609827               57.05756487                0.01000001               -0.08584765               -0.48694830                0.10610941                1.44852922               -0.02396294                0.12960553
               2.99286149                4.98606164               57.05994844                0.01000000               -0.18885649               -0.52119978                0.11854736                1.88537430               -0.03126734                0.12198681
               3.99072874                4.98991711               57.06230317                0.01000001               -0.26185976               -0.49955230                0.13356591                2.17436416               -0.03975356                0.14415150
               4.98762430                4.99735210               57.06458097                0.01000001               -0.32067799               -0.50984120                0.14460683                2.40498920               -0.06425494                0.19825113
               5.98431518                5.00632601               57.06671521                0.01023385               -0.29523460               -0.54117072                0.14454609                2.44732228               -0.11002074                0.27263065
               6.98171960                5.01461860               57.06867234                0.01014692               -0.20707049               -0.63597135                0.12708349                2.31967608               -0.16303556                0.37538367
               7.98017377                5.01979947               57.07070695                0.01000000               -0.02543419               -0.69771513                0.11304393                1.86178574               -0.16276212                0.42904190
               8.98121092                5.01853321               57.07339683                0.01000000                0.14413241               -0.77595846                0.08815889                1.16485042               -0.13401491                0.51701772
               9.98305642                5.00786034               57.07746858                0.01000002                0.18455013               -0.70599844                0.15155161                0.54620722               -0.07547473                0.43311942
               0.01506727                6.00120889               57.05482381                0.01000001                0.16881446               -0.88516879                0.12256047                1.01581836               -0.00743285                0.19248552
               1.01675542                5.98691578               57.05723387                0.01000001               -0.04150366               -0.52601880                0.11844799                1.40625796               -0.01199957                0.15265196
               2.01423720                5.98082058               57.05952488                0.01000000               -0.23388910               -0.53266873                0.12178955                2.06967439               -0.01789602                0.11543930
               3.01207763                5.98011744               57.06186255                0.01000001               -0.31518255               -0.51028713                0.13488947                2.09217035               -0.00493868                0.10392713
               4.00793355                5.98467385               57.06438396                0.01000001               -0.40026079               -0.54774555                0.14924594                2.32222325                0.01217452                0.14213087
               5.00407242                5.99200821               57.06706665                0.01023067               -0.38199012               -0.52346301                0.16126746                2.40503282                0.01034243                0.21717376
               6.00029374                6.00077420               57.06972168                0.01012797               -0.33707811               -0.51495117                0.16276375                2.33083322               -0.00998769                0.31108602
               6.99733086                6.00846669               57.07236184                0.01000000               -0.20697840               -0.55232335                0.15672935                2.00361473               -0.02759839                0.42515893
               7.99615418                6.01276640               57.07515465                0.01000000               -0.03635821               -0.62895386                0.14490027                1.51058741               -0.05422261                0.53874616
               8.99660369                6.01182306               57.07794302                0.01029214                0.05342578               -0.57289239                0.14767713                0.82596132               -0.04645198                0.58264696
               9.99722269                6.00414917               57.08101213                0.01000000                0.06190004               -0.22194305                0.19974476                0.37685485               -0.00874461                0.42419183
               0.04340382                6.98757858               57.05743694                0.94934194               -0.03118964               -0.69445924                0.08790456                1.11592708               -0.01371669                0.10229013
               1.04309192                6.98151061               57.05953449                0.67382005               -0.03530609               -0.28820764                0.11954075                1.01642583               -0.02281264                0.07661460
               2.04269770                6.97544490               57.06145870                0.01000000               -0.61201500               -0.29153948                0.14496272                1.44629751               -0.02205839                0.05486868
               3.03085162                6.97585590               57.06357826                0.01000001               -0.87076246               -0.56157952                0.15062681                1.98407718                0.01569472                0.07185141
               4.02528245                6.97896220               57.06634608                0.01030567               -0.56135086               -0.55351026                0.17267904                2.09447716                0.07349903                0.11702497
               5.01962460                6.98688284               57.06951329                0.01014633               -0.54045433               -0.50521343                0.17903779                2.32784347                0.09937378                0.21579210
               6.01447336                6.99602699               57.07278494                0.01000000               -0.49124490               -0.34543632                0.18253761                2.06834134                0.10696676                0.32133731
               7.00979971                7.00357214               57.07637467                0.01000000               -0.37220991               -0.35915602                0.18002047                1.54156815                0.12982545                0.44218553
               8.00702916                7.00722040               57.08000805                0.01032281               -0.17261647               -0.44176713                0.17918176                0.94377069                0.10566032                0.56560830
               9.00634738                7.00707537               57.08306159                0.01000002               -0.05439333               -0.39998628                0.17798219                0.43036735                0.04950860                0.61110277
              10.00594129                7.00342148               57.08542944                0.01000000               -0.04060815               -0.00293385                0.19530449                0.15602983                0.02157461                0.51859655
               0.04952174                7.98731971               57.05824310                1.00000000               -0.03041272               -0.02582986                0.08694815               -0.00005848               -0.00387963                0.01505660
               1.04921762                7.98115163               57.06034015                0.99999999               -0.03519381               -0.03565322                0.11806346                0.00079138               -0.00545262                0.00330822
               2.04881787                7.97498979               57.06240681                0.30102735               -0.04878698               -0.04624839                0.15170408                0.00385470                0.02497279                0.00033847
               3.04824188                7.96888585               57.06510859                0.01000007               -0.50108625               -0.38156266                0.25068355                1.11468768                0.08455222               -0.02881798
               4.03879614                7.97360365               57.06805514                0.01000001               -0.73386880               -0.84949733                0.17978907                2.09599731                0.10894176                0.09851829
               5.03356450                7.98190394               57.07164047                0.01000000               -0.69124305               -0.27264638                0.19392269                2.15297281                0.11586025                0.22601392
               6.02497128                7.99386548               57.07573224                0.01000000               -0.82978455               -0.04439231                0.19827931                1.69845955                0.22619328                0.26413961
               7.01696881                8.00128357               57.08024112                0.01031358               -0.67224595               -0.07052262                0.20120856                0.96127726                0.29394927                0.36799326
               8.01152636                8.00393105               57.08501802                0.01000002               -0.39794276               -0.16843509                0.18722766                0.29796098                0.30037985                0.51696387
               9.00900995                8.00382333               57.08891253                0.01000002               -0.19376517               -0.23419571                0.18145699               -0.19117040                0.21464264                0.83731485
              10.00765106                8.00409049               57.09157905                0.01000001               -0.13588957               -0.08515740                0.19363800               -0.17836609                0.16426205                0.62906918
               0.05573881                8.98706198               57.05911721                1.00000000               -0.03011436               -0.02554229                0.08565652                0.00009061                0.00226703                0.01503024
               1.05543767                8.98079755               57.06117647                0.99999999               -0.03491263               -0.03543134                0.11731158               -0.00032387                0.00332577                0.00324330
               2.05504056                8.97451993               57.06324960                0.99999999               -0.04530792               -0.04614966                0.15125709               -0.00124667                0.00182870               -0.00328744
               3.05453151                8.96822464               57.06526272                0.22976032               -0.04281265               -0.06103236                0.18882685                0.00476989                0.11399731               -0.04368504
               4.05418431                8.96197225               57.06956322                0.01000000               -0.60546401               -0.61819261                0.18690881                1.74808496                0.19076356                0.01948638
               5.04242223                8.98142992               57.07341633                0.01000000               -1.25606972                0.20730769                0.20781147                1.81889892                0.21545732                0.12079734
               6.02906291                8.99513914               57.07785583                0.01029313               -1.17312790                0.21874997                0.20508041                1.01187656                0.30740284                0.15594900
               7.01895967                9.00216168               57.08293685                0.01000002               -0.93071443                0.15106598                0.20216502                0.43158996                0.43273260                0.20562049
               8.01044863                9.00385169               57.08911723                0.01082321               -0.82975710                0.11714162                0.20279912               -0.07267826                0.71425421                0.33856647
               9.00236453                9.00239145               57.09878180                1.00000000               -0.43044869               -0.09790688                0.17607744               -0.40560872                0.49826729                0.50801059
              10.00183965                9.00171833               57.09847332                0.99999994               -0.05248804               -0.14452456                0.17368230               -0.32429754               -0.00038184                0.35848126
               0.06205242                9.98680886               57.05992547                1.00000000               -0.02992275               -0.02531171                0.08493935               -0.00522597                0.01186388                0.01172624
               1.06175319                9.98044300               57.06198247                0.99999995               -0.03432896               -0.03545494                0.11670797               -0.00555142                0.01617289                0.00170208
               2.06136584                9.97406679               57.06411654                0.99999989               -0.04341203               -0.04531334                0.14748275               -0.00636185                0.01713793               -0.00195133
               3.06088495                9.96766521               57.06618482                0.99999999               -0.04066369               -0.05594356                0.17880111               -0.00600600                0.12906816               -0.00563258
               4.06055257                9.96123980               57.07055897                0.01000002               -1.20546803               -0.07324534                0.18127057                1.55606997                0.19608539               -0.00385087
               5.03677559                9.98605009               57.07431415                0.01000001               -1.80377605                0.46201747                0.19575240                1.28536977                0.20807165                0.04977159
               6.02447704                9.99824048               57.07879831                0.01000000               -0.99437685                0.31013377                0.19750414                0.45415318                0.30544601                0.08162933
               7.01688805               10.00430489               57.08392017                0.01000001               -0.73170082                0.21432103                0.19240947                0.19450839                0.50066247                0.09638309
               8.00984303               10.00627389               57.09116003                0.01000000               -0.69284565                0.24221925                0.20526195               -0.18254481                0.65595630                0.19722142
               9.00303114               10.00186519               57.09849884                0.99999994               -0.36658424               -0.05262593                0.17452867               -0.18703357                0.38273351                0.00037224
              10.00251134               10.00120000               57.09819035                0.99596014               -0.05197965               -0.05183340                0.17213027                0.00064990                0.00037429               -0.00036297
              -0.04384545                0.00121636               58.04507264                0.99695889               -0.02282699               -0.02249093                0.07235501                0.00208030               -0.00841579                0.00795267
               0.95592628               -0.00218510               58.04826651                0.99999999               -0.02397206               -0.02491765                0.08016963                0.00124625               -0.00901813               -0.00156875
               1.95567511               -0.00556817               58.05144737                0.01000000                0.04020230               -0.02737530                0.08792431                0.14681433               -0.04338264               -0.00358590
               2.95673033               -0.00602063               58.05394901                0.01073922                0.04001502               -0.00194370                0.13296539                0.08997407               -0.10816112                0.01612083
               3.95647541               -0.00200056               58.05597709                0.01000000               -0.12857127                0.05985669                0.07657592                0.29793451               -0.17649736                0.02462369
               4.95415891                0.00844094               58.05695645                0.01000000               -0.60708621                0.10885033                0.08738886                0.77073584               -0.23658444                0.03198871
               5.94433369                0.02891559               58.05723575                0.01000002               -0.55308499               -0.03275517                0.08426721                0.86358134               -0.07287844               -0.01149545
               6.94309721                0.03298011               58.06057507                0.97317423               -0.07600845               -0.02988809                0.09257188                0.08763723                0.02459254               -0.00178619
               7.94281352                0.03534246               58.06344808                1.00000000               -0.02910102               -0.03219914                0.09752517                0.00081840                0.00190677               -0.00026805
               8.94251519                0.03774069               58.06633033                0.99999997               -0.03060899               -0.03333420                0.10273945                0.00093867                0.00210264                0.00108762
               9.94220134                0.04017726               58.06920147                1.00000000               -0.03138442               -0.03495684                0.10791570               -0.00092806                0.00196658                0.00296251
              -0.04042318                1.00099145               58.04570610                1.00000000               -0.02458063               -0.02331205                0.07803381                0.00088932                0.00140517                0.00845745
               0.95933101                0.99756572               58.04890169                0.01000000               -0.02579005               -0.02580318                0.08580907                0.00003554                0.00437090               -0.00459734
               1.95906102                0.99415807               58.05215791                0.01000000               -0.17423758               -0.01928151                0.09367161                0.07527647               -0.02961246                0.01013976
               2.95584626                0.99395994               58.05467161                0.01000001               -0.34185220                0.00986023                0.12158396                0.29693872               -0.10003657                0.03763699
               3.95222398                0.99859801               58.05675846                0.01000000               -0.47190363                0.04485981                0.09339971                0.65620722               -0.14572625                0.03331289
               4.94640819                1.00952944               58.05806491                0.01000000               -0.57620295                0.01264798                0.10745669                1.24190275               -0.23496357                0.04562981
               5.94069992                1.02858804               58.05800134                0.01000001               -0.28240233               -0.44718972                0.11341820                1.18945652               -0.15673310                0.09640381
               6.94076014                1.03268123               58.06085402                0.90664269               -0.01292518               -0.03161804                0.10558378                0.08837110               -0.00048091               -0.00206820
               7.94044141                1.03502047               58.06373172                0.99999999               -0.03264862               -0.03474568                0.11112918               -0.00028261                0.00083451                0.00009082
               8.94010717                1.03740735               58.06661400                0.99999999               -0.03429597               -0.03495374                0.11575997                0.00166642                0.00064509                0.00182440
               9.93975549                1.03982769               58.06948742                0.99881467               -0.03516774               -0.03749523                0.12083667               -0.00000972                0.00036529                0.00431760
              -0.03697620                2.00075012               58.04635236                0.01000002               -0.02634280                0.09041037                0.08375082                0.08114699                0.00349645                0.10607380
               0.96276037                1.99729884               58.04947477                0.01000000               -0.11186861               -0.04808832                0.09138063                0.05272815                0.03032693                0.08045611
               1.96078643                1.99404620               58.05313740                0.01000001               -0.22656028               -0.06575795                0.10072081                0.21228997                0.01315932                0.05534723
               2.95822917                1.99417658               58.05582142                0.01000000               -0.33781888               -0.05406650                0.10903291                0.67472499               -0.05387527                0.06271209
               3.95403005                1.99889664               58.05801299                0.01000000               -0.46111180               -0.05892786                0.11680699                1.18424590               -0.10463336                0.06298205
               4.94900693                2.00869390               58.05960313                0.01000001               -0.45295100               -0.21451593                0.12304569                1.60972261               -0.14845972                0.08849981
               5.94497103                2.01997180               58.06094886                0.01000000               -0.52873665               -0.63064606                0.12841956                1.75883760               -0.22217985                0.16973395
               6.93843220                2.03234775               58.06112911                0.01000000               -0.34446426               -0.38121788                0.12053952                1.02652246               -0.13444721                0.14001985
               7.93808175                2.03464754               58.06402290                0.60554306               -0.03454548               -0.03659642                0.11827431                0.00236417                0.00054618                0.00446170
               8.93774129                2.03704162               58.06691005                0.99999999               -0.03606401               -0.03626407                0.12416849                0.00747027                0.00003114                0.00187467
               9.93736047                2.03942735               58.06979496                0.99999999               -0.03808230               -0.04211850                0.13586811                0.00218451               -0.00022900                0.00421663
              -0.03189767                3.00279966               58.04894315                0.01021011               -0.10128308                0.19292111                0.10350992                0.08955731                0.00467293                0.20265610
               0.96708950                2.99660396               58.05181130                0.01000001               -0.08366274               -0.12110163                0.09458776                0.20428960                0.00432691                0.15885218
               1.96642908                2.99284292               58.05466844                0.01000000               -0.12995910               -0.20808346                0.10072008                0.60365770               -0.00185010                0.09882252
               2.96449032                2.99287861               58.05734962                0.01000000               -0.25187521               -0.21720423                0.11171093                1.08989518               -0.03013842                0.08899021
               3.96139157                2.99741945               58.05964839                0.01026782               -0.34814163               -0.24570999                0.12369034                1.56195949               -0.07407030                0.09518534
               4.95752749                3.00523912               58.06156910                0.01000000               -0.45843781               -0.35361118                0.13398467                1.94531385               -0.13322200                0.12226893
               5.95222282                3.01597512               58.06295798                0.01000001               -0.54563213               -0.43805135                0.13831539                2.00249563               -0.18650376                0.15367889
               6.94661484                3.02505687               58.06425850                0.01000001               -0.82139946               -0.57169675                0.14137574                2.00621616               -0.26418103                0.21733595
               7.93579483                3.03428854               58.06440236                0.01010824               -0.55690384               -0.36425984                0.01474177                1.53171465               -0.13841950                0.12753395
               8.93547677                3.03668207               58.06719920                0.01000000               -0.03835582               -0.44118697                0.12922830                1.12103168               -0.00596437                0.11647349
               9.93502771                3.03898532               58.07008012                0.99999998               -0.04490556               -1.07927139                0.15165295                1.29347278               -0.00237971                0.40936787
              -0.02279364                4.00460854               58.05131620                0.01000000               -0.04034458                0.09788497                0.12292323                0.21656250                0.00057157                0.19156244
               0.97680291                3.99487680               58.05395942                0.01000000               -0.03107112               -0.26036892                0.10425169                0.50807909                0.00405032                0.15543344
               1.97658493                3.98988453               58.05661112                0.01000000               -0.06761886               -0.37331326                0.10307467                1.02126859                0.00061231                0.12398799
               2.97545053                3.98983249               58.05918843                0.01026511               -0.18381048               -0.37683596                0.11525135                1.49200103               -0.01851598                0.11153022
               3.97290873                3.99398244               58.06155121                0.01000000               -0.30464942               -0.40626554                0.13011507                1.92110420               -0.05469775                0.12522951
               4.96935755                4.00162167               58.06364624                0.01000001               -0.38527643               -0.41484586                0.14242064                2.22080848               -0.10959297                0.15957730
               5.96520320                4.01121077               58.06538311                0.01000001               -0.45572218               -0.48824965                0.14779128                2.40331894               -0.19824664                0.21491271
               6.96024310                4.02091381               58.06656525                0.01034701               -0.40561767               -0.50272695                0.13667252                2.35961224               -0.33772662                0.25974610
               7.95709084                4.02736235               58.06724924                0.01000001               -0.23889801               -0.69468435                0.08550329                2.34532789               -0.51819749                0.37704873
               8.95546514                4.02821788               58.06979123                0.01000000                0.07662888               -0.80112441                0.05492680                1.50435830               -0.88134892                0.82244220
               9.95862342                4.01784193               58.07849734                0.01000002                0.31582785               -1.45565577                0.03042780                1.04450341               -0.77303040                1.37790864
              -0.00810294                5.00475736               58.05371216                0.01000000                0.00780353               -0.20156366                0.13484307                0.43144608               -0.00263245                0.17752838
               0.99197510                4.99139658               58.05621217                0.01000000                0.00008481               -0.43443401                0.11624295                0.90282392               -0.00438530                0.15675606
               1.99189876                4.98537665               58.05868850                0.01000001               -0.08713358               -0.49348533                0.11152238                1.45415463               -0.00441711                0.13198917
               2.99023243                4.98534189               58.06116521                0.01000000               -0.19371420               -0.52455074                0.12306861                1.90300762               -0.00653993                0.12692005
               3.98802448                4.98929414               58.06366301                0.01000001               -0.27585496               -0.49495853                0.13869252                2.20569284               -0.02213057                0.15029919
               4.98471533                4.99694221               58.06605225                0.01000001               -0.35137100               -0.49316328                0.15238684                2.44911306               -0.06461730                0.20723480
               5.98099706                5.00621012               58.06819817                0.01025820               -0.35299090               -0.51388440                0.15822286                2.51134015               -0.14383801                0.28564338
               6.97765551                5.01500233               58.06995387                0.01016885               -0.27998669               -0.59466507                0.14988105                2.39908651               -0.24969098                0.40183979
               7.97539732                5.02039485               58.07178098                0.01000000               -0.12855776               -0.67647933                0.14045014                2.04741448               -0.38382641                0.60224368
               8.97508436                5.02065958               58.07391516                0.01000000                0.06361813               -0.74522467                0.10239686                1.34003066               -0.36015031                0.85719364
               9.97666969                5.00987220               58.07820167                0.01000000                0.15853295               -0.66063370                0.14519190                0.67880048               -0.17187025                0.47966425
               0.01255684                6.00057727               58.05605651                0.01000002                0.16832563               -0.89312541                0.13436066                1.01666350               -0.01033430                0.16098978
               1.01424010                5.98618812               58.05846575                0.01000001               -0.04170622               -0.53348586                0.12633601                1.40772140               -0.01822209                0.15202747
               2.01172272                5.98001482               58.06079764                0.01000000               -0.23234526               -0.54150782                0.12679050                2.07734530               -0.01117052                0.12957480
               3.00959319                5.97934148               58.06326160                0.01000001               -0.31502279               -0.52488762                0.13808564                2.11405676                0.00578698                0.11500110
               4.00542226                5.98408327               58.06588024                0.01000001               -0.40846844               -0.54855473                0.15245744                2.36939296                0.01987123                0.16209244
               5.00142383                5.99175841               58.06868414                0.01025118               -0.40261950               -0.50491903                0.16478400                2.47166053                0.00573107                0.23421880
               5.99736987                6.00093308               58.07135682                0.01014791               -0.36918598               -0.49347116                0.17081575                2.41135735               -0.03663365                0.33490533
               6.99404011                6.00902051               58.07395724                0.01000000               -0.24939943               -0.54021605                0.17165744                2.12677331               -0.08785613                0.47623081
               7.99238188                6.01383276               58.07658868                0.01000000               -0.06258521               -0.61342425                0.16435590                1.67136038               -0.12378016                0.63363945
               8.99278840                6.01331338               58.07942119                0.01040519                0.06961488               -0.63986247                0.17504390                0.98263026               -0.07492956                0.71097764
               9.99377418                6.00462925               58.08305932                0.01000000                0.09857802               -0.32283007                0.20437610                0.47884397               -0.00213871                0.51393409
               0.04100863                6.98689485               58.05832067                0.95418553               -0.03166529               -0.69727274                0.08952620                1.11658030               -0.01335549                0.08494884
               1.04069198                6.98072686               58.06073758                0.62982243               -0.03581591               -0.29093920                0.12039826                1.01635866               -0.02645375                0.07463381
               2.04029231                6.97454649               58.06290171                0.01000000               -0.61234311               -0.29585076                0.14479296                1.44587986               -0.04126930                0.06796597
               3.02844511                6.97484413               58.06501922                0.01000000               -0.86484533               -0.59051025                0.15992565                2.02624954                0.01479916                0.13859636
               4.02299541                6.97832305               58.06810454                0.01032706               -0.55731931               -0.54672329                0.16733290                2.15810704                0.07321843                0.12642328
               5.01729873                6.98684382               58.07124983                0.01017550               -0.55166529               -0.47025745                0.17468634                2.36667760                0.08524677                0.23078290
               6.01196210                6.99634070               58.07459702                0.01000000               -0.50037158               -0.34297058                0.18379555                2.13932706                0.09251571                0.34440325
               7.00729130                7.00419801               58.07817788                0.01000000               -0.37152205               -0.36122615                0.18672468                1.64437449                0.10300556                0.48281392
               8.00453166                7.00812637               58.08182802                0.01043110               -0.16754136               -0.45965585                0.19196886                1.06844417                0.07656739                0.61253393
               9.00394047                7.00786233               58.08487961                0.01000002               -0.04584140               -0.44546452                0.19169154                0.51386770                0.02657259                0.64969211
              10.00361483                7.00341560               58.08736574                0.01000000               -0.03256397               -0.03812952                0.20048049                0.19412964                0.00768654                0.52260104
               0.04722443                7.98663182               58.05911658                1.00000000               -0.03088011               -0.02614696                0.08820279                0.00018206               -0.00522679                0.01400963
               1.04691563                7.98036934               58.06151887                0.99999998               -0.03506946               -0.03559730                0.11844225                0.00063035               -0.00495189                0.00263851
               2.04652304                7.97409781               58.06394055                0.53678375               -0.02869998               -0.04487433                0.14783265               -0.01372941                0.07335875                0.00547567
               3.04634163                7.96753127               58.06792139                0.01000007               -0.49691647               -0.37764824                0.15892153                1.14912511                0.04419667                0.01206442
               4.03658471                7.97314880               58.06961980                0.01000001               -0.78009533               -0.86583806                0.17712990                2.19595988                0.05475654                0.11449424
               5.03073972                7.98235326               58.07351144                0.01000000               -0.68912424               -0.27083217                0.18578211                2.19656300                0.15038158                0.21499416
               6.02280223                7.99407367               58.07764771                0.01000000               -0.77988966               -0.05394304                0.19151048                1.73798195                0.22287261                0.29042954
               7.01514193                8.00179599               58.08224789                0.01041760               -0.63578900               -0.08663023                0.20220759                1.04182126                0.27810394                0.39733504
               8.01008645                8.00463964               58.08690546                0.01000002               -0.36827061               -0.19591863                0.19385090                0.38242946                0.27329933                0.54015626
               9.00777652                8.00440409               58.09074033                0.01000003               -0.17681085               -0.25880446                0.18753542               -0.10161509                0.20392620                0.84122012
              10.00655023                8.00386666               58.09352019                0.01000001               -0.12262878               -0.07051951                0.19673245               -0.12667309                0.16335385                0.61862118
               0.05353722                8.98637191               58.05997304                0.99999997               -0.02986315               -0.02578877                0.08640973                0.00024618                0.00096984                0.01367901
               1.05323859                8.98001491               58.06234626                0.99999999               -0.03407176               -0.03544041                0.11681864                0.00053186                0.00327074                0.00381478
               2.05285579                8.97364901               58.06476811                0.99999999               -0.04309871               -0.04477865                0.14850864                0.00096580                0.00721920               -0.00304925
               3.05237662                8.96729117               58.06718713                0.30398813               -0.03815868               -0.03962178                0.18548424               -0.01018561                0.11256100               -0.08664064
               4.05209262                8.96100629               58.07165058                0.01000000               -0.60357478               -0.64603236                0.20906030                1.80308282                0.17625010                0.05718110
               5.04030512                8.98142718               58.07532761                0.01000000               -1.24068039                0.17076156                0.19561722                1.90410548                0.20222450                0.12419778
               6.02727901                8.99526184               58.07993019                0.01040458               -1.13716879                0.20617510                0.20581092                1.04386600                0.30122802                0.17335845
               7.01756175                9.00246541               58.08497373                0.01000002               -0.88534326                0.12853202                0.20539634                0.47221259                0.42564829                0.21898745
               8.00957214                9.00420799               58.09111185                0.01040225               -0.74402986                0.07824007                0.19033545               -0.04488732                0.71965707                0.35874820
               9.00268115                9.00268624               58.10054270                1.00000000               -0.37079545               -0.11222698                0.17609832               -0.33120623                0.48778174                0.50538674
              10.00215623                9.00200521               58.10020978                1.00000000               -0.05249166               -0.11897868                0.17359878               -0.25383152               -0.00037745                0.34900233
               0.05994335                9.98611604               58.06077088                1.00000000               -0.02941780               -0.02558723                0.08546052               -0.00493835                0.00986456                0.01025224
               1.05964917                9.97966053               58.06314736                0.99976303               -0.03386237               -0.03543841                0.11589310               -0.00463238                0.01320059                0.00243635
               2.05926610                9.97320223               58.06558785                1.00000000               -0.04342670               -0.04467740                0.14716367               -0.00505327                0.01498459               -0.00255654
               3.05878064                9.96673884               58.06796591                0.99999999               -0.03778734               -0.05523324                0.18257098               -0.00830183                0.12670524               -0.01331090
               4.05851036                9.96022816               58.07263947                0.01000001               -1.21071794               -0.07781301                0.20807894                1.59325677                0.19284853               -0.00370583
               5.03456628                9.98576849               58.07631793                0.01000001               -1.79345170                0.43413088                0.20356807                1.32456640                0.18476255                0.06264632
               6.02264132                9.99819717               58.08083894                0.01000001               -0.94631252                0.29353307                0.20795435                0.46613847                0.29163340                0.08604417
               7.01564003               10.00436663               58.08590943                0.01000001               -0.68367283                0.19012234                0.20375935                0.20819193                0.49899157                0.09784567
               8.00896787               10.00620445               58.09315886                0.01000000               -0.61424275                0.19964519                0.18971841               -0.17078142                0.67374521                0.20666762
               9.00335518               10.00215955               58.10024451                1.00000000               -0.30661037               -0.05266873                0.17460602               -0.16846543                0.37134325                0.00039603
              10.00283566               10.00148709               58.09991151                0.99608990               -0.05195161               -0.05181250                0.17212284                0.00069581                0.00032039               -0.00037831
              -0.04716286                0.00063437               59.04579699                0.99792881               -0.02277472               -0.02264259                0.07260944                0.00202224               -0.00829829                0.00801427
               0.95260939               -0.00286467               59.04906642                0.99999999               -0.02377857               -0.02479816                0.07953860                0.00114714               -0.00890964               -0.00168679
               1.95236157               -0.00634391               59.05232212                0.01000001                0.03601836               -0.02695480                0.08643738                0.12905857               -0.02151322               -0.00362577
               2.95332976               -0.00724369               59.05533208                0.01000001                0.06304773                0.01901442                0.07428029                0.17535884               -0.10900843               -0.05146689
               3.95362252               -0.00283350               59.05663145                0.01000000               -0.10445730                0.05547702                0.08756148                0.30829368               -0.17483913                0.02061644
               4.95124061                0.00751759               59.05781820                0.01000000               -0.58997469                0.10377713                0.08930090                0.75904518               -0.21941648                0.02377229
               5.94182303                0.02787802               59.05807849                0.01000003               -0.55148359               -0.03401187                0.08374772                0.84364679               -0.06111649               -0.01699213
               6.94021094                0.03262429               59.06149921                0.97226951               -0.09466569               -0.02989253                0.09188225                0.12169972                0.02618209               -0.00136630
               7.93992972                0.03499442               59.06441969                1.00000000               -0.02881590               -0.03117091                0.09652072                0.00073586                0.00204920                0.00069663
               8.93963462                0.03740859               59.06735235                0.99958950               -0.03018048               -0.03243339                0.10114411                0.00073667                0.00242949                0.00173404
               9.93932611                0.03986687               59.07027303                0.99992337               -0.03085182               -0.03423769                0.10564717               -0.00144815                0.00246701                0.00420809
              -0.04364359                1.00040795               59.04648922                0.99999999               -0.02463991               -0.02351008                0.07868332                0.00096837                0.00157772                0.00852599
               0.95611001                0.99688735               59.04975977                0.01000000               -0.02573706               -0.02574510                0.08565284                0.00009821                0.00458265               -0.00471279
               1.95584167                0.99338654               59.05309257                0.01000000               -0.13909322               -0.02374170                0.09267813                0.07673650               -0.01799118                0.01135744
               2.95332814                0.99294645               59.05590815                0.01000001               -0.32584236                0.02760217                0.10675504                0.31210196               -0.03787264               -0.02296073
               3.94932482                0.99772127               59.05777234                0.01000000               -0.49264194                0.04151229                0.11125517                0.65597595               -0.12954597                0.02972994
               4.94347530                1.00855536               59.05915255                0.01000000               -0.58093342                0.01050771                0.11496637                1.23253279               -0.22027065                0.03767066
               5.93770615                1.02753790               59.05916212                0.01000001               -0.28027823               -0.43992079                0.12095107                1.19604680               -0.16332130                0.08310569
               6.93786974                1.03232536               59.06191406                0.90249022               -0.00806150               -0.03220801                0.10679228                0.12363198               -0.00731552               -0.00045722
               7.93754492                1.03468271               59.06484548                0.99999995               -0.03319866               -0.03311061                0.11100134               -0.00006697                0.00074903               -0.00164493
               8.93720577                1.03708426               59.06777124                0.99999999               -0.03457853               -0.03426378                0.11536046                0.00023790               -0.00014947                0.00062144
               9.93685335                1.03952449               59.07069290                0.99845337               -0.03524171               -0.03676296                0.12014347               -0.00182943               -0.00043692                0.00725211
              -0.04010229                2.00016417               59.04719495                0.01047501               -0.02649415                0.09826507                0.08481821                0.09384194                0.00349400                0.11151589
               0.95963277                1.99662043               59.05038980                0.01000000               -0.10302562               -0.05498165                0.09166071                0.06477400                0.03164732                0.07812256
               1.95783719                1.99318125               59.05415350                0.01000001               -0.21978478               -0.06954612                0.10070241                0.22751908                0.03321524                0.03559616
               2.95523707                1.99330835               59.05694429                0.01000000               -0.33520316               -0.04840727                0.11437636                0.66256571               -0.03821203                0.03096054
               3.95113313                1.99799674               59.05921995                0.01000000               -0.45812174               -0.06060483                0.12516771                1.18364319               -0.08687050                0.05392224
               4.94607464                2.00772774               59.06088036                0.01000001               -0.45795824               -0.21032049                0.13400647                1.60842973               -0.13669424                0.07916260
               5.94197397                2.01907960               59.06226602                0.01000000               -0.52679315               -0.61571911                0.13662781                1.77773692               -0.22443951                0.15969135
               6.93553877                2.03198012               59.06234628                0.01000000               -0.34022455               -0.39935916                0.12187087                1.03432688               -0.14455572                0.14727399
               7.93516948                2.03433221               59.06520852                0.36573180               -0.03705858               -0.02673977                0.12463337               -0.00592318               -0.00311110               -0.05173862
               8.93479760                2.03672332               59.06815306                1.00000000               -0.03802116               -0.03785486                0.12873306                0.00161793                0.00075616               -0.00363459
               9.93440905                2.03913161               59.07115728                0.99999999               -0.03885481               -0.04147429                0.13515974               -0.00164360                0.00256052                0.00968954
              -0.03467927                3.00237325               59.04995362                0.01066468               -0.09323282                0.19405196                0.08959513                0.07716196               -0.00391694                0.19540173
               0.96438841                2.99578771               59.05274080                0.01000001               -0.08083055               -0.12335045                0.08653827                0.21396602                0.02042314                0.14254854
               1.96370412                2.99199561               59.05567600                0.01000000               -0.13122201               -0.20810031                0.10222775                0.62169471                0.02429935                0.07523899
               2.96176397                2.99197830               59.05849887                0.01000000               -0.25629183               -0.21759455                0.11798683                1.10775338               -0.00205576                0.06810494
               3.95857829                2.99650917               59.06092983                0.01027272               -0.36014648               -0.24209350                0.13328022                1.57112408               -0.05146904                0.08076992
               4.95456104                3.00434895               59.06295818                0.01000000               -0.47848900               -0.34071576                0.14466583                1.94987420               -0.11764512                0.11241431
               5.94900851                3.01522352               59.06440464                0.01000001               -0.56286818               -0.42119587                0.15127568                1.98725566               -0.17817368                0.14860915
               6.94330367                3.02433818               59.06572879                0.01000000               -0.81626224               -0.56472281                0.14562163                1.95878829               -0.31302875                0.22093863
               7.93268326                3.03414792               59.06461865                0.01019050               -0.54324756               -0.37245768                0.11897913                1.30313272               -0.15711552                0.13133630
               8.93243872                3.03632716               59.06849168                0.04953012               -0.03396844                0.01758902                0.14132819                0.11209832                0.04370602                0.10513669
               9.93200389                3.03869501               59.07160688                0.99999997               -0.04348287               -0.07129303                0.14996492                0.12033147                0.00542260                0.14597217
              -0.02538799                4.00404521               59.05251551                0.01000000               -0.03222966                0.08594812                0.10768574                0.21721112                0.00879684                0.18955416
               0.97428972                3.99415342               59.05496697                0.01000000               -0.02657589               -0.25639626                0.09440977                0.50500129                0.02442733                0.14054444
               1.97408050                3.98901924               59.05764796                0.01000000               -0.07055680               -0.37220402                0.10242657                1.02817083                0.03698804                0.10450259
               2.97287858                3.98895646               59.06036180                0.01026999               -0.19477654               -0.37257176                0.11992193                1.50639229                0.01797927                0.09583519
               3.97018497                3.99315487               59.06289026                0.01000000               -0.32604062               -0.39575545                0.13848607                1.93888878               -0.02560017                0.11531428
               4.96635777                4.00091343               59.06512704                0.01000001               -0.42275560               -0.39450240                0.15423662                2.23682847               -0.09074417                0.15400556
               5.96172985                4.01065569               59.06695248                0.01000001               -0.52838143               -0.45791766                0.16618755                2.41502649               -0.18944103                0.21247140
               6.95579014                4.02068567               59.06813016                0.01036873               -0.62433555               -0.45373836                0.17538191                2.30333350               -0.33436451                0.25982122
               7.94924314                4.02688305               59.06875035                0.01000001               -1.16488329               -0.58215089                0.22218703                2.61210607               -0.50997600                0.42779437
               8.93249248                4.03707510               59.07112500                0.01000000               -0.85815746               -0.51400145                0.08872982                2.29855952               -1.06401784                0.72476974
               9.93207999                4.03770575               59.07478079                0.01000001               -0.04124815               -1.29016848               -0.17064629                2.01517024               -1.16501852                1.39682463
              -0.01055146                5.00409221               59.05516753                0.01000003                0.00658539               -0.21125126                0.16025056                0.42826308                0.00584461                0.18327825
               0.98951440                4.99065979               59.05739474                0.01000000                0.00079780               -0.43612467                0.10960533                0.89097266                0.01473802                0.15373386
               1.98946450                4.98455153               59.05979532                0.01000001               -0.08791059               -0.49101913                0.10307110                1.45022568                0.03115938                0.12545721
               2.98775618                4.98452687               59.06240982                0.01000000               -0.20327033               -0.51965017                0.12380649                1.91373607                0.03183526                0.12369094
               3.98539909                4.98859406               59.06507702                0.01000001               -0.29796968               -0.48403491                0.14507199                2.23277510                0.00726762                0.15102473
               4.98179679                4.99645890               59.06762871                0.01000001               -0.39311476               -0.47092174                0.16380568                2.49118951               -0.04636508                0.20779247
               5.97753680                5.00606517               59.06987966                0.01027372               -0.43269080               -0.47911128                0.17822919                2.56813108               -0.13631514                0.28676449
               6.97314298                5.01526341               59.07166996                0.01020635               -0.45004221               -0.54591811                0.19413801                2.54957303               -0.24771385                0.40282513
               7.96853595                5.02250490               59.07351595                0.01000000               -0.27778793               -0.57454572                0.19910423                2.48776069               -0.39783100                0.61603627
               8.96758722                5.02604713               59.07544476                0.01000000                0.12550219               -1.09984704                0.22654111                2.32643626               -0.34522575                0.83836059
               9.97104600                5.01289164               59.08037242                0.01000001                0.34587797               -1.62209851                0.19822996                1.57563262               -0.13222791                0.69929126
               0.01004212                5.99982018               59.05751102                0.01000002                0.16077264               -0.89373623                0.17823542                1.00379079               -0.01523261                0.11017206
               1.01164985                5.98543092               59.05976059                0.01000001               -0.04120957               -0.53548110                0.12772058                1.39230403               -0.01923605                0.14735747
               2.00921793                5.97919886               59.06206069                0.01000000               -0.22695348               -0.54451151                0.11754086                2.06293516                0.00439182                0.14388944
               3.00711078                5.97856345               59.06462426                0.01000001               -0.31547473               -0.52794168                0.13394300                2.12319519                0.03106152                0.13898789
               4.00290843                5.98347417               59.06743310                0.01000001               -0.42001609               -0.54214804                0.15651659                2.40243226                0.03933758                0.16828473
               4.99871046                5.99149499               59.07036233                0.01026863               -0.43102324               -0.48938499                0.17282239                2.53197783                0.01658109                0.23747097
               5.99428797                6.00107346               59.07313800                0.01017677               -0.41842927               -0.47205015                0.18662767                2.50655735               -0.03157115                0.33671517
               6.99034187                6.00976731               59.07579499                0.01000000               -0.30366688               -0.51628190                0.19610779                2.29022572               -0.08959047                0.48060441
               7.98821463                6.01539214               59.07844177                0.01000000               -0.08537045               -0.66753005                0.20791149                1.93168355               -0.11923950                0.63931870
               8.98863446                6.01507816               59.08144389                0.01052898                0.08445039               -0.86485371                0.22069168                1.18127651               -0.07266906                0.71184787
               9.98990364                6.00526378               59.08509965                0.01000000                0.12691787               -0.47394984                0.21378666                0.52240063               -0.01428185                0.48073578
               0.03830288                6.98621749               59.05922747                0.96072669               -0.03210815               -0.69363261                0.09205302                1.10179370               -0.01317441                0.05733620
               1.03798180                6.97995017               59.06194245                0.58135455               -0.03561051               -0.29176035                0.12068114                1.00442909               -0.02872996                0.07014275
               2.03759067                6.97366130               59.06435456                0.01000000               -0.60185110               -0.29829821                0.14266380                1.43412301               -0.04262380                0.07782051
               3.02594478                6.97396804               59.06677678                0.01000000               -0.85372362               -0.58021121                0.16024726                2.02127896                0.00866365                0.10471749
               4.02051620                6.97775110               59.06969274                0.01034707               -0.55538583               -0.55633398                0.16339715                2.20479778                0.06255761                0.14585076
               5.01483706                6.98667120               59.07300701                0.01019893               -0.55602833               -0.46844760                0.17981217                2.43534149                0.09308891                0.22620235
               6.00939563                6.99662416               59.07646085                0.01000000               -0.51041248               -0.33662857                0.19098343                2.23354425                0.10071542                0.34265566
               7.00462881                7.00493777               59.08010916                0.01000000               -0.37684300               -0.36664426                0.20013649                1.77306991                0.10645101                0.48936718
               8.00185877                7.00915430               59.08384743                0.01054489               -0.16438520               -0.49708935                0.21140595                1.20487793                0.07575420                0.61456730
               9.00134111                7.00875006               59.08689542                0.01000002               -0.03680027               -0.50467580                0.21117522                0.60488184                0.02161895                0.63554303
              10.00112277                7.00341264               59.08943905                0.01000000               -0.02183410               -0.08224526                0.21059506                0.23899754                0.00245415                0.50635838
               0.04461263                7.98594753               59.06000715                1.00000000               -0.03180239               -0.02681107                0.09075640                0.00026257               -0.00532361                0.01262594
               1.04429461                7.97959572               59.06270900                0.99999998               -0.03650570               -0.03524057                0.11858278                0.00057865               -0.00824140                0.00131822
               2.04388252                7.97323290               59.06536346                0.50956991               -0.04240245               -0.04248308                0.14171132                0.00584595                0.00292688                0.00747476
               3.04344656                7.96695923               59.06828702                0.01015584               -0.47906485               -0.37603637                0.08384710                1.15350434                0.02214438                0.03063033
               4.03430122                7.97234749               59.07159774                0.01000001               -0.74511690               -0.88274508                0.17868708                2.21097201                0.11019672                0.10874743
               5.02854422                7.98212604               59.07535611                0.01000000               -0.68044679               -0.27819080                0.18736865                2.26717201                0.17313208                0.18872079
               6.02069229                7.99434089               59.07956245                0.01000000               -0.76355442               -0.06045457                0.19459572                1.81770525                0.23610930                0.29527698
               7.01327313                8.00243442               59.08428528                0.01053062               -0.60961925               -0.10289416                0.20643160                1.13858191                0.28076273                0.40494125
               8.00849990                8.00545035               59.08889504                0.01000002               -0.33996900               -0.21905181                0.20139231                0.49821217                0.26272056                0.53036509
               9.00647375                8.00498464               59.09266324                0.01000004               -0.15707361               -0.28775263                0.19776140               -0.00751761                0.19940693                0.82486850
              10.00535843                8.00361887               59.09551370                0.01000000               -0.11153247               -0.05527947                0.20319330               -0.06781784                0.16262387                0.59596846
               0.05101176                8.98568126               59.06084540                0.99961946               -0.03037577               -0.02646568                0.08909731                0.00061498               -0.00037377                0.01231178
               1.05070801                8.97924535               59.06351285                0.99999999               -0.03338444               -0.03530957                0.11656384                0.00180011                0.00082059                0.00259144
               2.05034408                8.97281164               59.06621978                1.00000000               -0.04038692               -0.04283539                0.14222820                0.00832064                0.00588124                0.00064949
               3.04990027                8.96644731               59.06897240                0.39916661               -0.03876242               -0.05589044                0.18078237                0.01027141                0.11410931               -0.01284465
               4.04956883                8.96009620               59.07374443                0.01000000               -0.58565813               -0.65798018                0.19807915                1.82081898                0.16930818                0.04417890
               5.03818711                8.98110739               59.07732867                0.01000000               -1.20637347                0.15981752                0.19406563                1.95230101                0.19554801                0.11277305
               6.02544136                8.99541507               59.08197205                0.01052930               -1.09480596                0.19014853                0.20585440                1.08992108                0.29982883                0.17828900
               7.01629099                9.00287989               59.08704478                0.01000002               -0.80842818                0.09779920                0.20380371                0.53165129                0.41811522                0.22258824
               8.00927279                9.00477326               59.09292393                0.01000000               -0.66343765                0.04314327                0.18879220                0.02990351                0.72042085                0.35391986
               9.00302223                9.00299501               59.10230377                1.00000000               -0.33874246               -0.12575728                0.17618056               -0.26173068                0.48659273                0.49825968
              10.00249794                9.00230705               59.10194529                0.99999999               -0.05242888               -0.09149523                0.17353069               -0.17752978               -0.00040528                0.33685587
               0.05749675                9.98541822               59.06163468                0.99993814               -0.02965189               -0.02630451                0.08828212               -0.00437061                0.00695701                0.00891245
               1.05720023                9.97888952               59.06430033                0.99943891               -0.03248867               -0.03558294                0.11565473               -0.00287877                0.01073566                0.00190995
               2.05684698                9.97237619               59.06705981                0.99999998               -0.04164000               -0.04354522                0.14295045               -0.00211487                0.01747931                0.00081439
               3.05636743                9.96584142               59.06983624                1.00000000               -0.03947276               -0.06058867                0.18862687               -0.01269851                0.12883329               -0.00384720
               4.05605752                9.95918789               59.07472055                0.01000001               -1.20480315               -0.09083079                0.19706403                1.62291816                0.18678370                0.01228500
               5.03227137                9.98532239               59.07838551                0.01000001               -1.76696577                0.42150049                0.20188460                1.35622492                0.17836447                0.05269499
               6.02071821                9.99814386               59.08295740                0.01000001               -0.88616997                0.27287890                0.21545488                0.48108567                0.28386078                0.08679002
               7.01454797               10.00439041               59.08799536                0.01000001               -0.58676776                0.15105170                0.20567074                0.23416632                0.48514426                0.09386662
               8.00898285               10.00631322               59.09495440                0.01000000               -0.54213102                0.15399577                0.19283241               -0.12503954                0.68968834                0.20982703
               9.00370535               10.00246950               59.10199096                0.99999999               -0.28995532               -0.05255107                0.17467095               -0.15790074                0.36991568                0.00026760
              10.00318375               10.00178897               59.10163281                0.99622948               -0.05216038               -0.05180812                0.17202437                0.00052751                0.00061761               -0.00031559
              -0.05055027               -0.00000780               60.04652483                0.99895396               -0.02267633               -0.02281787                0.07278673                0.00198260               -0.00843514                0.00782814
               0.94922296               -0.00360553               60.04985729                0.99999999               -0.02352667               -0.02463778                0.07873375                0.00094687               -0.00902560               -0.00173193
               1.94897919               -0.00718158               60.05317612                0.01000000                0.05089359               -0.02645777                0.08471329                0.12753398               -0.06238546               -0.00357550
               2.95024084               -0.00820210               60.05543461                0.01000000                0.07566574                0.00906043                0.06878448                0.18239794               -0.08966621                0.05961514
               3.95049251               -0.00387002               60.05772832                0.01000000               -0.09586529                0.04741212                0.10456878                0.31210386               -0.15317886                0.01228560
               4.94832353                0.00624769               60.05874247                0.01000000               -0.55310756                0.09730073                0.09924798                0.74287182               -0.23100812                0.01460019
               5.93943036                0.02640849               60.05891070                0.01000003               -0.55219389               -0.03458560                0.08329408                0.81793098               -0.04428268               -0.02821955
               6.93727965                0.03212307               60.06241272                0.97117522               -0.12144971               -0.02980584                0.09114609                0.16989824                0.02836387               -0.00105386
               7.93700136                0.03450480               60.06537849                1.00000000               -0.02846094               -0.03060711                0.09507936                0.00051077                0.00228807               -0.00014126
               8.93671043                0.03693758               60.06835322                0.99918087               -0.02960251               -0.03185149                0.09894180                0.00047751                0.00254080                0.00122891
               9.93640931                0.03942169               60.07131441                0.99998887               -0.03011205               -0.03332076                0.10273818               -0.00217611                0.00257969                0.00456670
              -0.04693272                0.99976402               60.04727977                1.00000000               -0.02479556               -0.02380793                0.07960299                0.00112095                0.00159105                0.00837752
               0.95281932                0.99614810               60.05061474                0.01000000               -0.02572281               -0.02571113                0.08558223                0.00008152                0.00454493               -0.00481822
               1.95255282                0.99255384               60.05401147                0.01000000               -0.12051428               -0.03218676                0.09145174                0.08287259               -0.02228644                0.01204889
               2.95040903                0.99188851               60.05680671                0.01000000               -0.30820831                0.02035799                0.09820437                0.31039499               -0.07747631                0.03423453
               3.94638865                0.99660410               60.05898356                0.01000000               -0.48980191                0.03438094                0.12427337                0.65981295               -0.11487490                0.01358264
               4.94061300                1.00722070               60.06036423                0.01000000               -0.58583377                0.01119149                0.12835194                1.21809913               -0.20867499                0.02319514
               5.93467198                1.02606263               60.06042036                0.01000001               -0.28412603               -0.42426915                0.13356447                1.20951390               -0.17081846                0.05988989
               6.93493048                1.03182501               60.06298987                0.90070993               -0.00363817               -0.03222827                0.10799416                0.17275136               -0.01944165               -0.00108008
               7.93459921                1.03419873               60.06595174                1.00000000               -0.03368542               -0.03325979                0.11141438                0.00027194                0.00011628               -0.00051731
               8.93425677                1.03661907               60.06892121                0.99999999               -0.03478841               -0.03445482                0.11532441               -0.00065168                0.00027775                0.00127026
               9.93390345                1.03908848               60.07189029                0.99807127               -0.03533211               -0.03572644                0.11925201               -0.00336285                0.00025220                0.00691091
              -0.04329601                1.99951604               60.04804873                0.01000001               -0.02692210                0.08115560                0.08641133                0.10553886                0.00353356                0.10456510
               0.95643477                1.99588025               60.05130799                0.01000000               -0.09038769               -0.06351731                0.09248289                0.08074562                0.03235594                0.06893107
               1.95489624                1.99217469               60.05515145                0.01000001               -0.20181464               -0.08503055                0.10268717                0.24644941                0.04380828                0.03032629
               2.95239848                1.99220506               60.05810895                0.01000000               -0.32698293               -0.05326523                0.11978794                0.67146303               -0.00951725                0.02577184
               3.94835658                1.99681760               60.06051635                0.01000000               -0.45857447               -0.06197793                0.13490265                1.18903450               -0.06512347                0.03342476
               4.94322699                2.00647152               60.06228326                0.01000001               -0.46701272               -0.19899817                0.14624669                1.60961368               -0.12113773                0.06215806
               5.93901632                2.01792310               60.06368142                0.01000000               -0.53142046               -0.59008952                0.14682476                1.81118705               -0.23001369                0.14438248
               6.93259858                2.03147850               60.06356652                0.01000003               -0.34017884               -0.40666223                0.12390337                1.05631484               -0.15528123                0.14991537
               7.93221275                2.03383961               60.06651557                0.36533880               -0.03954615               -0.04126457                0.13084363                0.00301953               -0.00221594               -0.01649313
               8.93180765                2.03624848               60.06948471                0.99999993               -0.04047579               -0.04031001                0.13388809               -0.00132838               -0.00074672               -0.00080533
               9.93140323                2.03870716               60.07249816                0.99999999               -0.04044242               -0.04036104                0.13486502               -0.00401676                0.00043087                0.00784742
              -0.03755037                3.00138713               60.05073505                0.01000001               -0.06740418                0.18348383                0.05878073                0.13783141               -0.00372728                0.16836875
               0.96177558                2.99487775               60.05354206                0.01000000               -0.06463143               -0.14232499                0.08134410                0.25951715                0.03520791                0.11937292
               1.96115700                2.99085323               60.05671300                0.01000000               -0.12901023               -0.21597113                0.10862788                0.64895433                0.05853699                0.04720813
               2.95919538                2.99082320               60.05970936                0.01000000               -0.26270559               -0.21834054                0.12626085                1.13403299                0.03037614                0.04531912
               3.95590289                2.99536455               60.06231400                0.01027794               -0.37478058               -0.23380359                0.14373341                1.58462194               -0.02260146                0.06337887
               4.95169977                3.00324073               60.06446241                0.01000000               -0.50070751               -0.32201329                0.15580859                1.95748779               -0.09689656                0.09894848
               5.94588874                3.01426084               60.06598350                0.01000001               -0.57797502               -0.39689630                0.16115898                1.99229811               -0.17146174                0.14505332
               6.94014027                3.02369177               60.06717093                0.01000000               -0.79995560               -0.56547201                0.15393159                1.91359831               -0.27821642                0.25363397
               7.92988962                3.03337344               60.06678194                0.01020162               -0.53888087               -0.34093400                0.19503330                1.19024201               -0.15173705                0.18896064
               8.92936265                3.03581287               60.07002576                0.05801084               -0.04919296               -0.02441463                0.15379833                0.06272529                0.00919307                0.04611916
               9.92890576                3.03828126               60.07307941                0.99204366               -0.04568860               -0.08471377                0.14990510                0.07725105               -0.00178925                0.07781771
              -0.02752062                4.00318571               60.05346992                0.01000000               -0.03203689                0.10201430                0.10181452                0.24029908                0.04047885                0.21491480
               0.97215901                3.99303375               60.05584762                0.01000000               -0.02747534               -0.26000546                0.08748219                0.52680204                0.06807618                0.09524710
               1.97192987                3.98785526               60.05865965                0.01000000               -0.07955927               -0.36900833                0.10404518                1.05771888                0.09326480                0.05928673
               2.97056782                3.98783825               60.06158687                0.01027009               -0.21491934               -0.36349824                0.12890962                1.53391573                0.06685289                0.07003327
               3.96763148                3.99214153               60.06432093                0.01000000               -0.35436879               -0.37963763                0.14888290                1.96205259                0.01128510                0.10065889
               4.96348045                4.00003125               60.06673098                0.01000001               -0.46101154               -0.36889887                0.16585633                2.25646336               -0.06097144                0.14618841
               5.95841125                4.00998518               60.06870686                0.01000001               -0.58612528               -0.42504730                0.17973829                2.42392873               -0.15405576                0.21352262
               6.95175794                4.02016906               60.07007289                0.01039431               -0.72573839               -0.41488821                0.20133505                2.29802139               -0.22449825                0.27808862
               7.94389649                4.02702093               60.07169298                0.01000001               -1.18017992               -0.51746426                0.24671117                2.46837041               -0.35617744                0.43005077
               8.92815434                4.03576019               60.07156583                0.01000000               -0.79425097               -0.43524855                0.08789874                2.09763384               -0.21000931                0.31479650
               9.92801147                4.03701288               60.07508441                0.01000001               -0.01428773               -1.23710469                0.06926003                1.88847170               -0.03004339                0.39594117
              -0.01244047                5.00342742               60.05691717                0.01000003                0.00825426               -0.22324689                0.12307839                0.38870684                0.06216202                0.17505520
               0.98764208                4.98967764               60.05840428                0.01000000               -0.00263288               -0.42230946                0.08698100                0.85961758                0.10496898                0.11348823
               1.98750688                4.98347307               60.06074992                0.01000001               -0.10273239               -0.47609503                0.09965038                1.44463005                0.11791055                0.08978011
               2.98558743                4.98355324               60.06364134                0.01000000               -0.22779703               -0.50419881                0.12710751                1.92864576                0.09764651                0.10815438
               3.98295093                4.98777179               60.06656445                0.01000001               -0.33010203               -0.46541409                0.15439379                2.25744909                0.04946831                0.14541675
               4.97898539                4.99586276               60.06932836                0.01000001               -0.43607171               -0.44508637                0.17514888                2.52791053               -0.01363747                0.20371538
               5.97422950                5.00575989               60.07176275                0.01029441               -0.49602214               -0.44494933                0.19393718                2.62128921               -0.09176894                0.28021330
               6.96906494                5.01539400               60.07383663                0.01022580               -0.52817991               -0.49878291                0.21700315                2.62254237               -0.17200849                0.38462806
               7.96366590                5.02302416               60.07576306                0.01000000               -0.38707858               -0.53666341                0.22720213                2.60828007               -0.19281568                0.46754016
               8.96132337                5.02710790               60.07844599                0.01000000                0.02519573               -0.98302550                0.25572283                2.35188990               -0.18100336                0.63318158
               9.96416982                5.01353917               60.08216627                0.01025674                0.28464441               -1.59177754                0.15608481                1.55140495               -0.16230071                0.60467207
               0.00775306                5.99872078               60.05962122                0.01000002                0.15526455               -0.89409849                0.30834419                0.97446036                0.03773276                0.07200866
               1.00930571                5.98458756               60.06102016                0.01000001               -0.04030942               -0.52481680                0.10696229                1.34803960                0.00301998                0.14383092
               2.00694688                5.97833336               60.06314846                0.01000000               -0.22318490               -0.53364672                0.08066326                2.01326745                0.08092392                0.14425303
               3.00484201                5.97775428               60.06594046                0.01000001               -0.32379648               -0.51387565                0.13287551                2.10963351                0.08737070                0.14812465
               4.00047095                5.98283325               60.06901057                0.01000001               -0.43957277               -0.53481819                0.16242257                2.42203194                0.07257640                0.17252449
               4.99605056                5.99112953               60.07214059                0.01028785               -0.45825769               -0.47443311                0.18212249                2.58299729                0.04298997                0.23368286
               5.99130579                6.00108619               60.07508937                0.01020153               -0.45530149               -0.44952668                0.19912187                2.58543188               -0.00107479                0.32412305
               6.98694453                6.01019341               60.07787940                0.01000000               -0.34787997               -0.49494653                0.21279755                2.40851356               -0.03721558                0.44130672
               7.98434819                6.01628766               60.08074691                0.01000000               -0.11336965               -0.65298606                0.22935256                2.07504265               -0.05708793                0.56678994
               8.98467713                6.01609968               60.08383502                0.01065438                0.09144162               -0.88770268                0.23628190                1.31737593               -0.03824771                0.58285132
               9.98617703                6.00517733               60.08733506                0.01000000                0.14998920               -0.52052226                0.21368014                0.62810675               -0.00672853                0.43021800
               0.03531517                6.98554545               60.06016173                0.96896676               -0.03248875               -0.67271884                0.09492824                1.06164621               -0.01233484               -0.00137083
               1.03499028                6.97918131               60.06315120                0.52952885               -0.03548284               -0.28811264                0.12072580                0.96717335               -0.03185661                0.06675885
               2.03460551                6.97280013               60.06575499                0.01000001               -0.58550341               -0.29756380                0.13780388                1.40755470               -0.05686042                0.09483370
               3.02328021                6.97327572               60.06822416                0.01000000               -0.82945948               -0.59030118                0.14726892                1.99917644                0.01445382                0.10978509
               4.01801632                6.97707543               60.07137248                0.01036855               -0.54439115               -0.57805927                0.16956489                2.21734928                0.07973402                0.14201226
               5.01239239                6.98637409               60.07484608                0.01023122               -0.55710312               -0.46617551                0.18696962                2.49405155                0.10828010                0.22204248
               6.00687426                6.99676936               60.07841669                0.01000000               -0.51793218               -0.33090886                0.19825023                2.32052171                0.11809426                0.32807509
               7.00203375                7.00549507               60.08218061                0.01000000               -0.38068908               -0.36171043                0.20886640                1.88375706                0.13037056                0.46479780
               7.99926048                7.00996444               60.08605614                0.01066206               -0.16262633               -0.50586118                0.22197870                1.32367346                0.09617516                0.57062643
               8.99878122                7.00935384               60.08910312                0.01000002               -0.03419129               -0.53032822                0.22260730                0.68165730                0.02800443                0.58393047
               9.99857665                7.00312872               60.09157764                0.01000000               -0.02045676               -0.09487701                0.21388981                0.27372592               -0.00513289                0.47142482
               0.04171427                7.98526640               60.06093171                0.99999999               -0.03197797               -0.02774153                0.09418867               -0.00012456               -0.00614902                0.01191527
               1.04139449                7.97882531               60.06389053                0.99999999               -0.03553600               -0.03529471                0.11807518                0.00030174               -0.01029913               -0.00073408
               2.04100355                7.97238209               60.06677478                0.49307896               -0.04221238               -0.04172424                0.13946854                0.00156430               -0.01551330                0.00725884
               3.04055024                7.96594825               60.06959833                0.01031236               -0.46419947               -0.38953291                0.14093136                1.13719589                0.01999962                0.02722783
               4.03171956                7.97127206               60.07319354                0.01000001               -0.71562939               -0.91541872                0.17023136                2.24819779                0.12624993                0.10784266
               5.02623766                7.98180602               60.07725881                0.01000000               -0.65621557               -0.28604269                0.18590324                2.33960113                0.17809849                0.18620747
               6.01859525                7.99446801               60.08153962                0.01000000               -0.74065314               -0.06683445                0.19869296                1.89191990                0.24290140                0.28508071
               7.01142459                8.00295920               60.08637652                0.01064933               -0.58161793               -0.11439898                0.20862293                1.23204219                0.28610450                0.38337739
               8.00696289                8.00617044               60.09093331                0.01000002               -0.31392986               -0.23687024                0.20715664                0.59975056                0.26715633                0.50296570
               9.00514600                8.00549312               60.09469556                0.01000000               -0.14305520               -0.30150616                0.20834664                0.08598906                0.19924655                0.79159831
              10.00410179                8.00327979               60.09758405                0.01000000               -0.10442082               -0.02527456                0.20976624               -0.00691108                0.15987989                0.56454274
               0.04819486                8.98499062               60.06175498                0.99924415               -0.03142294               -0.02753377                0.09324940                0.00032609               -0.00146851                0.01151395
               1.04788063                8.97847541               60.06467754                0.99999999               -0.03405010               -0.03507715                0.11677461                0.00096489               -0.00208690                0.00148954
               2.04751386                8.97196565               60.06761268                0.99999999               -0.03732369               -0.04218183                0.13893953                0.00429434                0.00911177               -0.00147066
               3.04713416                8.96548507               60.07080278                0.76175933               -0.01956714               -0.05070099                0.16522145               -0.00261331                0.10033309                0.00852068
               4.04712251                8.95876705               60.07561216                0.01000000               -0.55728467               -0.63752236                0.11245277                1.85726833                0.11505758                0.04961867
               5.03598846                8.98065324               60.07920893                0.01000000               -1.17815179                0.14513449                0.19071029                2.01623413                0.18329678                0.10602411
               6.02355948                8.99543267               60.08404728                0.01065236               -1.05081471                0.17471312                0.20407787                1.13336485                0.29716388                0.17240741
               7.01497217                9.00320709               60.08904980                0.01000002               -0.74189550                0.06918055                0.20280891                0.58578388                0.40420324                0.20387489
               8.00872157                9.00522703               60.09488769                0.01068592               -0.57902606                0.00848074                0.19859026                0.09598823                0.68361420                0.33695566
               9.00339165                9.00332372               60.10406631                1.00000000               -0.29282426               -0.13512955                0.17556796               -0.18373568                0.47646027                0.48672639
              10.00286508                9.00262323               60.10368040                0.99999999               -0.05265636               -0.05870204                0.17360080               -0.09692233               -0.00156795                0.31966812
               0.05475120                9.98471572               60.06253652                0.99997915               -0.03124448               -0.02748910                0.09269656               -0.00356141                0.00594610                0.00819616
               1.05443876                9.97812377               60.06546045                0.99910986               -0.03357097               -0.03516441                0.11654810               -0.00305087                0.00735992                0.00178778
               2.05407978                9.97153845               60.06844686                0.99484406               -0.03710939               -0.04271966                0.13918047               -0.00288412                0.02207210                0.00009833
               3.05369657                9.96493423               60.07173845                0.99999998               -0.01915147               -0.05508339                0.16916404                0.00539969                0.11449837                0.00623213
               4.05369675                9.95852162               60.07658075                0.01023311               -1.18999244               -0.02454390                0.11269282                1.64614767                0.13267513                0.01776394
               5.02989672                9.98470871               60.08035562                0.01000001               -1.74940285                0.40554655                0.19786845                1.36285893                0.17070246                0.04131949
               6.01870870                9.99796228               60.08514804                0.01000001               -0.82754048                0.25296045                0.21698195                0.49662692                0.27312731                0.08239714
               7.01334591               10.00434281               60.09002285                0.01000001               -0.49713337                0.11357164                0.20778396                0.25626313                0.46459855                0.08279558
               8.00876603               10.00634005               60.09701551                0.01000000               -0.46354134                0.11130208                0.20377887               -0.07316794                0.63272248                0.20024065
               9.00407508               10.00279053               60.10373793                0.99999999               -0.26008541               -0.05331915                0.17460727               -0.14337122                0.35744508                0.00202817
              10.00356432               10.00210575               60.10335200                0.99639503               -0.05107639               -0.05174772                0.17260682                0.00144622                0.00182831               -0.00182810
              -0.05399648               -0.00071896               61.04725273                1.00000000               -0.02259306               -0.02294478                0.07290105                0.00195040               -0.00834071                0.00796230
               0.94577759               -0.00441422               61.05064110                1.00000000               -0.02334907               -0.02454957                0.07813542                0.00080336               -0.00892963               -0.00154607
               1.94553653               -0.00808613               61.05401639                0.01036482                0.06033272               -0.02616871                0.08339622                0.14767514               -0.04350884               -0.00360159
               2.94698424               -0.00879559               61.05670777                0.01000002                0.08572777               -0.02476110                0.11329160                0.13162117               -0.09354115                0.03061598
               3.94725109               -0.00509828               61.05872282                0.01000000               -0.07730855                0.03031717                0.10876737                0.28995340               -0.15835892                0.01868385
               4.94543807                0.00456606               61.05980316                0.01000000               -0.49919812                0.09124118                0.11339007                0.71232331               -0.22850610                0.00092266
               5.93726713                0.02429431               61.05974438                0.01000004               -0.55638214               -0.03293283                0.08776203                0.78384345               -0.01822859               -0.05170875
               6.93431043                0.03144890               61.06332213                0.97100882               -0.16160754               -0.02989494                0.09078965                0.24144934                0.03039387               -0.00151673
               7.93403498                0.03384510               61.06632128                1.00000000               -0.02804527               -0.03098051                0.09390043                0.00050742                0.00226157               -0.00006883
               8.93374952                0.03629719               61.06933118                0.99878319               -0.02898357               -0.03190215                0.09707286                0.00039229                0.00262252                0.00123063
               9.93345530                0.03880645               61.07232780                1.00000000               -0.02942153               -0.03274792                0.10027780               -0.00258249                0.00256638                0.00399406
              -0.05028171                0.99905160               61.04808128                0.99999999               -0.02490813               -0.02404256                0.08035671                0.00118575                0.00146333                0.00851084
               0.94946920                0.99534028               61.05147141                0.01000000               -0.02571585               -0.02570263                0.08553638                0.00000817                0.00441526               -0.00456336
               1.94920397                0.99165218               61.05492160                0.01000000               -0.13313384               -0.04138105                0.09061293                0.09961897               -0.01741746                0.01572879
               2.94680653                0.99095680               61.05787223                0.01000000               -0.28670856               -0.01416359                0.11382450                0.31251485               -0.06223072                0.02199653
               3.94346980                0.99520489               61.06025781                0.01000000               -0.44707607                0.02165427                0.12978463                0.64634717               -0.08953431                0.00839393
               4.93786501                1.00547848               61.06171959                0.01000000               -0.59028271                0.01533297                0.14361463                1.19044152               -0.18124042                0.00226255
               5.93166414                1.02396498               61.06183341                0.01000001               -0.29577410               -0.39450961                0.15183914                1.22473872               -0.17113312                0.01827651
               6.93194952                1.03114995               61.06407395                0.89782335               -0.00241183               -0.03257640                0.10893008                0.24294438               -0.03768560               -0.00172316
               7.93161591                1.03353529               61.06707377                1.00000000               -0.03383772               -0.03364759                0.11239447                0.00001022                0.00031367               -0.00026995
               8.93127277                1.03597817               61.07007773                0.99999999               -0.03478415               -0.03472636                0.11562897               -0.00028878                0.00034004                0.00162546
               9.93092022                1.03847897               61.07307794                0.99767762               -0.03525466               -0.03535037                0.11851964               -0.00314628                0.00026098                0.00575002
              -0.04655014                1.99880019               61.04892317                0.01056324               -0.02726991                0.06339182                0.08775821                0.12284710                0.00346885                0.07715310
               0.95317716                1.99507172               61.05223945                0.01000000               -0.07687317               -0.08523713                0.09306044                0.09657358                0.03588054                0.06034149
               1.95191239                1.99108625               61.05620724                0.01000001               -0.17476644               -0.11103046                0.11023665                0.26765090                0.05660814                0.03080473
               2.94968183                1.99092114               61.05934005                0.01000000               -0.31280186               -0.07750176                0.12739095                0.71062595                0.01117000                0.02142577
               3.94565636                1.99533480               61.06191801                0.01000000               -0.45975111               -0.06163626                0.14387722                1.19274931               -0.04074030                0.01861118
               4.94048681                2.00487272               61.06380529                0.01000001               -0.47829660               -0.17991377                0.15598889                1.60789557               -0.10171196                0.03871064
               5.93609043                2.01640412               61.06520251                0.01000000               -0.54439039               -0.54329200                0.15595080                1.85656322               -0.23868866                0.11606118
               6.92959900                2.03079737               61.06482435                0.01000003               -0.34417305               -0.41227325                0.12695542                1.08797032               -0.17027454                0.15927716
               7.92920696                2.03317215               61.06782540                0.36603008               -0.03994641               -0.03927888                0.13136433               -0.00084632               -0.00160795               -0.00355256
               8.92880007                2.03560266               61.07083082                1.00000000               -0.04080916               -0.04048680                0.13478705               -0.00101848               -0.00056679                0.00087895
               9.92839078                2.03809944               61.07385458                0.99999997               -0.04092907               -0.04069278                0.13639289               -0.00329362                0.00004610                0.00576572
              -0.04036784                3.00031943               61.05112923                0.01005866               -0.05175456                0.16805967                0.07173631                0.19242721                0.04883292                0.21362112
               0.95911462                2.99363554               61.05436769                0.01000000               -0.04622954               -0.19377910                0.10120591                0.31982450                0.06991099                0.08859227
               1.95870757                2.98943158               61.05784856                0.01000000               -0.11720620               -0.24590979                0.12050490                0.70326848                0.08531116                0.02998999
               2.95677049                2.98940677               61.06102409                0.01000000               -0.26671859               -0.22479977                0.13849318                1.17065629                0.05622993                0.02943234
               3.95337320                2.99397217               61.06380449                0.01027823               -0.39084443               -0.22086043                0.15364787                1.60418215                0.00235061                0.04808001
               4.94895360                3.00188020               61.06607435                0.01000000               -0.52512211               -0.29507355                0.16426334                1.96962871               -0.07994741                0.08443425
               5.94287076                3.01309914               61.06762782                0.01000001               -0.60063518               -0.36286171                0.16655026                2.01203420               -0.16268171                0.13976620
               6.93694090                3.02290449               61.06880742                0.01000000               -0.80385332               -0.56078174                0.16391380                1.91828182               -0.27074069                0.27963740
               7.92679369                3.03274972               61.06851931                0.01029502               -0.53078956               -0.33345995                0.16776531                1.18418186               -0.16908674                0.21888832
               8.92632511                3.03516843               61.07156765                0.05794647               -0.04664466               -0.03259300                0.15441592                0.05080894                0.00002184                0.02896330
               9.92586080                3.03766511               61.07460499                0.99999997               -0.04643116               -0.07808621                0.15438174                0.05222724               -0.00123444                0.04425445
              -0.02933381                4.00216139               61.05455180                0.01000000               -0.02046827                0.05612885                0.09456675                0.30774585                0.02232826                0.20637249
               0.97046151                3.99119614               61.05671662                0.01000000               -0.02298250               -0.29392627                0.10231859                0.63365384                0.08894257                0.04650762
               1.97020654                3.98616806               61.05972887                0.01000000               -0.09535697               -0.37866218                0.12331692                1.15535422                0.14163572                0.01018272
               2.96855437                3.98642514               61.06293999                0.01027577               -0.24699865               -0.35351995                0.14628658                1.59368188                0.11182006                0.04355112
               3.96526657                3.99091760               61.06586792                0.01000000               -0.39009798               -0.35797054                0.16160294                1.99371716                0.04178554                0.08767803
               4.96075241                3.99897125               61.06844416                0.01000001               -0.49798711               -0.33783013                0.17469334                2.28007112               -0.03515494                0.13885117
               5.95530682                4.00914688               61.07054724                0.01000001               -0.62191725               -0.39061110                0.18538023                2.44664370               -0.11726388                0.21478596
               6.94831406                4.01958174               61.07215686                0.01041849               -0.73400831               -0.38775116                0.19793810                2.30588300               -0.17176129                0.29170095
               7.94062666                4.02650295               61.07368457                0.01000001               -1.17066024               -0.49739766                0.18865974                2.43228284               -0.28729975                0.41936257
               8.92490086                4.03495080               61.07288297                0.01000000               -0.80923447               -0.43634273                0.16983466                2.06367968               -0.18991577                0.36362408
               9.92444197                4.03653771               61.07616599                0.01000001               -0.04588893               -1.24653402                0.16063477                1.88362171               -0.02732797                0.38502912
              -0.01228243                5.00144201               61.05762910                0.01000003                0.00634589               -0.20727912                0.10591884                0.49813628                0.13266260                0.23304214
               0.98778102                4.98775701               61.05913436                0.01000000               -0.05659554               -0.38177611                0.08529004                0.90689141                0.22770708               -0.06082222
               1.98658565                4.98185833               61.06178832                0.01000001               -0.19432172               -0.45445982                0.13519963                1.51444575                0.25388009               -0.01479855
               2.98389459                4.98233637               61.06495197                0.01000000               -0.29421098               -0.47410117                0.14644059                1.96980686                0.16071121                0.08969050
               3.98070143                4.98681275               61.06816490                0.01000001               -0.37844252               -0.44004823                0.16776056                2.28402519                0.08653326                0.13818991
               4.97632574                4.99512360               61.07113169                0.01000001               -0.47541447               -0.41601597                0.18378208                2.56066035                0.01770023                0.19745563
               5.97119315                5.00528692               61.07375841                0.01031417               -0.53116218               -0.41224474                0.19917527                2.66233533               -0.04997106                0.27259308
               6.96570250                5.01514946               61.07601003                0.01025899               -0.55614306               -0.46661358                0.21227698                2.65704006               -0.10400875                0.35927095
               7.96007028                5.02280176               61.07805999                0.01000000               -0.40692792               -0.50340448                0.21884152                2.58913554               -0.10505225                0.42923870
               8.95756394                5.02644158               61.08055922                0.01000000                0.01445617               -0.94363744                0.20289555                2.31565870               -0.07817876                0.59923159
               9.96035941                5.01273443               61.08349412                0.01107075                0.27954703               -1.60404725                0.15294738                1.54563656               -0.06509666                0.58387381
               0.00799890                5.99801580               61.06367791                0.01000003                0.01841062               -0.82812146                0.14185423                0.77246511                0.50765532               -0.54122422
               1.00818301                5.98356062               61.06189983                0.01000001               -0.10414016               -0.46710193                0.25712546                1.15167182                0.60400242               -0.09743615
               2.00591610                5.97707886               61.06367396                0.01000000               -0.25934649               -0.49633366                0.08841396                1.90886734                0.26873309                0.15660195
               3.00299608                5.97694312               61.06728178                0.01000001               -0.38781316               -0.49152488                0.15161795                2.08797717                0.17088399                0.15234124
               3.99815984                5.98211663               61.07068156                0.01000001               -0.47523158               -0.52021908                0.17118547                2.42476706                0.10665494                0.17055668
               4.99349145                5.99065093               61.07400478                0.01030628               -0.48160868               -0.45648846                0.18875693                2.62090385                0.06874811                0.22692311
               5.98852766                6.00090199               61.07712043                0.01023282               -0.47757152               -0.42757514                0.20327744                2.64141884                0.03161133                0.30579214
               6.98394002                6.01024947               61.08005094                0.01000000               -0.37052049               -0.47064276                0.21471124                2.47135704                0.00799997                0.40607321
               7.98111725                6.01643486               61.08302882                0.01000000               -0.13293275               -0.62106657                0.22403370                2.13090323                0.00025201                0.50967707
               8.98128136                6.01607805               61.08616953                0.01078705                0.08258687               -0.84367246                0.21988016                1.34188327               -0.00412621                0.52275125
               9.98276899                6.00445677               61.08937326                0.01000000                0.14876278               -0.50711435                0.19035640                0.62345395               -0.00585251                0.44345151
               0.03207723                6.98487958               61.06112603                0.97802132               -0.03258277               -0.67116106                0.09767760                0.88219557               -0.01136204               -0.15536541
               1.03175140                6.97841497               61.06435697                0.47475683               -0.03483659               -0.27529600                0.12018868                0.85573147               -0.03533989                0.08193353
               2.03138050                6.97193166               61.06711064                0.01000001               -0.55675224               -0.27792370                0.13311666                1.30196189               -0.06480065                0.13671650
               3.02061636                6.97250587               61.06972216                0.01000000               -0.79457686               -0.60089738                0.15485337                1.94542116                0.03367990                0.11780909
               4.01548896                6.97640837               61.07308404                0.01039174               -0.53289507               -0.59259819                0.17341222                2.22469316                0.09564452                0.14823309
               5.00995846                6.98599383               61.07674640                0.01025769               -0.55329878               -0.45817948                0.18932645                2.52978526                0.12263957                0.21190318
               6.00442299                6.99673542               61.08042586                0.01000000               -0.51808462               -0.32450410                0.20074575                2.38238629                0.13439423                0.30872660
               6.99959677                7.00573661               61.08428649                0.01000000               -0.37816129               -0.35083481                0.21137152                1.96532678                0.15450520                0.43118990
               7.99685976                7.01038043               61.08828700                0.01078870               -0.16085369               -0.48783715                0.21640829                1.41191260                0.11879818                0.52557771
               8.99637969                7.00956813               61.09134757                0.01000002               -0.03943538               -0.51123205                0.22503391                0.73691449                0.03437086                0.53557722
               9.99607105                7.00259214               61.09371685                0.01000000               -0.03086377               -0.08248955                0.21881889                0.30290429               -0.00527323                0.44984399
               0.03857202                7.98459258               61.06189092                0.99996335               -0.03264640               -0.02864243                0.09741098               -0.00078551               -0.00637438                0.01245487
               1.03824556                7.97805470               61.06507050                0.99999995               -0.03537896               -0.03548793                0.11797619               -0.00075155               -0.01172932               -0.00218416
               2.03786445                7.97152038               61.06815283                0.46805944               -0.04088856               -0.04107556                0.13620796               -0.00544793               -0.02245747                0.00773639
               3.03742779                7.96492517               61.07110565                0.01044477               -0.43493523               -0.40141315                0.14923282                1.10176847                0.01955629                0.02917729
               4.02916574                7.97026467               61.07500237                0.01000001               -0.68338393               -0.93535069                0.17550708                2.22685179                0.13135455                0.05862650
               5.02376011                7.98148734               61.07907418                0.01000000               -0.63665653               -0.29313814                0.18123165                2.38033500                0.17487009                0.18333677
               6.01643261                7.99441191               61.08353631                0.01000000               -0.70792860               -0.07403081                0.19910008                1.94330976                0.25118995                0.26644266
               7.00960154                8.00323277               61.08845773                0.01077300               -0.54543119               -0.12127748                0.20233262                1.31020421                0.29734035                0.35346515
               8.00552399                8.00667812               61.09303817                0.01000002               -0.28967984               -0.24751283                0.21496469                0.68447234                0.27069787                0.46122478
               9.00380794                8.00585341               61.09683018                0.01000001               -0.13724702               -0.29404810                0.21979508                0.17539523                0.20139582                0.74573113
              10.00277905                8.00280698               61.09970903                0.01000000               -0.10288962                0.01701602                0.21215934                0.05372494                0.15395938                0.53480663
               0.04513729                8.98430673               61.06271039                0.99886415               -0.03287140               -0.02867613                0.09752454               -0.00036211               -0.00139267                0.01219827
               1.04480857                8.97770522               61.06584834                0.99999999               -0.03681079               -0.03476283                0.11734365               -0.00025248               -0.00176269                0.00128291
               2.04440107                8.97111015               61.06899857                0.99362236               -0.04505624               -0.04052949                0.13765725               -0.00408159                0.00401393               -0.00137390
               3.04390745                8.96447761               61.07227683                0.77871989               -0.04686201               -0.04152278                0.14260693               -0.01565357                0.02883570                0.00884016
               4.04346383                8.95770136               61.07599348                0.01000000               -0.52447635               -0.63293414                0.06376868                1.82907889                0.10012338                0.00196118
               5.03341792                8.98013107               61.08114288                0.01000000               -1.09600367                0.11840272                0.18462904                2.04557305                0.23601684                0.10611547
               6.02154376                8.99525480               61.08605361                0.01078015               -0.99416392                0.15891891                0.19656218                1.16304542                0.29831369                0.15460711
               7.01353464                9.00331106               61.09110096                0.01000002               -0.68075944                0.04337314                0.20680074                0.62731565                0.39811903                0.17760773
               8.00792857                9.00543018               61.09689574                0.01000006               -0.48879531               -0.03078564                0.20217327                0.13871695                0.66763274                0.31503492
               9.00375873                9.00368717               61.10581513                1.00000000               -0.23450727               -0.13432915                0.17343413               -0.08939479                0.46265055                0.46879436
              10.00323842                9.00293246               61.10541731                0.99950037               -0.05203131               -0.01988898                0.17389306               -0.01481394               -0.00272990                0.29924336
               0.05176781                9.98401906               61.06348861                1.00000000               -0.03307168               -0.02876713                0.09733918               -0.00290900                0.00731405                0.00901502
               1.05143709                9.97735944               61.06663129                0.99880666               -0.03786933               -0.03457725                0.11742064               -0.00261097                0.00958705                0.00174014
               2.05101042                9.97070979               61.06984342                0.99839140               -0.04567942               -0.04003527                0.13956956               -0.00230086                0.01910587                0.00022856
               3.05052351                9.96409472               61.07321952                0.99999998               -0.04582831               -0.03828878                0.14349535                0.00641541                0.04289303                0.00383812
               4.05009386                9.95760598               61.07697440                0.01000000               -1.17026875               -0.00953745                0.06619601                1.65103685                0.11913900               -0.00681250
               5.02711813                9.98385540               61.08234288                0.01000001               -1.67901662                0.37243319                0.18980797                1.36923612                0.23341143                0.03028842
               6.01651353                9.99759028               61.08729704                0.01000001               -0.75728270                0.23354846                0.20676808                0.50921874                0.28440586                0.06702554
               7.01197248               10.00410023               61.09215103                0.01000001               -0.42956539                0.07891748                0.21682830                0.26738946                0.43770631                0.06989455
               8.00792222               10.00606240               61.09902998                0.01000000               -0.37273597                0.06322277                0.19473170               -0.04730516                0.61238657                0.18480108
               9.00451776               10.00316683               61.10548311                0.99949883               -0.19650239               -0.05203367                0.17431193               -0.10675802                0.34643916                0.00378839
              10.00399217               10.00240920               61.10508494                0.99661180               -0.05255871               -0.05232657                0.17477417               -0.00038824                0.00303860               -0.00334018
              -0.05749383               -0.00150566               62.04798285                1.00000000               -0.02254585               -0.02305533                0.07314568                0.00186856               -0.00825115                0.00794299
               0.94228071               -0.00529708               62.05141999                1.00000000               -0.02319118               -0.02444486                0.07766506                0.00074003               -0.00887342               -0.00152447
               1.94204235               -0.00906404               62.05484405                0.01000001                0.06914322               -0.02583983                0.08218339                0.14504879               -0.03765549               -0.00361998
               2.94366358               -0.00991871               62.05770044                0.01000001                0.10937952               -0.03851403                0.10338462                0.14134976               -0.07576782                0.02349917
               3.94422994               -0.00656631               62.05990366                0.01000000               -0.04658601                0.01431134                0.12021607                0.26966731               -0.13144575                0.01434243
               4.94273186                0.00243329               62.06101027                0.01000001               -0.43415583                0.08305262                0.13035312                0.65620030               -0.21424080               -0.00559505
               5.93554682                0.02119624               62.06066594                0.01718387               -0.57106138               -0.02262094                0.11083690                0.74260399                0.02691369               -0.09985113
               6.93131063                0.03058910               62.06422851                0.97118298               -0.22546410               -0.03007690                0.09050879                0.35268816                0.02821513               -0.00173143
               7.93103754                0.03299844               62.06725650                1.00000000               -0.02771314               -0.03092265                0.09310624                0.00041655                0.00220137               -0.00012792
               8.93075637                0.03546910               62.07029467                0.99835759               -0.02850608               -0.03171610                0.09571276                0.00044550                0.00245610                0.00120500
               9.93046742                0.03800128               62.07331997                0.99976435               -0.02889487               -0.03245914                0.09837870               -0.00269815                0.00234089                0.00348935
              -0.05368373                0.99826379               62.04888690                0.99943369               -0.02489706               -0.02415985                0.08075300                0.00120080                0.00141769                0.00846721
               0.94606730                0.99445848               62.05232547                0.01000000               -0.02563113               -0.02560579                0.08524970                0.00006863                0.00438600               -0.00451254
               1.94580365                0.99067756               62.05582373                0.01000000               -0.11195454               -0.05360685                0.08976155                0.10615642               -0.00440527                0.02434436
               2.94382821                0.98969615               62.05908320                0.01000000               -0.25265192               -0.02997860                0.11859650                0.30733868               -0.01405538                0.01692295
               3.94075061                0.99357680               62.06157925                0.01000000               -0.42078134                0.01047276                0.13260439                0.62071281               -0.05507617                0.00430459
               4.93541258                1.00326382               62.06323653                0.01000000               -0.59278271                0.02288396                0.15454007                1.12848063               -0.12463382               -0.02144999
               5.92889496                1.02097003               62.06345714                0.01000001               -0.32380886               -0.33731584                0.17085555                1.23505928               -0.13242978               -0.05107326
               6.92893641                1.03028833               62.06516847                0.89273813               -0.01466273               -0.03292619                0.10993084                0.34893801               -0.06543530               -0.00202131
               7.92860170                1.03268921               62.06819963                1.00000000               -0.03385035               -0.03377124                0.11271168                0.00000918                0.00056904               -0.00005977
               8.92825940                1.03515194               62.07123379                1.00000000               -0.03467257               -0.03464769                0.11547715               -0.00008796                0.00040510                0.00180482
               9.92790825                1.03767669               62.07426069                0.99728027               -0.03511486               -0.03529286                0.11802110               -0.00306417                0.00020625                0.00504658
              -0.04985919                1.99801114               62.04980389                0.01025062               -0.02725010                0.08835679                0.08835472                0.14962188                0.00338407                0.08140015
               0.94986831                1.99419081               62.05316919                0.01000000               -0.06065064               -0.11430216                0.09286734                0.11199290                0.04442536                0.07013309
               1.94892780                1.98986382               62.05735618                0.01000001               -0.14785982               -0.13730761                0.11451716                0.28470402                0.06809596                0.04763030
               2.94691111                1.98948172               62.06065677                0.01000000               -0.29256338               -0.09421205                0.13201396                0.71575741                0.02424676                0.02214117
               3.94307653                1.99364314               62.06339389                0.01000000               -0.45014353               -0.06002826                0.14686120                1.17791356               -0.01753302                0.01487068
               4.93790824                2.00289097               62.06540303                0.01000001               -0.49265172               -0.14866328                0.15784285                1.58358418               -0.07884854                0.01050949
               5.93322350                2.01444992               62.06680043                0.01000000               -0.56690212               -0.46292960                0.15744516                1.90233385               -0.25049986                0.07762475
               6.92657020                2.02993057               62.06610563                0.01000003               -0.35246918               -0.41681627                0.12921692                1.13853276               -0.18690456                0.16765597
               7.92617411                2.03232302               62.06914285                0.37287906               -0.04015348               -0.03985895                0.13240398               -0.00042361               -0.00072282                0.00219565
               8.92576713                2.03477614               62.07218046                1.00000000               -0.04087427               -0.04059771                0.13530741               -0.00047894               -0.00038211                0.00148411
               9.92535663                2.03729543               62.07522602                0.99999996               -0.04105038               -0.04108739                0.13752556               -0.00316434               -0.00010408                0.00492023
              -0.04305062                3.00003092               62.05216978                0.01000001               -0.04949013                0.14010774                0.10460399                0.13692628               -0.00150709                0.18664996
               0.95645448                2.99217243               62.05556618                0.01000000               -0.03712819               -0.24967913                0.10181198                0.33964870                0.03297131                0.15409745
               1.95620682                2.98793141               62.05912310                0.01000000               -0.10452190               -0.28723360                0.13395549                0.76254465                0.08128217                0.03457180
               2.95436404                2.98781191               62.06247922                0.01000000               -0.26535911               -0.23501631                0.14957745                1.20994417                0.06392721                0.03564274
               3.95089964                2.99237623               62.06538695                0.01027898               -0.40432755               -0.20542272                0.15953877                1.61825652                0.01185238                0.04485346
               4.94627749                3.00029055               62.06774768                0.01000000               -0.54988016               -0.25700148                0.16676705                1.97624909               -0.07276957                0.07453720
               5.93990203                3.01171143               62.06931450                0.01000001               -0.62217632               -0.31498021                0.16656152                2.03956162               -0.16159496                0.13350211
               6.93383396                3.02195200               62.07044921                0.01000000               -0.80771867               -0.55650484                0.16306318                1.93978944               -0.27023149                0.29156576
               7.92374766                3.03189204               62.07013725                0.01040151               -0.52782760               -0.32277593                0.15973654                1.18191238               -0.17266540                0.22096606
               8.92327741                3.03433998               62.07311408                0.06219026               -0.04706271               -0.03675207                0.15543058                0.05351926               -0.00454088                0.04633653
               9.92280640                3.03685494               62.07616705                0.99999998               -0.04710085               -0.07355447                0.15728857                0.02860819               -0.00136811                0.06262825
              -0.03140368                4.00081330               62.05536125                0.01000000                0.01644782               -0.05343836                0.08888119                0.35103649                0.02231909                0.22718129
               0.96876080                3.98919723               62.05789399                0.01000000               -0.00285537               -0.44472258                0.13228965                0.74441829                0.09053303                0.04471512
               1.96853921                3.98411915               62.06112599                0.01000000               -0.10478120               -0.43497024                0.15601010                1.30721131                0.14238566                0.02940899
               2.96666517                3.98478140               62.06451260                0.01028301               -0.27880946               -0.34033258                0.16560574                1.67382857                0.11127000                0.04610314
               3.96296302                3.98953469               62.06755299                0.01000000               -0.42835738               -0.33271405                0.17310445                2.02858939                0.04558981                0.08623887
               4.95809802                3.99775094               62.07022484                0.01000001               -0.53048722               -0.30196519                0.17872208                2.30420100               -0.02537374                0.13586648
               5.95235328                4.00815031               62.07241447                0.01000001               -0.64563188               -0.35364346                0.18418317                2.47496221               -0.10356639                0.21537618
               6.94518539                4.01880048               62.07403165                0.01044202               -0.74644495               -0.36333323                0.18527400                2.32831997               -0.15933363                0.29649964
               7.93742438                4.02586750               62.07546617                0.01000000               -1.16553895               -0.48136759                0.17091018                2.42543163               -0.28583076                0.42591501
               8.92187461                4.03404110               62.07496252                0.01000000               -0.82627539               -0.42670081                0.23854377                2.05025507               -0.20076509                0.38914800
               9.92089887                4.03582434               62.07829710                0.01000001               -0.09757378               -1.24227844                0.23637649                1.88790775               -0.01458057                0.40681342
              -0.01279774                4.99896216               62.05903555                0.01000003                0.08347358               -0.82069693                0.11530622                1.07488250                0.05414923                0.13843262
               0.98803699                4.98327798               62.06011008                0.01000000               -0.02176914               -0.58904961                0.16721665                1.64493802                0.19830102                0.09181735
               1.98676687                4.97923201               62.06345392                0.01000001               -0.28059571               -0.39880333                0.17864487                1.80638311                0.25061660               -0.01842230
               2.98242508                4.98100526               62.06657015                0.01000000               -0.41324979               -0.43752421                0.17969014                2.05384334                0.14793116                0.08740186
               3.97850188                4.98572195               62.06991966                0.01000001               -0.43395973               -0.41047217                0.18050327                2.30820006                0.09127566                0.13119533
               4.97374588                4.99425125               62.07300400                0.01000001               -0.50750688               -0.38488337                0.18838533                2.59026138                0.03063535                0.19170416
               5.96835174                5.00463857               62.07574626                0.01033144               -0.55313515               -0.38078670                0.19663159                2.69863358               -0.02789710                0.26556117
               6.96268318                5.01468534               62.07808217                0.01029044               -0.56680387               -0.43810336                0.20202252                2.68184367               -0.07752163                0.35304971
               7.95701566                5.02226468               62.08013989                0.01000000               -0.41787523               -0.48066507                0.20449704                2.59654478               -0.08121476                0.42992138
               8.95432568                5.02580597               62.08250390                0.01000000               -0.00087845               -0.91373726                0.18966433                2.30601258               -0.06355061                0.60662779
               9.95699809                5.01200937               62.08522522                0.01183723                0.26724182               -1.60003543                0.17631516                1.55802348               -0.05861829                0.57846170
               0.02146232                5.98439936               62.06245831                0.04019671               -0.00726118               -0.73685186               -0.06673556                1.37287715                0.85852492               -0.54140824
               1.02138971                5.97741623               62.06616267                0.01000001               -0.72613631               -0.28143366                0.20810063                1.60028034                0.60701293               -0.04638498
               2.00693959                5.97614309               62.06491674                0.01000000               -1.00688080               -0.40882107                0.21472829                1.98960579                0.12473169                0.13156867
               3.00125209                5.97603091               62.06897282                0.01000001               -0.55292783               -0.45986161                0.17006182                2.03687478                0.18242636                0.13985573
               3.99588104                5.98132524               62.07243428                0.01000001               -0.51327252               -0.50013362                0.18032370                2.42127232                0.11094678                0.15950369
               4.99098664                5.99005327               62.07591573                0.01032700               -0.49945886               -0.43542410                0.19043434                2.64834052                0.08398100                0.21538666
               5.98589186                6.00053458               62.07915492                0.01026099               -0.48952498               -0.40552736                0.20143291                2.68277278                0.05151529                0.29020811
               6.98119614                6.01003841               62.08217362                0.01000000               -0.38286076               -0.44866298                0.20873038                2.51495727                0.03515188                0.38696009
               7.97823464                6.01625420               62.08522759                0.01000000               -0.14729859               -0.58990259                0.21489689                2.16438230                0.02406988                0.48799725
               8.97825017                6.01576636               62.08823262                0.01000001                0.07089407               -0.82006129                0.20472868                1.36412701                0.00041368                0.53077160
               9.97965253                6.00382363               62.09114219                0.01000000                0.14023559               -0.51097737                0.18382897                0.64245348               -0.01890785                0.49271778
               0.02862605                6.98422512               62.06211528                0.98587889               -0.03271784               -0.02341102                0.09971870                0.03068457               -0.01034018               -0.04382365
               1.02829887                6.97764931               62.06555498                0.41620211               -0.03408700               -0.00629885                0.11938495                0.01693765               -0.03931629               -0.07220198
               2.02794431                6.97105558               62.06841732                0.01000003               -0.51592291               -0.27470989                0.12784377                1.08691878               -0.06432527                0.14092138
               3.01798042                6.97180803               62.07132123                0.01000000               -0.75196745               -0.60268962                0.16341321                1.87517212                0.03423514                0.10913411
               4.01290496                6.97571928               62.07484073                0.01041588               -0.52385292               -0.58950491                0.16891206                2.21159141                0.10574283                0.13622987
               5.00750336                6.98554277               62.07863261                0.01029043               -0.54414514               -0.44884968                0.18742698                2.55116049                0.13177071                0.19787740
               6.00202206                6.99652802               62.08243160                0.01000000               -0.51203238               -0.31827303                0.19859376                2.42564718                0.14918164                0.29000245
               6.99726271                7.00571208               62.08640804                0.01000000               -0.37233507               -0.34121886                0.21012938                2.03060028                0.16888570                0.40220498
               7.99457536                7.01046663               62.09038431                0.01000001               -0.16119621               -0.47340019                0.20929654                1.47312130                0.13766616                0.50949258
               8.99403879                7.00940474               62.09360380                0.01000002               -0.04213667               -0.49130885                0.23008728                0.77880412                0.05058821                0.54342081
               9.99373263                7.00178983               62.09595402                0.01000000               -0.03061599               -0.07740804                0.23988933                0.32704575                0.01198804                0.47394889
               0.03522763                7.98393114               62.06287993                0.99999999               -0.03296381               -0.02941141                0.09989875               -0.00083570               -0.00599104                0.01398901
               1.03489800                7.97729026               62.06625005                1.00000000               -0.03541928               -0.03545149                0.11763665               -0.00119652               -0.01222365               -0.00290520
               2.03451925                7.97064889               62.06949894                0.43674144               -0.04030792               -0.04040019                0.13377313               -0.00459054               -0.02628750                0.00971330
               3.03409184                7.96397712               62.07258299                0.01056735               -0.40705599               -0.41300120                0.14154841                1.08108977                0.01884577                0.02093626
               4.02637813                7.96953515               62.07670368                0.01000000               -0.64453614               -0.94425211                0.16276890                2.22265672                0.13084960                0.01964617
               5.02120111                7.98107628               62.08088345                0.01000000               -0.60713187               -0.30179608                0.18093044                2.38896454                0.18093934                0.16774899
               6.01423549                7.99416912               62.08552162                0.01000000               -0.66657909               -0.08819659                0.19635473                1.98416814                0.25708437                0.24548857
               7.00786953                8.00321403               62.09042317                0.01000001               -0.51155421               -0.13230664                0.19513397                1.37233890                0.31742882                0.33066937
               8.00400441                8.00678619               62.09523260                0.01000002               -0.26832376               -0.24653535                0.22012977                0.77554200                0.29660863                0.44465138
               9.00250306                8.00594018               62.09909146                0.01000001               -0.12905686               -0.26790326                0.23981230                0.27867876                0.21412417                0.71326636
              10.00142327                8.00227547               62.10182724                0.01000000               -0.10797882                0.07211779                0.22378148                0.12720347                0.13947997                0.50561848
               0.04189110                8.98363689               62.06370547                0.99847113               -0.03339087               -0.02957829                0.10065528               -0.00043641               -0.00055206                0.01392238
               1.04155720                8.97694028               62.06702441                0.99999999               -0.03627325               -0.03487948                0.11746895               -0.00058077                0.00048422                0.00152474
               2.04116564                8.97024758               62.07036582                0.99889010               -0.04206212               -0.03977870                0.13385366               -0.00189239                0.00104522                0.00004779
               3.04071595                8.96354800               62.07365491                0.66314843               -0.04533510               -0.04257448                0.14412996               -0.00408658                0.00029469                0.00659682
               4.04025894                8.95683424               62.07688753                0.01000000               -0.50336396               -0.65558113                0.14293976                1.82684390                0.13583281               -0.03446771
               5.03064867                8.97950684               62.08290151                0.01000000               -1.03456331                0.09190923                0.17122564                2.04855249                0.28221610                0.09581975
               6.01956767                8.99476409               62.08797853                0.01000001               -0.92781296                0.13234046                0.18990427                1.19561354                0.32139346                0.13112659
               7.01209242                9.00306594               62.09318582                0.01000002               -0.61038112                0.02132552                0.20548196                0.66347006                0.41298709                0.16634055
               8.00736005                9.00553593               62.09893116                0.01000000               -0.39846639               -0.05092987                0.20706414                0.23290069                0.65658544                0.29414907
               9.00412309                9.00404668               62.10753500                1.00000000               -0.18769622               -0.12049195                0.17060270                0.00710519                0.44590478                0.44089610
              10.00360613                9.00323218               62.10715826                0.99988450               -0.05169624                0.02141081                0.17432460                0.06845819               -0.00275560                0.27934568
               0.04861213                9.98333957               62.06448331                0.99974935               -0.03364412               -0.02973169                0.10072210               -0.00258799                0.00999747                0.01073585
               1.04827569                9.97659267               62.06780887                0.99846583               -0.03692292               -0.03476106                0.11766805               -0.00246356                0.01517836                0.00178019
               2.04787367                9.96985331               62.07123825                0.99999997               -0.04261217               -0.03942667                0.13522235               -0.00254854                0.02053105                0.00066335
               3.04742345                9.96312563               62.07460836                0.99999998               -0.04587532               -0.04223753                0.14634528               -0.00074020                0.01811634               -0.00333938
               4.04695617                9.95642352               62.07790467                0.01686996               -1.15905649               -0.04107160                0.14717892                1.65916464                0.16053407               -0.01644601
               5.02424232                9.98291446               62.08415178                0.01000001               -1.61837533                0.34076200                0.17443168                1.37898458                0.29041404                0.02318443
               6.01458866                9.99681593               62.08928340                0.01000001               -0.69376114                0.20518430                0.19740248                0.53840276                0.33024285                0.04280414
               7.01036709               10.00364054               62.09435941                0.01000000               -0.34534857                0.05745968                0.22255104                0.27505124                0.42709849                0.06943804
               8.00768169               10.00576760               62.10091014                0.01000000               -0.27090953                0.02316700                0.19060264                0.02665401                0.59809349                0.16431541
               9.00494890               10.00353034               62.10722417                0.99986640               -0.16301347               -0.05163337                0.17388685               -0.07061399                0.33817866                0.00365918
              10.00442142               10.00270368               62.10684748                0.99686309               -0.05274842               -0.05285000                0.17762515               -0.00113649                0.00333464               -0.00327631
              -0.06103580               -0.00236821               63.04871564                1.00000000               -0.02252788               -0.02318897                0.07349232                0.00178666               -0.00820199                0.00795016
               0.93873892               -0.00625566               63.05219440                1.00000000               -0.02306105               -0.02435075                0.07724902                0.00063378               -0.00885002               -0.00154207
               1.93850298               -0.01011790               63.05566006                0.01000000                0.08351730               -0.02551674                0.08100755                0.14374291               -0.02677645               -0.00360992
               2.94040926               -0.01109112               63.05877546                0.01000001                0.14046866               -0.05699493                0.10430553                0.13382771               -0.05481506                0.02776505
               3.94131235               -0.00816261               63.06112715                0.01000000               -0.00091436               -0.00366309                0.12092738                0.24489847               -0.10887435                0.01941382
               4.94039098                0.00000165               63.06241023                0.01000001               -0.33625940                0.06550607                0.13757430                0.55422129               -0.18735247                0.00689680
               5.93458716                0.01671488               63.06196111                0.01272668               -0.60534051                0.00941398                0.15781956                0.72627893                0.07479863               -0.16689205
               6.92828417                0.02953435               63.06513230                0.97128533               -0.32871609               -0.03019450                0.09025930                0.52348634                0.00738899               -0.00176197
               7.92801284                0.03195628               63.06818340                1.00000000               -0.02744956               -0.03085334                0.09230834                0.00034881                0.00209069               -0.00012910
               8.92773517                0.03444306               63.07124544                1.00000000               -0.02806543               -0.03145789                0.09432451                0.00039008                0.00236152                0.00113451
               9.92745153                0.03699480               63.07429537                0.99933654               -0.02836447               -0.03209491                0.09641228               -0.00292387                0.00228307                0.00311981
              -0.05713049                0.99739990               63.04969634                1.00000000               -0.02494127               -0.02432313                0.08126739                0.00123015                0.00147000                0.00845436
               0.94262010                0.99350083               63.05317641                0.01049337               -0.02556890               -0.02553322                0.08502332                0.00007460                0.00441913               -0.00453915
               1.94235813                0.98962693               63.05671683                0.01000000               -0.09251006               -0.05713045                0.08883113                0.10609325                0.00694261                0.03291663
               2.94076990                0.98833893               63.06024416                0.01000000               -0.20715920               -0.04704692                0.11192891                0.29468102                0.00220335                0.02477475
               3.93821495                0.99180076               63.06290990                0.01000000               -0.36377276               -0.00064339                0.12625400                0.57824325               -0.02764554                0.01119732
               4.93349444                1.00065671               63.06481039                0.01000000               -0.55656738                0.02850530                0.14381786                1.00602918               -0.06351292               -0.03194641
               5.92708360                1.01680902               63.06525053                0.01000001               -0.37980560               -0.23078148                0.17218238                1.21831809               -0.04281092               -0.12909671
               6.92589833                1.02923240               63.06627256                0.88650945               -0.07608154               -0.03322947                0.11089069                0.50365261               -0.10095172               -0.00209045
               7.92556197                1.03164775               63.06932800                1.00000000               -0.03392561               -0.03389190                0.11302842                0.00004620                0.00072683               -0.00002081
               8.92521982                1.03412848               63.07238727                1.00000000               -0.03457092               -0.03455033                0.11518785                0.00000956                0.00050581                0.00178309
               9.92487055                1.03667385               63.07543836                0.99999999               -0.03492652               -0.03516604                0.11729972               -0.00316068                0.00027984                0.00469493
              -0.05321307                1.99714532               63.05069027                0.01019926               -0.02735579                0.05475870                0.08907040                0.10582004                0.00340896                0.08574217
               0.94651337                1.99323367               63.05409680                0.01000000               -0.05000959               -0.07540687                0.09280105                0.08973970                0.05297954                0.06174467
               1.94578674                1.98873949               63.05849759                0.01000001               -0.11921563               -0.16368644                0.11124122                0.28981575                0.07960893                0.07421888
               2.94412906                1.98796794               63.06198033                0.01000000               -0.26136522               -0.10375733                0.12918294                0.70501569                0.03201000                0.04187837
               3.94055943                1.99182452               63.06485523                0.01000000               -0.43128830               -0.05453093                0.13999524                1.13653255               -0.00763716                0.02565812
               4.93550329                2.00057176               63.06696215                0.01000001               -0.50908019               -0.10537884                0.14764034                1.51754782               -0.06434180               -0.00617977
               5.93037783                2.01209925               63.06835141                0.01000000               -0.59924011               -0.33269362                0.14366809                1.90758677               -0.26932749                0.04806530
               6.92351849                2.02886976               63.06740869                0.01000003               -0.36300734               -0.42113122                0.13141143                1.19971941               -0.20002192                0.17341323
               7.92311768                2.03127845               63.07047348                0.38239040               -0.04046133               -0.04010162                0.13379359               -0.00020819               -0.00020399                0.00447239
               8.92270926                2.03375205               63.07353697                1.00000000               -0.04100529               -0.04076936                0.13608963               -0.00011467               -0.00024776                0.00157852
               9.92229758                2.03629148               63.07660510                0.99841963               -0.04116870               -0.04136317                0.13815832               -0.00321043               -0.00014608                0.00475810
              -0.04719079                2.99849507               63.05322131                0.01000001                0.00115132                0.13469589                0.03219286                0.31277043               -0.06765959                0.12380816
               0.95282072                2.99199269               63.05640393                0.01000000                0.03054838               -0.28435634                0.07073818                0.39260942                0.01580994                0.17505663
               1.95342018                2.98635320               63.06052767                0.01000000               -0.05177709               -0.31570379                0.14041548                0.74599955                0.08614040                0.07771348
               2.95178518                2.98626379               63.06401564                0.01000000               -0.25391960               -0.23558318                0.15171048                1.22903232                0.05034945                0.06691372
               3.94834179                2.99071014               63.06699527                0.01028370               -0.41072587               -0.18574273                0.15796198                1.60960193                0.00281399                0.06110595
               4.94357066                2.99854913               63.06940969                0.01000000               -0.57022257               -0.20697472                0.16112485                1.96625850               -0.08018782                0.07993994
               5.93693733                3.01015515               63.07095905                0.01000001               -0.64285691               -0.25383012                0.16036969                2.06557489               -0.16563033                0.13585048
               6.93071353                3.02080978               63.07206868                0.01000000               -0.81309120               -0.54954970                0.16086543                1.96238797               -0.27528723                0.30081306
               7.92067551                3.03084572               63.07171404                0.01050789               -0.52545183               -0.31299212                0.15731004                1.16824029               -0.17777511                0.21631762
               8.92020449                3.03331310               63.07467626                0.10184395               -0.04740091               -0.02040565                0.15713879                0.01731138               -0.00662396                0.09262425
               9.91972749                3.03584659               63.07775076                1.00000000               -0.04769968               -0.03378349                0.15914544                0.01253006               -0.00156859                0.10315610
              -0.03395291                3.99983924               63.05632943                0.01000000                0.04603334               -0.06907315                0.10364026                0.46284426                0.03512665                0.21973977
               0.96650743                3.98754655               63.05936241                0.01000000                0.01942721               -0.53340042                0.15637415                0.85470641                0.06519675                0.15200310
               1.96643564                3.98242542               63.06284907                0.01000000               -0.10773272               -0.43270318                0.17032272                1.37137377                0.09042779                0.09615186
               2.96435277                3.98325628               63.06625210                0.01028198               -0.29847567               -0.33198002                0.17561162                1.71432685                0.06384389                0.08620034
               3.96046612                3.98810967               63.06933001                0.01000000               -0.44846601               -0.30773845                0.17659412                2.04636460                0.02073219                0.10081006
               4.95538345                3.99643226               63.07201860                0.01000001               -0.55187197               -0.26411694                0.17688961                2.32270857               -0.03513633                0.14228077
               5.94942868                4.00702265               63.07423090                0.01000001               -0.66538838               -0.31487324                0.17885210                2.50331003               -0.10363326                0.22015601
               6.94207568                4.01787877               63.07586234                0.01046828               -0.77247555               -0.33706455                0.17970746                2.35204271               -0.16814919                0.29947164
               7.93397917                4.02501860               63.07710277                0.01000000               -1.20105310               -0.46034717                0.17722354                2.44069647               -0.25410538                0.43163133
               8.91805462                4.03334394               63.07765385                0.01000000               -0.82489903               -0.40045306                0.18849801                2.08001568               -0.17035777                0.36485412
               9.91748119                4.03561581               63.08089352                0.01000001               -0.05734293               -1.21940023                0.18160117                1.92803195               -0.00610163                0.37540738
              -0.01334852                4.99711361               63.05993522                0.01000000                0.06771929               -0.78656659                0.05841839                1.00678723                0.05698793                0.15427759
               0.98732868                4.98132468               63.06247870                0.01000000               -0.07567817               -0.51792597                0.18809517                1.59714732                0.07296513                0.19870663
               1.98513792                4.97769914               63.06536122                0.01000001               -0.34706040               -0.38392944                0.19391932                1.87322210                0.06732662                0.12414672
               2.98038747                4.97962419               63.06854577                0.01000000               -0.45224127               -0.41335634                0.19557644                2.08152622                0.07230216                0.09360940
               3.97609309                4.98455537               63.07177496                0.01000001               -0.46378095               -0.38620130                0.18721140                2.33061780                0.05500053                0.13027758
               4.97111185                4.99326680               63.07489940                0.01000001               -0.52680311               -0.35511011                0.18795232                2.61846445                0.02410106                0.18753129
               5.96555703                5.00385769               63.07769104                0.01035328               -0.56767106               -0.35009221                0.19139512                2.73365408               -0.02474407                0.26281784
               6.95975843                5.01406849               63.08005048                0.01032706               -0.57663848               -0.41079806                0.19418913                2.71378979               -0.06920226                0.34946048
               7.95402426                5.02163877               63.08214993                0.01000000               -0.42754162               -0.45341075                0.19493718                2.63980135               -0.07993472                0.43691412
               8.95120760                5.02530403               63.08435251                0.01000000               -0.01399343               -0.88751776                0.19221863                2.35701137               -0.06665850                0.55982770
               9.95374439                5.01145858               63.08702042                0.01000000                0.25367985               -1.60167434                0.18597570                1.56998072               -0.05925481                0.52629824
               0.01776068                5.98410791               63.06234319                0.02219955                0.01041565               -0.67660620                0.00047812                1.22498938               -0.01208985                0.11022277
               1.01786484                5.97718803               63.06606184                0.01000001               -0.60800518               -0.22205655                0.02499958                1.39866387               -0.10792056                0.15373525
               2.00560058                5.97474683               63.06796852                0.01000000               -0.93688857               -0.37656269                0.24051075                1.84954730               -0.02003247                0.10184302
               2.99912707                5.97498915               63.07068301                0.01000001               -0.60823547               -0.42729004                0.18436759                2.00645012                0.05499567                0.10254864
               3.99343587                5.98038564               63.07428803                0.01000001               -0.53383215               -0.48459018                0.18451610                2.42701286                0.10395341                0.12599172
               4.98845042                5.98933006               63.07781347                0.01035139               -0.50678974               -0.41415689                0.18889997                2.67631585                0.08234584                0.20266499
               5.98330007                6.00002081               63.08114909                0.01029734               -0.49400163               -0.38444608                0.19629329                2.72034509                0.05827120                0.27784238
               6.97857039                6.00966280               63.08422555                0.01000000               -0.38802098               -0.42686633                0.20121437                2.55964631                0.04639594                0.37596757
               7.97553965                6.01595039               63.08732675                0.01000000               -0.15976756               -0.55367521                0.20507552                2.21619229                0.03463970                0.47640188
               8.97537504                6.01559359               63.09026410                0.01000001                0.05160266               -0.78631650                0.20201013                1.41230405                0.00556327                0.54182250
               9.97657171                6.00358232               63.09304984                0.01000000                0.11966673               -0.50362574                0.19427892                0.69217213               -0.01521445                0.51207336
               0.02499103                6.98358148               63.06312041                0.99228323               -0.03279987               -0.04128705                0.10100175                0.02777131               -0.00929439                0.01322055
               1.02466304                6.97688355               63.06674467                0.35387830               -0.03316470               -0.03304321                0.11849651                0.00518237               -0.04433375               -0.00864546
               2.02432774                6.97016789               63.06966752                0.01000000               -0.48926888               -0.24903391                0.12194210                0.98000038               -0.05710149                0.05359920
               3.01487766                6.97107838               63.07299042                0.01000000               -0.70176481               -0.59894697                0.14263721                1.80842855                0.10438513               -0.00584219
               4.01029244                6.97486357               63.07646228                0.01043909               -0.49373299               -0.58874288                0.16542006                2.19758405                0.11357297                0.11231625
               5.00500300                6.98498366               63.08049494                0.01032684               -0.53306267               -0.43783185                0.18404180                2.57078653                0.14145877                0.18001414
               5.99963119                6.99616876               63.08439773                0.01000000               -0.49906125               -0.31230277                0.19417603                2.46410014                0.15658661                0.27292235
               6.99502177                7.00553116               63.08848908                0.01000000               -0.36069327               -0.32972142                0.20304495                2.10326262                0.17874857                0.38082453
               7.99241733                7.01056527               63.09247293                0.01000001               -0.16000158               -0.44630479                0.20971686                1.56473783                0.16188049                0.50163078
               8.99182174                7.00957770               63.09594932                0.01003478               -0.04034812               -0.47030241                0.22661485                0.84707739                0.09100619                0.57071651
               9.99161036                7.00138607               63.09851464                0.01000003               -0.02113785               -0.09336054                0.23927414                0.35710581                0.03919028                0.50239376
               0.03171197                7.98328217               63.06388890                1.00000000               -0.03298852               -0.02998400                0.10151091               -0.00063364               -0.00583439                0.01567778
               1.03138208                7.97652716               63.06742323                0.99999995               -0.03531060               -0.03533298                0.11705461               -0.00105750               -0.01231179               -0.00382406
               2.03100575                7.96976615               63.07082830                0.39907724               -0.03910613               -0.03980488                0.13165810               -0.00266112               -0.03318629                0.01174638
               3.03059996                7.96301021               63.07393662                0.01067319               -0.37617394               -0.42471048                0.13289544                1.06793021                0.01489854                0.00867148
               4.02348228                7.96861078               63.07825774                0.01000000               -0.60195014               -0.95262760                0.15862912                2.21023302                0.13813630                0.01608344
               5.01856096                7.98057342               63.08269278                0.01000000               -0.57238512               -0.31022637                0.17833790                2.40661108                0.19117136                0.14665597
               6.01203457                7.99377475               63.08746340                0.01000000               -0.61609090               -0.10266058                0.19085823                2.02755367                0.25890558                0.22671702
               7.00623914                8.00306838               63.09236041                0.01000001               -0.46233528               -0.14147662                0.19598471                1.45347594                0.32576762                0.31486465
               8.00278787                8.00702429               63.09744077                0.01000002               -0.23716743               -0.24648262                0.21083753                0.87064680                0.33371674                0.43764802
               9.00149579                8.00618754               63.10162642                0.01000001               -0.13453872               -0.26026613                0.27745722                0.36594049                0.24233989                0.70326420
              10.00009709                8.00171511               63.10418466                0.01000000               -0.13986958                0.10565312                0.29280469                0.16907873                0.16865662                0.51385428
               0.03848837                8.98298180               63.06472349                1.00000000               -0.03304666               -0.03020295                0.10242408               -0.00025726               -0.00001668                0.01567716
               1.03815790                8.97617689               63.06819772                0.99999999               -0.03484519               -0.03505156                0.11687521               -0.00031889                0.00036974                0.00160164
               2.03779147                8.96937179               63.07167564                0.99849751               -0.03831380               -0.03939709                0.13053889                0.00115410                0.00207325               -0.00208167
               3.03739163                8.96258417               63.07515943                0.75654527               -0.04287864               -0.04445834                0.14723939                0.00293379                0.01485696                0.01127660
               4.03693389                8.95581101               63.07885228                0.01000000               -0.47101895               -0.66839978                0.17361417                1.82368998                0.12746204               -0.02770492
               5.02797125                8.97877913               63.08456739                0.01000000               -0.96232912                0.06225608                0.17043355                2.06456325                0.27607591                0.07696072
               6.01768731                8.99411555               63.08985169                0.01000001               -0.85647493                0.10309307                0.18726443                1.23993365                0.32887095                0.12192999
               7.01084175                9.00270163               63.09521060                0.01000002               -0.54881071                0.00367167                0.20180540                0.70843183                0.42058693                0.17076610
               8.00671110                9.00563562               63.10103702                0.01000001               -0.31960100               -0.08167735                0.20792219                0.29511080                0.63295309                0.27157154
               9.00444973                9.00437238               63.10922718                1.00000000               -0.13871544               -0.11629344                0.16782705                0.08558557                0.42253468                0.39648992
              10.00393679                9.00349913               63.10890380                1.00000000               -0.05129420                0.06250527                0.17477385                0.14843192               -0.00274781                0.24652383
               0.04531664                9.98267811               63.06550306                0.99934790               -0.03309226               -0.03036940                0.10263453               -0.00237091                0.01195959                0.01229989
               1.04498572                9.97582613               63.06898465                0.99808006               -0.03475421               -0.03507618                0.11703019               -0.00221391                0.01636545                0.00208148
               2.04462156                9.96897821               63.07254787                1.00000000               -0.03831537               -0.03935824                0.13079693               -0.00224551                0.02391555               -0.00060800
               3.04421941                9.96212105               63.07614642                1.00000000               -0.04302179               -0.04631283                0.15000666               -0.00399298                0.03625093               -0.00067482
               4.04376112                9.95524279               63.07991798                0.01673654               -1.13358637               -0.05682275                0.17697127                1.66759736                0.15347998               -0.00478677
               5.02154768                9.98181854               63.08583152                0.01000001               -1.54251857                0.30394141                0.17195369                1.38733453                0.28914604                0.01208162
               6.01291075                9.99583661               63.09124509                0.01000001               -0.63299862                0.17210603                0.19501724                0.58850674                0.33861848                0.04276698
               7.00888771               10.00314181               63.09660206                0.01000000               -0.29457084                0.04401798                0.21891281                0.28230242                0.42936863                0.07710408
               8.00701933               10.00539075               63.10284203                0.01000000               -0.17718612               -0.02448721                0.19656538                0.06681634                0.55012727                0.13816712
               9.00534399               10.00386167               63.10896084                1.00000000               -0.11035499               -0.05107116                0.17344705               -0.03185083                0.32579453                0.00368175
              10.00481223               10.00296522               63.10863744                0.99712080               -0.05317556               -0.05339133                0.18039060               -0.00210097                0.00327890               -0.00328983
              -0.06461539               -0.00330805               64.04945269                1.00000000               -0.02253150               -0.02337024                0.07391262                0.00170413               -0.00821228                0.00795106
               0.93515930               -0.00729193               64.05296497                1.00000000               -0.02294281               -0.02427752                0.07685865                0.00050217               -0.00886618               -0.00155995
               1.93492576               -0.01124979               64.05646420                0.01000000                0.09704436               -0.02518446                0.07980746                0.14445507               -0.01812037               -0.00360296
               2.93710019               -0.01230081               64.05978655                0.01000001                0.17459653               -0.07124134                0.09812894                0.13321520               -0.04153780                0.03300292
               3.93841769               -0.00974354               64.06232221                0.01000003                0.05253265               -0.01837959                0.11327095                0.22496401               -0.10163382                0.02802343
               4.93815084               -0.00222910               64.06376176                0.01009858               -0.20484862                0.03020662                0.13271055                0.41624188               -0.16956928                0.02360701
               5.93432071                0.01127957               64.06382233                0.01000005               -0.64573588                0.07182197                0.18416026                0.75070714                0.00595138               -0.14008163
               6.92523612                0.02827334               64.06603370                0.97136904               -0.46772487               -0.03032013                0.09006218                0.73173151               -0.04158616               -0.00175543
               7.92496622                0.03070666               64.06910267                1.00000000               -0.02722458               -0.03079310                0.09155398                0.00027017                0.00191532               -0.00016505
               8.92469163                0.03320812               64.07218116                1.00000000               -0.02765000               -0.03120498                0.09293963                0.00030520                0.00212943                0.00115663
               9.92441322                0.03577770               64.07524822                1.00000000               -0.02784116               -0.03168331                0.09440591               -0.00319625                0.00204766                0.00311875
              -0.06061446                0.99645825               64.05051225                1.00000000               -0.02503445               -0.02454691                0.08196061                0.00127043                0.00149851                0.00844283
               0.93913519                0.99246529               64.05402594                0.01043553               -0.02553944               -0.02549426                0.08491125                0.00006998                0.00443939               -0.00457059
               1.93887475                0.98849836               64.05760035                0.01000000               -0.07279889               -0.06064207                0.08788433                0.11160852                0.01497426                0.03895359
               2.93767921                0.98698678               64.06132178                0.01000000               -0.16216358               -0.05756882                0.10396590                0.28338910                0.00880012                0.04069918
               3.93563147                0.99007266               64.06410433                0.01000000               -0.29387568               -0.00927620                0.11072057                0.53052329               -0.03394810                0.03103447
               4.93180170                0.99807296               64.06611288                0.01000000               -0.45274544                0.01985877                0.11505445                0.84497578               -0.05742474               -0.00754957
               5.92657657                1.01199779               64.06690079                0.01000001               -0.44809027               -0.07884377                0.14277569                1.14834345               -0.05010349               -0.10366897
               6.92283989                1.02797014               64.06738629                0.87988947               -0.20375186               -0.03353104                0.11185480                0.68062556               -0.12863389               -0.00213941
               7.92250153                1.03039872               64.07046020                1.00000000               -0.03403669               -0.03401146                0.11340977                0.00007315                0.00075833               -0.00006210
               8.92215916                1.03289607               64.07353755                1.00000000               -0.03449263               -0.03446951                0.11493785                0.00005332                0.00049567                0.00180365
               9.92181168                1.03546086               64.07660668                1.00000000               -0.03474841               -0.03497530                0.11647493               -0.00330864                0.00023870                0.00470716
              -0.05660407                1.99620101               64.05158530                0.01000001               -0.02753471                0.02048405                0.09002417                0.09198877                0.00342757                0.01660569
               0.94312058                1.99219818               64.05502522                0.01000000               -0.03797429               -0.10286689                0.09295980                0.08327444                0.05903121                0.04016642
               1.94263644                1.98753737               64.05958101                0.01000001               -0.09634561               -0.16820820                0.11060639                0.28963987                0.09231463                0.09469347
               2.94119367                1.98654782               64.06324043                0.01000000               -0.23472374               -0.10541812                0.12162896                0.68788914                0.02589648                0.07562767
               3.93794197                1.99007093               64.06619379                0.01000000               -0.40342233               -0.04745418                0.12680981                1.07753214               -0.02107170                0.05778870
               4.93312522                1.99816807               64.06835584                0.01000001               -0.52757788               -0.06200326                0.12967305                1.42700078               -0.08254074                0.02423550
               5.92739041                2.00970270               64.06967380                0.01000000               -0.63387619               -0.17244193                0.12519340                1.83942559               -0.28103069                0.06033792
               6.92044770                2.02760272               64.06873386                0.01000003               -0.36743313               -0.42277630                0.13355106                1.25285332               -0.20055334                0.17639665
               7.92004175                2.03002643               64.07181872                0.39225269               -0.04085716               -0.04048162                0.13526546               -0.00004694                0.00010033                0.00500528
               8.91963056                2.03251873               64.07490225                1.00000000               -0.04121472               -0.04102380                0.13697843                0.00004115               -0.00011039                0.00161914
               9.91921745                2.03507819               64.07798918                1.00000000               -0.04131023               -0.04156105                0.13857797               -0.00333543               -0.00009902                0.00483447
              -0.05076903                2.99686793               64.05281363                0.01000000                0.02333583                0.11465860                0.09003265                0.34585074                0.15587976                0.22711283
               0.94946433                2.99040796               64.05698095                0.01000000                0.05434731               -0.30178335                0.12663631                0.43453895                0.16944222                0.13409901
               1.95031791                2.98513420               64.06193141                0.01000000               -0.02804479               -0.31643654                0.13324664                0.76460434                0.10788771                0.14092165
               2.94890343                2.98487842               64.06551343                0.01000000               -0.23780262               -0.22862721                0.14642257                1.21284099                0.02432490                0.11186846
               3.94556186                2.98912358               64.06854619                0.01028081               -0.40967391               -0.16498688                0.14908780                1.58118400               -0.02095764                0.09689896
               4.94070995                2.99683290               64.07097018                0.01000000               -0.58157135               -0.15306095                0.14986887                1.93972765               -0.09657292                0.10741433
               5.93393043                3.00854895               64.07252190                0.01000001               -0.65683601               -0.19406229                0.15191043                2.08640888               -0.17006903                0.15820940
               6.92757323                3.01951461               64.07366651                0.01000000               -0.81729275               -0.53973004                0.15820454                1.97714870               -0.27616025                0.30952567
               7.91758458                3.02958909               64.07328345                0.01061988               -0.52325061               -0.29810968                0.15764852                1.15349987               -0.18034254                0.22292513
               8.91710822                3.03207559               64.07625685                0.11605767               -0.04792684               -0.04283936                0.15905685                0.00433509               -0.00714010                0.05674523
               9.91662604                3.03462964               64.07934996                0.99880722               -0.04821770               -0.05076842                0.16064127                0.00940702               -0.00168591                0.06435855
              -0.03676711                3.99849418               64.05743406                0.01000000                0.03122013               -0.04169938                0.09126107                0.46803846                0.03087514                0.24198207
               0.96354509                3.98616252               64.06102147                0.01000000                0.01125910               -0.49276390                0.14590599                0.86602123                0.02090211                0.24161646
               1.96345807                3.98120864               64.06453245                0.01000000               -0.10419894               -0.42693562                0.16717581                1.37705871                0.01743387                0.16919919
               2.96146111                3.98197527               64.06802484                0.01028303               -0.29234524               -0.32159370                0.17110626                1.70582550                0.00981323                0.13459287
               3.95761117                3.98677120               64.07108487                0.01000000               -0.44833556               -0.28770473                0.17021101                2.04089926               -0.01833461                0.13002976
               4.95249440                3.99510685               64.07376264                0.01000001               -0.55871451               -0.23129454                0.16948229                2.33260676               -0.05504950                0.16075325
               5.94643688                4.00582145               64.07599151                0.01000001               -0.67719327               -0.27861087                0.17190208                2.52383029               -0.11093704                0.23122611
               6.93895053                4.01680812               64.07762580                0.01049136               -0.79430563               -0.31016368                0.17553490                2.37548943               -0.16240191                0.30192162
               7.93055076                4.02406423               64.07901064                0.01000000               -1.21369138               -0.44050531                0.18152170                2.41920926               -0.27637572                0.42796897
               8.91467671                4.03166194               64.07873248                0.01000000               -0.81266351               -0.38416645                0.13413852                2.05061966               -0.17864768                0.34646112
               9.91429749                4.03406282               64.08192913                0.01000000               -0.03792140               -1.21253097                0.13059047                1.93264486               -0.00370779                0.33196520
              -0.01674493                4.99603394               64.06020392                0.01000003                0.08152275               -0.75377749                0.03968532                0.97939046               -0.03312346                0.14758328
               0.98407030                4.98055268               64.06387198                0.01000000               -0.06043684               -0.49687747                0.14081909                1.53112122               -0.03630293                0.20926015
               1.98204633                4.97659549               64.06733230                0.01000001               -0.33064589               -0.36674922                0.18654251                1.81767840               -0.03526000                0.16980219
               2.97745738                4.97844654               64.07048168                0.01000000               -0.43990350               -0.41690182                0.18823318                2.06726907               -0.01539596                0.12424006
               3.97324826                4.98336948               64.07366389                0.01000001               -0.45727747               -0.38067154                0.18455238                2.34894726                0.00594411                0.13801809
               4.96831183                4.99220701               64.07676305                0.01000001               -0.52712434               -0.32979147                0.18224998                2.64426746                0.00269326                0.19068090
               5.96270578                5.00297674               64.07957416                0.01037624               -0.57357964               -0.32183599                0.18434416                2.76563282               -0.03085853                0.26269734
               6.95684024                5.01331134               64.08196595                0.01036542               -0.57954191               -0.38444768                0.18761349                2.73990557               -0.06954026                0.34426605
               7.95111494                5.02077899               64.08403864                0.01000000               -0.43591079               -0.43024968                0.18721207                2.67095234               -0.07195594                0.41806576
               8.94812202                5.02439226               64.08634827                0.01000000               -0.03188816               -0.83279701                0.18870162                2.37808422               -0.06205842                0.56518251
               9.95047718                5.01037902               64.08894474                0.01000000                0.23551534               -1.57459731                0.18393396                1.57264012               -0.06086378                0.52464023
               0.01378322                5.98341863               64.06246787                0.01000000               -0.01772549               -0.65450579                0.01285013                1.17746177               -0.03404391                0.15013465
               1.01360597                5.97622497               64.06666266                0.01000001               -0.59327240               -0.22188341                0.08020012                1.36249039               -0.11259987                0.09640210
               2.00191778                5.97387365               64.06972695                0.01000000               -0.87867359               -0.36638463                0.17343269                1.79612322               -0.10787452                0.09175041
               2.99603250                5.97363723               64.07266018                0.01000001               -0.55440649               -0.50044826                0.18924469                2.05500452               -0.02737369                0.05492777
               3.99082965                5.97915776               64.07612460                0.01000001               -0.51300003               -0.46867951                0.18282790                2.46487120                0.06718283                0.10290369
               4.98577250                5.98851102               64.07969373                0.01036777               -0.50922216               -0.39716365                0.18534667                2.71561057                0.06792008                0.19221425
               5.98064520                5.99938473               64.08308079                0.01033373               -0.49130500               -0.36522912                0.18912867                2.75310114                0.05330947                0.26787968
               6.97594640                6.00911916               64.08619791                0.01000000               -0.38781598               -0.40588155                0.19262986                2.59983774                0.04640697                0.36187713
               7.97288888                6.01545924               64.08932910                0.01000000               -0.16540213               -0.51968764                0.19569447                2.25623143                0.03664980                0.46381375
               8.97263835                6.01500600               64.09227282                0.01000001                0.04439461               -0.74677543                0.19795161                1.44034089                0.01089036                0.51329382
               9.97377678                6.00257088               64.09502776                0.01000000                0.11384215               -0.48380718                0.19738067                0.70191820               -0.00551026                0.47166074
               0.02119164                6.98294383               64.06413531                0.99781391               -0.03265510               -0.03885137                0.10165448                0.03007131               -0.00828180                0.05846719
               1.02086509                6.97611501               64.06792491                0.28729791               -0.03175541               -0.02321205                0.11714978                0.02151815               -0.05099374                0.01926917
               2.02055653                6.96926779               64.07085616                0.01302508               -0.37958654               -0.24989804                0.11441728                0.88734620               -0.07102764                0.02942243
               3.01327336                6.96843758               64.07417397                0.01000000               -0.64423164               -0.58278494                0.14986911                1.78279809                0.16136558               -0.11109035
               4.00767190                6.97399589               64.07814913                0.01047127               -0.54381411               -0.58454755                0.16992790                2.26906003                0.12742605                0.09313206
               5.00239708                6.98426373               64.08231344                0.01036033               -0.52561185               -0.42870352                0.18003111                2.58613234                0.13714078                0.16135012
               5.99715966                6.99567215               64.08631512                0.01000000               -0.48172952               -0.30676142                0.18793215                2.50153709                0.15339325                0.25654615
               6.99276249                7.00519371               64.09046894                0.01000000               -0.34034663               -0.31646787                0.19390045                2.15871000                0.18132872                0.36453031
               7.99035273                7.01038523               64.09457864                0.01000001               -0.14726413               -0.42420886                0.20365943                1.63934491                0.16991417                0.47649588
               8.98981720                7.00945675               64.09813609                0.01025667               -0.04834704               -0.41392013                0.21321695                0.91426297                0.10141660                0.58111086
               9.98938579                7.00070288               64.10073951                0.01000003               -0.04314146               -0.02037438                0.22352182                0.41977017                0.04548181                0.53427369
               0.02804228                7.98264161               64.06491015                1.00000000               -0.03299175               -0.03037740                0.10259599               -0.00055380               -0.00577161                0.01702017
               1.02771236                7.97576073               64.06859114                0.99959124               -0.03500733               -0.03520592                0.11641428               -0.00092803               -0.01278604               -0.00502638
               2.02734213                7.96887569               64.07213210                0.35210264               -0.03760011               -0.03907100                0.12952592               -0.00451664               -0.04088120                0.01631305
               3.02696036                7.96198154               64.07524090                0.01078673               -0.34787222               -0.34369205                0.12601149                0.95771102                0.01617898                0.01762200
               4.02038469                7.96746681               64.07987626                0.01000000               -0.55707392               -0.96879957                0.15711118                2.18418705                0.14206179               -0.00511854
               5.01581888                7.97993695               64.08445020                0.01000000               -0.53193581               -0.31782033                0.17327659                2.42781961                0.18965361                0.13025344
               6.00974597                7.99324950               64.08933879                0.01000000               -0.57056825               -0.11255755                0.18515097                2.05975372                0.25748984                0.21123226
               7.00440752                8.00278980               64.09434286                0.01000001               -0.41666204               -0.14770403                0.19523393                1.51409486                0.31664699                0.30189435
               8.00141273                8.00697506               64.09944935                0.01000002               -0.19007753               -0.24095690                0.19967583                0.97937936                0.36782847                0.41663384
               9.00060597                8.00672760               64.10464061                0.01390708               -0.08664017               -0.24073502                0.25479318                0.50390630                0.30640331                0.64997664
               9.99967993                8.00216339               64.10768333                0.01000002               -0.09260377                0.15034967                0.25363111                0.28418632                0.22740475                0.47181778
               0.03494232                8.98233628               64.06575395                1.00000000               -0.03298803               -0.03075793                0.10386192               -0.00024586               -0.00033796                0.01689584
               1.03461244                8.97541089               64.06936191                0.99999999               -0.03484675               -0.03501479                0.11646971               -0.00020395               -0.00023589                0.00112404
               2.03424539                8.96848637               64.07297660                0.99999983               -0.03879943               -0.03894962                0.12918122                0.00004616                0.00052232               -0.00302726
               3.03383646                8.96156374               64.07659970                0.78514384               -0.04225838               -0.04216899                0.14181671               -0.00242411                0.00788847                0.01642470
               4.03340022                8.95461990               64.08035982                0.01000000               -0.43328385               -0.66352174                0.14918616                1.81497873                0.12533718               -0.03711432
               5.02517078                8.97790733               64.08631018                0.01000000               -0.89491686                0.03454455                0.17064394                2.08401771                0.27760693                0.06452434
               6.01550189                8.99342100               64.09172381                0.01000001               -0.79259774                0.08174895                0.18587411                1.25884071                0.32029424                0.11667271
               7.00931882                9.00223962               64.09722193                0.01000002               -0.47496809               -0.01950506                0.19856864                0.75475479                0.40951946                0.16768523
               8.00600252                9.00556609               64.10308960                0.01000001               -0.23059109               -0.10270709                0.20079274                0.36575721                0.60782399                0.25477880
               9.00470700                9.00464205               64.11089154                1.00000000               -0.09022950               -0.12954692                0.16504587                0.16035960                0.39884974                0.32560958
              10.00419793                9.00370987               64.11065373                0.99999999               -0.05090689                0.05036053                0.17521415                0.17947507               -0.00274847                0.15569301
               0.04188813                9.98202645               64.06653600                1.00000000               -0.03299474               -0.03098291                0.10440575               -0.00202077                0.01234946                0.01318430
               1.04155819                9.97506043               64.07014947                0.99767834               -0.03489603               -0.03504611                0.11680834               -0.00191323                0.01650535                0.00194122
               2.04119021                9.96809670               64.07385419                0.99999999               -0.03899175               -0.03896759                0.12986653               -0.00163135                0.02335437               -0.00078534
               3.04077835                9.96113816               64.07760849                0.99999994               -0.04247705               -0.04255797                0.14404466               -0.00082638                0.03010346                0.00091364
               4.04034067                9.95419638               64.08144410                0.01417500               -1.10401083               -0.04235225                0.15134698                1.66852948                0.15070356               -0.00213615
               5.01869814                9.98062784               64.08759085                0.01000001               -1.48750913                0.27205171                0.17349981                1.38714081                0.29176389                0.00618874
               6.01059049                9.99488448               64.09318375                0.01000001               -0.56703070                0.14634792                0.19289619                0.59745348                0.32204821                0.04494583
               7.00735752               10.00239970               64.09873767                0.01000000               -0.21325212                0.01600785                0.20907644                0.30569165                0.42151099                0.07128070
               8.00632545               10.00492092               64.10484145                0.01000000               -0.08440702               -0.06451749                0.19911091                0.11914026                0.52179623                0.12118937
               9.00566938               10.00413666               64.11069311                0.99999999               -0.05958272               -0.05053947                0.17300651                0.00872185                0.30814883                0.00367625
              10.00513379               10.00317060               64.11045530                0.99739713               -0.05355877               -0.05392736                0.18317514               -0.00302001                0.00328779               -0.00328553
              -0.06822461               -0.00432831               65.05019389                1.00000000               -0.02252964               -0.02355398                0.07433133                0.00162581               -0.00821997                0.00795507
               0.93155009               -0.00840878               65.05373157                1.00000000               -0.02281989               -0.02420393                0.07645934                0.00037141               -0.00887045               -0.00156474
               1.93131899               -0.01246227               65.05725620                0.01000001                0.10852005               -0.02485337                0.07858805                0.14964242               -0.01141695               -0.00360031
               2.93372049               -0.01350151               65.06073804                0.01000000                0.19927410               -0.07994512                0.09297939                0.13693703               -0.03454014                0.03942781
               3.93530447               -0.01116639               65.06339256                0.01000003                0.08894898               -0.02837482                0.10512513                0.20769340               -0.10829918                0.03493667
               4.93549947               -0.00422846               65.06506444                0.01000001               -0.14351114                0.01400984                0.12026666                0.35113806               -0.18695424                0.03727393
               5.93243425                0.00775633               65.06564432                0.01000000               -0.66636828                0.11278461                0.17596487                0.78851423               -0.13811826               -0.03048955
               6.92217211                0.02679406               65.06693355                0.97163190               -0.52652861               -0.03046095                0.08994047                0.83349306               -0.08840800               -0.00178783
               7.92190368                0.02923792               65.07001448                1.00000000               -0.02699440               -0.03074673                0.09083744                0.00018873                0.00175429               -0.00021049
               8.92163222                0.03175343               65.07310423                1.00000000               -0.02726480               -0.03099611                0.09167414                0.00021946                0.00197847                0.00116472
               9.92135838                0.03434025               65.07618349                1.00000000               -0.02738375               -0.03132188                0.09261379               -0.00345115                0.00192457                0.00311187
              -0.06412789                0.99543615               65.05133555                1.00000000               -0.02513301               -0.02478157                0.08270025                0.00131602                0.00150164                0.00844787
               0.93562078                0.99134918               65.05487463                0.01042073               -0.02551696               -0.02546126                0.08482802                0.00006207                0.00444396               -0.00457652
               1.93536178                0.98728919               65.05847452                0.01000000               -0.05894331               -0.06177089                0.08695944                0.12243460                0.02008077                0.04757456
               2.93444192                0.98569904               65.06232348                0.01000000               -0.13084466               -0.06048231                0.09742886                0.27871919               -0.00010421                0.05990653
               3.93274488                0.98854986               65.06512431                0.01000000               -0.24462140               -0.01475879                0.10076298                0.49653565               -0.06895280                0.05811848
               4.92954949                0.99591163               65.06711148                0.01000000               -0.39683769                0.02138173                0.09588606                0.76036616               -0.13663569                0.04612012
               5.92480813                1.00888418               65.06810604                0.01000001               -0.48916243               -0.00357133                0.11849089                1.12613822               -0.17787011                0.01292105
               6.91976624                1.02648945               65.06850966                0.87284518               -0.26911258               -0.03382983                0.11282798                0.76183330               -0.13333678               -0.00223838
               7.91942588                1.02893046               65.07159620                1.00000000               -0.03414960               -0.03413090                0.11379961                0.00008233                0.00076504               -0.00012627
               8.91908325                1.03144347               65.07468603                1.00000000               -0.03444112               -0.03441515                0.11476348                0.00004761                0.00050056                0.00181387
               9.91873705                1.03402703               65.07776786                1.00000000               -0.03461955               -0.03476769                0.11574589               -0.00347698                0.00023294                0.00471833
              -0.06002435                1.99517605               65.05249075                0.01000000               -0.02773602                0.08762105                0.09107269                0.17659700                0.00343316                0.07764247
               0.93969829                1.99108199               65.05595600                0.01000000               -0.02789143               -0.13353808                0.09319616                0.12986322                0.06765807                0.08729530
               1.93941782                1.98630231               65.06070972                0.01000001               -0.08320414               -0.15344962                0.10934822                0.29452637                0.08482441                0.12394944
               2.93803420                1.98528885               65.06441291                0.01000000               -0.21976143               -0.09911468                0.11338654                0.67255521                0.00580316                0.11121123
               3.93502259                1.98853844               65.06739143                0.01000000               -0.38308627               -0.03964101                0.11520074                1.03156640               -0.05224882                0.10379451
               4.93037248                1.99619917               65.06955561                0.01000001               -0.53216961               -0.03105044                0.11732314                1.36302416               -0.11786806                0.09151129
               5.92437920                2.00768491               65.07085528                0.01000000               -0.65049905               -0.09412771                0.11797287                1.79748911               -0.27791100                0.10943033
               6.91736250                2.02611746               65.07007971                0.01000003               -0.37139476               -0.41905509                0.13559411                1.27664617               -0.19279221                0.17615083
               7.91695130                2.02855530               65.07317879                0.40161664               -0.04129499               -0.04090767                0.13674573                0.00000546                0.00034058                0.00491688
               8.91653660                2.03106513               65.07627654                1.00000000               -0.04147869               -0.04128531                0.13788927                0.00007575                0.00002350                0.00166460
               9.91612173                2.03364489               65.07937666                0.99999999               -0.04148692               -0.04166065                0.13890839               -0.00349814               -0.00004579                0.00492251
              -0.05240782                2.99718857               65.05502197                0.01000000               -0.05003863                0.10562728                0.16784828                0.12469060                0.07210328                0.21081060
               0.94709180                2.98867842               65.05893665                0.01000000               -0.02733665               -0.27970769                0.14785468                0.35802126                0.07638454                0.23976774
               1.94704545                2.98422020               65.06319260                0.01000000               -0.07174508               -0.29469023                0.13055037                0.77007317                0.05303382                0.18241363
               2.94565689                2.98371675               65.06694409                0.01000000               -0.22897823               -0.21544775                0.13548368                1.17496273               -0.00316471                0.15938950
               3.94246588                2.98775704               65.06997703                0.01029175               -0.39966958               -0.14729360                0.13641463                1.54564619               -0.05074546                0.14137752
               4.93766350                2.99529063               65.07240707                0.01000000               -0.58131329               -0.11723561                0.13853815                1.91239629               -0.11291948                0.14835357
               5.93083962                3.00700163               65.07399726                0.01000001               -0.66173669               -0.15449992                0.14445442                2.08926504               -0.17135631                0.19000827
               6.92442877                3.01810835               65.07523278                0.01000000               -0.81806493               -0.52498532                0.15537348                1.97783452               -0.27133906                0.31784202
               7.91447832                3.02811230               65.07486701                0.01073701               -0.52167961               -0.28662549                0.15967591                1.14515470               -0.17987278                0.21850196
               8.91399518                3.03061777               65.07785740                0.13125423               -0.04853774               -0.04416909                0.16107902                0.00540493               -0.00699287                0.04566657
               9.91350757                3.03319381               65.08096358                0.99977602               -0.04876113               -0.04922778                0.16208014                0.00220591               -0.00174893                0.05132956
              -0.04051024                3.99728860               65.05815465                0.01000003                0.03373166               -0.10785537                0.09353495                0.37295845                0.01282781                0.19879847
               0.95982708                3.98548784               65.06228053                0.01000000                0.01455938               -0.44048566                0.13465319                0.77511692               -0.00439769                0.27692077
               1.95978095                3.98040850               65.06619258                0.01000000               -0.09152327               -0.41597608                0.15524848                1.31348162               -0.02890133                0.23541684
               2.95799661                3.98097989               65.06967423                0.01028804               -0.27096583               -0.31215490                0.15539681                1.66375652               -0.04433807                0.18092459
               3.95436163                3.98559256               65.07273423                0.01000000               -0.43103960               -0.27405220                0.15631388                2.01696455               -0.05526531                0.16526178
               4.94937582                3.99385446               65.07540825                0.01000001               -0.55074291               -0.20706523                0.15791812                2.32971430               -0.07507494                0.18614723
               5.94334678                4.00459491               65.07766895                0.01000001               -0.67836549               -0.24896369                0.16335454                2.53303173               -0.11564045                0.24593172
               6.93580851                4.01561776               65.07937304                0.01051752               -0.80008980               -0.28633238                0.17117664                2.38511317               -0.16154565                0.30288285
               7.92734498                4.02282279               65.08073321                0.01000000               -1.21226646               -0.42153341                0.17141027                2.41442493               -0.27463963                0.41732383
               8.91156318                4.03018175               65.08033662                0.01000000               -0.81656161               -0.37752111                0.17100505                2.04513467               -0.17497067                0.35406169
               9.91101375                4.03266034               65.08350533                0.01000000               -0.05494356               -1.21705310                0.16952136                1.93919010               -0.00769085                0.33388092
              -0.02134712                4.99503146               65.06072893                0.01000003                0.08213540               -0.70546978                0.08063231                0.94374731               -0.08498827                0.15586250
               0.97947423                4.97986870               65.06529508                0.01000000               -0.04149243               -0.52123445                0.15236571                1.46979483               -0.11318050                0.25086564
               1.97782303                4.97590068               65.06909207                0.01000001               -0.28631339               -0.36752646                0.16492860                1.76347836               -0.12424658                0.21756805
               2.97374796                4.97747365               65.07231043                0.01000000               -0.39462111               -0.42922400                0.17087590                2.02803267               -0.08521173                0.15379846
               3.96993061                4.98227600               65.07546601                0.01000001               -0.42462599               -0.38170450                0.17085285                2.35300062               -0.03887922                0.15762832
               4.96525544                4.99114932               65.07854439                0.01000001               -0.50968257               -0.31152544                0.17138670                2.66115836               -0.02282224                0.20223510
               5.95973696                5.00202235               65.08137792                0.01040391               -0.56761482               -0.29787350                0.17521985                2.78738417               -0.04064537                0.26430661
               6.95390315                5.01238170               65.08380275                0.01040825               -0.57670635               -0.36101960                0.17986664                2.75504950               -0.07135641                0.33520747
               7.94820283                5.01968163               65.08589418                0.01000000               -0.44214098               -0.40680700                0.18329789                2.67691999               -0.07614000                0.40407782
               8.94506033                5.02306734               65.08812654                0.01000000               -0.04343198               -0.80550537                0.18025158                2.37510594               -0.06646071                0.55396984
               9.94733419                5.00885275               65.09069910                0.01000000                0.22738607               -1.57197842                0.18131932                1.57543481               -0.05897521                0.51599027
               0.00869022                5.98317920               65.06260020                0.01000003               -0.03364669               -0.63614568                0.01310620                1.11806117               -0.15106104                0.28279866
               1.00835376                5.97506315               65.06766585                0.01000001               -0.56223268               -0.22641242                0.12689722                1.36634244               -0.23508643                0.09340927
               1.99744557                5.97305797               65.07143718                0.01000000               -0.80859062               -0.37747447                0.16983852                1.80836759               -0.17502679                0.07508047
               2.99218194                5.97239541               65.07446791                0.01000001               -0.48497991               -0.55988974                0.17176311                2.09822714               -0.08240026                0.07071938
               3.98774597                5.97795847               65.07794459                0.01000001               -0.46646543               -0.46507289                0.17417384                2.49997154                0.01624192                0.11066190
               4.98285264                5.98762395               65.08152040                0.01039897               -0.49419468               -0.38475691                0.17729902                2.75016707                0.04368280                0.18714139
               5.97786208                5.99863744               65.08493166                0.01038316               -0.48012077               -0.34903323                0.18030411                2.77900115                0.04225391                0.25885545
               6.97325022                6.00839737               65.08807815                0.01000000               -0.38321711               -0.38524435                0.18326609                2.62654462                0.04055599                0.34776125
               7.97019774                6.01468665               65.09124064                0.01000000               -0.16780194               -0.48533495                0.18677420                2.28099493                0.03318154                0.44438066
               8.96989418                6.01407164               65.09422314                0.01000001                0.03769432               -0.71176017                0.19009457                1.45814998                0.00862125                0.49695664
               9.97095162                6.00122077               65.09699745                0.01000000                0.10574413               -0.47183888                0.19522081                0.71386219               -0.00921943                0.46606693
               0.01724621                6.98230855               65.06515350                1.00000000               -0.03239030               -0.05876375                0.10201005                0.08040696               -0.00739618                0.10334843
               1.01692231                6.97534045               65.06908766                0.21593872               -0.02940474               -0.00367604                0.11532681                0.07966476               -0.06042788                0.02625025
               2.01665812                6.96835119               65.07195586                0.01287190               -0.30551524               -0.25430014                0.10312718                0.85141010               -0.04959339                0.00568292
               3.01081201                6.96627585               65.07598780                0.01000000               -0.59783107               -0.57292427                0.15787754                1.78103901                0.06498889               -0.05194877
               4.00470150                6.97297454               65.07986084                0.01049316               -0.56160929               -0.58303773                0.16913341                2.32732812                0.08472939                0.06643490
               4.99957982                6.98345418               65.08409557                0.01040867               -0.50789671               -0.42210964                0.17416862                2.60530067                0.12021531                0.14810116
               5.99454356                6.99504169               65.08815638                0.01000000               -0.45974977               -0.30233681                0.17971171                2.53261306                0.14318036                0.24197395
               6.99038482                7.00467681               65.09236708                0.01000000               -0.31975559               -0.30220472                0.18504780                2.20722700                0.17496830                0.34971749
               7.98814845                7.00997493               65.09654612                0.01000001               -0.13478058               -0.39203212                0.18850136                1.69021422                0.16558834                0.45852323
               8.98768921                7.00883214               65.10021365                0.01049132               -0.04176380               -0.38200068                0.19665808                0.94683674                0.10126424                0.55562538
               9.98731318                6.99941598               65.10298507                0.01000003               -0.03760377                0.00082354                0.21051853                0.43878926                0.05933051                0.48179599
               0.02423455                7.98200393               65.06594082                1.00000000               -0.03301388               -0.03073378                0.10364704               -0.00045619               -0.00555178                0.01845066
               1.02390441                7.97498963               65.06975152                1.00000000               -0.03480881               -0.03497045                0.11558669               -0.00118645               -0.01274866               -0.00571475
               2.02353837                7.96797197               65.07341881                0.29357970               -0.03625192               -0.03810179                0.12760690               -0.00733488               -0.05072073                0.02411932
               3.02317937                7.96093692               65.07645685                0.01088642               -0.32120837               -0.28653882                0.11527422                0.88399620                0.01660742               -0.00646062
               4.01711421                7.96629772               65.08139997                0.01000000               -0.51439338               -0.97368245                0.14749514                2.16367498                0.14984148               -0.02015555
               5.01289150                7.97918176               65.08615832                0.01000000               -0.49112479               -0.32626059                0.16751819                2.44362776                0.18514504                0.11373825
               6.00729171                7.99259070               65.09116642                0.01000000               -0.52149950               -0.12188201                0.17876914                2.09046988                0.25210534                0.19790967
               7.00246151                8.00235327               65.09626509                0.01000001               -0.37225069               -0.15081417                0.18787637                1.57684190                0.31285703                0.28991031
               7.99984670                8.00684601               65.10143429                0.01000002               -0.15358191               -0.23179182                0.19406338                1.05639361                0.36524833                0.40327662
               8.99938988                8.00643163               65.10672229                0.01342328               -0.06434791               -0.20000349                0.17871354                0.57823042                0.26379387                0.59885600
               9.99855974                8.00123724               65.10925728                0.01000002               -0.08301386                0.22125261                0.15231552                0.33277388                0.12568538                0.37522880
               0.03126569                8.98169387               65.06680073                1.00000000               -0.03351545               -0.03131105                0.10569398               -0.00017600               -0.00049407                0.01814918
               1.03093054                8.97464104               65.07052711                0.99999999               -0.03507851               -0.03498934                0.11667231               -0.00057485               -0.00072815                0.00092227
               2.03056412                8.96758915               65.07425927                0.99999999               -0.03821793               -0.03823242                0.12709054               -0.00023586               -0.00063235               -0.00413945
               3.03016618                8.96054508               65.07799577                0.81039161               -0.04169799               -0.04075897                0.13742920               -0.00180315                0.00486582                0.02439961
               4.02973016                8.95350089               65.08183600                0.01000000               -0.40033947               -0.66331095                0.14647746                1.80312593                0.12793550               -0.04033835
               5.02215939                8.97692897               65.08798027                0.01000000               -0.82743585                0.00996077                0.16260931                2.09274804                0.28117586                0.05556622
               6.01318145                8.99260405               65.09356917                0.01000001               -0.72465191                0.06124797                0.18055056                1.28223722                0.32161943                0.10847352
               7.00766635                9.00166053               65.09918197                0.01000002               -0.39917401               -0.04086647                0.19361760                0.79668829                0.40680373                0.16060189
               8.00519797                9.00533910               65.10505288                0.01000002               -0.14018799               -0.12675859                0.19575070                0.44123287                0.57978347                0.24412842
               9.00486259                9.00483207               65.11252810                1.00000000               -0.04202699               -0.10497876                0.16226563                0.25025844                0.37662639                0.29878480
              10.00435743                9.00384103               65.11240808                0.99948043               -0.05051665                0.10295720                0.17565615                0.24058955               -0.00274549                0.16015089
               0.03833668                9.98137771               65.06759117                1.00000000               -0.03390501               -0.03161622                0.10693916               -0.00168810                0.01272506                0.01400184
               1.03799763                9.97428984               65.07132082                0.99727261               -0.03535291               -0.03512039                0.11778494               -0.00181015                0.01656084                0.00184163
               2.03762962                9.96720732               65.07514520                0.99999999               -0.03830313               -0.03818299                0.12811515               -0.00185489                0.02337612               -0.00116935
               3.03723157                9.96012175               65.07902731                0.99728597               -0.04183966               -0.04233322                0.14017725               -0.00225236                0.02879601                0.00145098
               4.03679283                9.95303150               65.08294492                0.01610364               -1.07941290               -0.04693920                0.14917529                1.66922792                0.15542747               -0.00315149
               5.01564331                9.97938097               65.08930151                0.01000001               -1.42939675                0.24520010                0.16718617                1.38759995                0.29990877                0.00310228
               6.00820489                9.99381566               65.09510301                0.01000001               -0.49915406                0.12116151                0.18797237                0.61009318                0.33001099                0.03999622
               7.00566023               10.00153594               65.10078358                0.01000000               -0.13525404               -0.01245896                0.20396527                0.32414644                0.41612557                0.06867959
               8.00549981               10.00431084               65.10682425                0.01000000                0.01164431               -0.10282579                0.19998037                0.16999021                0.49147093                0.10815988
               9.00589312               10.00433205               65.11242097                0.99948811               -0.00731002               -0.05000183                0.17256598                0.05232934                0.28951174                0.00367503
              10.00535361               10.00329638               65.11230095                0.99768956               -0.05395020               -0.05446438                0.18595656               -0.00394819                0.00328347               -0.00328349
              -0.07185515               -0.00543226               66.05093932                1.00000000               -0.02252757               -0.02373912                0.07475477                0.00154694               -0.00822063                0.00795577
               0.92791958               -0.00960934               66.05449416                1.00000000               -0.02269517               -0.02413149                0.07605799                0.00024402               -0.00887075               -0.00156553
               1.92769095               -0.01375843               66.05803596                0.01000000                0.11767221               -0.02452285                0.07736134                0.15996664               -0.00585623               -0.00359949
               2.93027302               -0.01468313               66.06164614                0.01000000                0.21171788               -0.08068282                0.08928213                0.13793792               -0.02792268                0.04416648
               3.93192531               -0.01250830               66.06442471                0.01000000                0.09434879               -0.02555315                0.10012966                0.20918247               -0.11320298                0.04333405
               4.93216000               -0.00557771               66.06616709                0.01143859               -0.11180349                0.00819002                0.10352210                0.30545789               -0.18154781                0.04870462
               5.92968924                0.00574634               66.06734163                0.01000000               -0.65311003                0.12989081                0.14233421                0.72632785               -0.20773141                0.00863638
               6.91909780                0.02508536               66.06783250                0.97217682               -0.54293099               -0.03061480                0.08989412                0.84815339               -0.12876921               -0.00184097
               7.91883062                0.02753901               66.07091942                1.00000000               -0.02678028               -0.03071149                0.09017490                0.00010667                0.00155942               -0.00026631
               8.91856219                0.03006781               66.07401465                0.99999998               -0.02687113               -0.03077742                0.09039393                0.00014100                0.00180349                0.00115644
               9.91829320                0.03267119               66.07710049                1.00000000               -0.02689961               -0.03091282                0.09074850               -0.00371384                0.00182291                0.00305896
              -0.06766260                0.99433035               66.05216626                1.00000000               -0.02523032               -0.02501464                0.08344095                0.00136213                0.00150115                0.00844841
               0.93208510                0.99014934               66.05572250                0.01045514               -0.02549460               -0.02542931                0.08474419                0.00005997                0.00444422               -0.00457757
               1.93182751                0.98599634               66.05933954                0.01000000               -0.05288815               -0.04716492                0.08604697                0.12728799                0.02331499                0.05297320
               2.93102734                0.98451004               66.06327036                0.01000000               -0.11815457               -0.05827169                0.09188492                0.27974113               -0.00612384                0.07570653
               3.92946442                0.98723617               66.06611959                0.01000000               -0.24700410               -0.00987963                0.09990574                0.49115675               -0.09381712                0.07764597
               4.92608726                0.99450419               66.06803060                0.01000000               -0.39217189                0.01402091                0.10101951                0.74765450               -0.17427397                0.08556800
               5.92162098                1.00704525               66.06927061                0.01000001               -0.47021292                0.01268693                0.11269043                1.09469379               -0.23232088                0.06251283
               6.91668300                1.02477921               66.06964284                0.86527788               -0.26402630               -0.03413696                0.11383612                0.76785993               -0.13522609               -0.00237662
               7.91634046                1.02723189               66.07273619                1.00000000               -0.03427430               -0.03425297                0.11421005                0.00009696                0.00076745               -0.00020121
               8.91599751                1.02976004               66.07583281                1.00000000               -0.03438891               -0.03435801                0.11458480                0.00005660                0.00050558                0.00183202
               9.91565268                1.03236206               66.07892160                1.00000000               -0.03448325               -0.03451368                0.11498219               -0.00364210                0.00024769                0.00471828
              -0.06346589                1.99406745               66.05340675                0.01070164               -0.02793257                0.05449490                0.09212677                0.10677545                0.00343205                0.08501167
               0.93625478                1.98988207               66.05688914                0.01000000               -0.03290456               -0.06352819                0.09343052                0.09835547                0.07305770                0.08644241
               1.93587602                1.98529827               66.06176797                0.01000001               -0.08133797               -0.13483706                0.10082145                0.29065003                0.07499126                0.15531610
               2.93462802                1.98415143               66.06550816                0.01000000               -0.20608618               -0.08525747                0.10402548                0.65121024               -0.01280879                0.13932656
               3.93175429                1.98729411               66.06849781                0.01000000               -0.36620073               -0.03139202                0.10695116                1.00854124               -0.07425411                0.13754009
               4.92730401                1.99470271               66.07070230                0.01000001               -0.52230981               -0.02784287                0.11316656                1.35250212               -0.14067078                0.14300173
               5.92130810                2.00600008               66.07203325                0.01000000               -0.65178275               -0.07548976                0.11929850                1.78782642               -0.27545753                0.14595220
               6.91426835                2.02440262               66.07144574                0.01000000               -0.37281836               -0.41005439                0.13761642                1.27237853               -0.18353114                0.17306235
               7.91385173                2.02685395               66.07455364                0.41061585               -0.04175975               -0.04135927                0.13822753                0.00000382                0.00061662                0.00485575
               8.91343316                2.02938065               66.07766003                1.00000000               -0.04177115               -0.04155965                0.13881434                0.00006234                0.00017670                0.00173958
               9.91301631                2.03198092               66.08076735                0.99999998               -0.04168514               -0.04172510                0.13922193               -0.00367266                0.00001311                0.00500746
              -0.05715634                2.99542025               66.05617060                0.01000000               -0.00222807                0.13478724                0.04005157                0.28103233               -0.06210033                0.10935277
               0.94282138                2.98887878               66.05993804                0.01000000                0.02637445               -0.22697825                0.07669607                0.35218888                0.00547599                0.26561772
               1.94337115                2.98329960               66.06454241                0.01000000               -0.03828360               -0.26403861                0.12437306                0.67682190                0.02721935                0.21738813
               2.94205571                2.98280489               66.06822310                0.01000000               -0.21435905               -0.19620067                0.11770893                1.13567055               -0.03219872                0.19317610
               3.93908397                2.98660833               66.07127448                0.01029374               -0.38121924               -0.13533305                0.12228065                1.50799960               -0.07066095                0.17664134
               4.93443133                2.99394733               66.07374094                0.01000000               -0.57031845               -0.10051172                0.12852243                1.88406514               -0.12202193                0.18213261
               5.92767760                3.00553545               66.07541098                0.01000001               -0.65773134               -0.13203267                0.13894754                2.07409859               -0.16639407                0.21507420
               6.92127670                3.01657812               66.07677398                0.01000000               -0.81575516               -0.50534084                0.15315848                1.96281319               -0.26224022                0.31965364
               7.91136250                3.02640471               66.07647697                0.01085308               -0.52024535               -0.27352022                0.16263220                1.12966938               -0.17651260                0.21142534
               8.91087179                3.02892885               66.07947843                0.14773424               -0.04919015               -0.04533094                0.16315629                0.00474337               -0.00682666                0.04362753
               9.91037870                3.03152756               66.08259156                1.00000000               -0.04930958               -0.04879959                0.16351792               -0.00063103               -0.00179414                0.04892137
              -0.04476231                3.99676319               66.05930476                0.01000000                0.01815146               -0.03573009                0.12634521                0.33689886                0.01044404                0.20091781
               0.95541920                3.98534251               66.06371454                0.01000000                0.01243288               -0.43470525                0.12896016                0.69382381               -0.04203579                0.32464016
               1.95548634                3.98001750               66.06763742                0.01000000               -0.06932465               -0.37986729                0.12445169                1.20299041               -0.07545730                0.27332027
               2.95403271                3.98022742               66.07113277                0.01028899               -0.23572518               -0.30380267                0.13132904                1.59467203               -0.07992087                0.21603943
               3.95077184                3.98458745               66.07421115                0.01000000               -0.39872625               -0.26483192                0.13671073                1.98089006               -0.07711958                0.19397894
               4.94605818                3.99269247               66.07692100                0.01000001               -0.53062806               -0.19038885                0.14373570                2.31420656               -0.08493665                0.20915623
               5.94015928                4.00335943               66.07925860                0.01000001               -0.67014109               -0.22676521                0.15412981                2.52801211               -0.11517856                0.25804381
               6.93265536                4.01429580               66.08104934                0.01054606               -0.80324439               -0.26338723                0.16525548                2.38221371               -0.15802837                0.30071379
               7.92409439                4.02138355               66.08243885                0.01000000               -1.21250940               -0.40258018                0.17191278                2.40420400               -0.27139312                0.40684630
               8.90840517                4.02847403               66.08215258                0.01000000               -0.81440687               -0.36718525                0.18765520                2.03687371               -0.17202752                0.34122083
               9.90780625                4.03100493               66.08531956                0.01000000               -0.05989190               -1.21604261                0.18768161                1.94178218               -0.00409823                0.32170168
              -0.02757699                4.99470564               66.06181656                0.01000003                0.10205377               -0.60565736                0.11696574                0.81755400               -0.08197027                0.18145025
               0.97344355                4.98018467               66.06691930                0.01000000                0.00615191               -0.55209689                0.13117582                1.28223375               -0.18674622                0.37982780
               1.97254605                4.97570226               66.07063087                0.01000001               -0.20321701               -0.37530154                0.13015467                1.63364993               -0.21884156                0.27845124
               2.96937921                4.97672883               66.07389919                0.01000000               -0.31546647               -0.44265825                0.14055448                1.97269024               -0.12747394                0.17761448
               3.96623672                4.98131169               66.07708095                0.01000001               -0.37178653               -0.38056339                0.14901289                2.33704334               -0.06540228                0.17883600
               4.96194348                4.99013955               66.08019078                0.01000001               -0.48011006               -0.29948965                0.15644210                2.66446773               -0.03878601                0.21603398
               5.95663452                5.00100015               66.08307856                0.01042390               -0.55233111               -0.27880218                0.16442655                2.79720396               -0.04646455                0.26634299
               6.95089685                5.01131038               66.08556329                0.01046004               -0.56830854               -0.33928753                0.17203515                2.75730656               -0.07284714                0.32700203
               7.94526835                5.01835311               66.08770459                0.01000000               -0.44544838               -0.38443183                0.17987343                2.67939489               -0.07605876                0.38780724
               8.94198789                5.02158514               66.08995330                0.01000000               -0.05578953               -0.78080073                0.18532747                2.37512020               -0.06702803                0.53766793
               9.94415256                5.00720671               66.09257112                0.01000000                0.21646691               -1.56993431                0.19190035                1.57403230               -0.05958657                0.50716971
               0.00063071                5.98465004               66.06272999                0.01000005               -0.05634435               -0.65177357                0.01724183                1.00267097               -0.51635729                0.66067381
               1.00006726                5.97430057               66.06920060                0.01000001               -0.45077620               -0.28151649                0.11012736                1.36360230               -0.57467705                0.33062673
               1.99161518                5.97251147               66.07312372                0.01000000               -0.60950907               -0.41512215                0.12990974                1.85960818               -0.27315605                0.03485409
               2.98787708                5.97137425               66.07609544                0.01000001               -0.37565972               -0.56595892                0.14560075                2.08768315               -0.12439626                0.08080019
               3.98410199                5.97697618               66.07960808                0.01000001               -0.41090023               -0.47212388                0.15747233                2.51752151               -0.02036811                0.12757874
               4.97965908                5.98670268               66.08323971                0.01042645               -0.45847247               -0.37758556                0.16457040                2.76847840                0.02386551                0.18794359
               5.97493254                5.99778338               66.08668687                0.01043480               -0.46052695               -0.33616376                0.16992968                2.79623018                0.03076571                0.25257401
               6.97044854                6.00751005               66.08986323                0.01000000               -0.37625063               -0.36546326                0.17409059                2.64433909                0.03307339                0.33423236
               7.96740752                6.01369491               66.09306458                0.01000000               -0.16972813               -0.44955254                0.17803940                2.29487743                0.02522689                0.42279962
               8.96705397                6.01285802               66.09607472                0.01000001                0.03181195               -0.67575133                0.18361391                1.46634882                0.00287402                0.47430222
               9.96804376                5.99960624               66.09893218                0.01000000                0.09897893               -0.45638703                0.19413511                0.71867227               -0.01094786                0.45181526
               0.01317538                6.98167017               66.06617551                1.00000000               -0.03212143               -0.16433301                0.10222286                0.27237433               -0.00669241                0.14822640
               1.01285416                6.97455434               66.07023144                0.13945561               -0.02554267               -0.00467921                0.11323636                0.28208876               -0.07477629                0.00552270
               2.01266453                6.96739981               66.07291871                0.01271019               -0.30930011               -0.27283987                0.08544857                0.94312593               -0.04544100               -0.02116818
               3.00666816                6.96540966               66.07733153                0.01000000               -0.57029018               -0.57649477                0.13282876                1.79518371                0.01820493               -0.02195813
               4.00125872                6.97186921               66.08153180                0.01052797               -0.50811616               -0.59438211                0.16003809                2.33781267                0.06129994                0.05400527
               4.99650584                6.98258784               66.08579681                0.01046231               -0.47534858               -0.41878318                0.16534758                2.62519579                0.10109889                0.13808739
               5.99175175                6.99427688               66.08990936                0.01000000               -0.43168649               -0.29942418                0.17042479                2.55810173                0.13143263                0.22970908
               6.98787211                7.00400111               66.09416989                0.01000000               -0.29669124               -0.28684614                0.17471489                2.25167182                0.16356408                0.33606486
               7.98581793                7.00936205               66.09834867                0.01000001               -0.12342884               -0.35805364                0.17500879                1.74609919                0.15391556                0.44305399
               8.98540353                7.00807011               66.10206925                0.01074530               -0.03941827               -0.32338734                0.17026038                0.98608944                0.08733463                0.51334937
               9.98502956                6.99807897               66.10494988                0.01000003               -0.03739727                0.03193577                0.17613501                0.45487958                0.04246227                0.43901407
               0.02030985                7.98136338               66.06698309                1.00000000               -0.03304533               -0.03106314                0.10463646               -0.00042463               -0.00524860                0.02004888
               1.01997939                7.97420698               66.07090287                0.99999999               -0.03437304               -0.03471532                0.11467726               -0.00117626               -0.01212241               -0.00593678
               2.01962239                7.96705467               66.07468424                0.22121827               -0.03340188               -0.03613067                0.12518798               -0.01315319               -0.06424131                0.03690203
               3.01931136                7.95984436               66.07754638                0.01097523               -0.29711672               -0.29641968                0.10705040                0.88613679                0.01641617               -0.00928760
               4.01368005                7.96508854               66.08282617                0.01000000               -0.47780145               -0.98005165                0.14370059                2.15991832                0.16016456               -0.03157517
               5.00975533                7.97832702               66.08780057                0.01000000               -0.44993739               -0.33561937                0.16007016                2.46308234                0.18155606                0.09901567
               6.00468131                7.99179490               66.09291417                0.01000000               -0.46792673               -0.13114949                0.17022745                2.12134669                0.24521871                0.18455358
               7.00039679                8.00177313               66.09810039                0.01000001               -0.32103997               -0.15339702                0.17786745                1.64190114                0.30815822                0.28103187
               7.99826051                8.00653384               66.10333062                0.01015299               -0.11689715               -0.21516774                0.17960650                1.15256396                0.33960362                0.39352911
               8.99805885                8.00639027               66.10821488                0.01273666               -0.05684292               -0.15755253                0.14067678                0.65959538                0.22833365                0.57164418
               9.99712365                8.00024495               66.11072964                0.01000002               -0.09352033                0.28951279                0.14019689                0.35314306                0.09302988                0.34990207
               0.02747969                8.98104891               66.06786783                1.00000000               -0.03403364               -0.03188874                0.10760179               -0.00021242               -0.00011995                0.01962095
               1.02713935                8.97386004               66.07169536                0.99999999               -0.03577988               -0.03485659                0.11682709               -0.00078636               -0.00071980                0.00114172
               2.02676409                8.96667720               66.07551841                0.99999999               -0.03911562               -0.03766150                0.12580334               -0.00249614               -0.00102257               -0.00599488
               3.02635704                8.95948126               66.07934829                0.90870704               -0.03948284               -0.03701392                0.12832549               -0.00829151                0.00457277                0.03610573
               4.02597443                8.95226818               66.08328937                0.01000000               -0.36479566               -0.65865145                0.12603544                1.79445829                0.12950648               -0.04132968
               5.01906112                8.97587546               66.08956236                0.01000000               -0.76209285               -0.01398064                0.15841091                2.10843011                0.28470551                0.04660464
               6.01073257                8.99165389               66.09533483                0.01000001               -0.65449636                0.04109183                0.17235410                1.30425230                0.32356619                0.09854713
               7.00597120                9.00093317               66.10109428                0.01000002               -0.32402568               -0.06015321                0.18023067                0.84834068                0.40726868                0.15680800
               8.00425206                9.00505870               66.10700462                0.01000004               -0.05434366               -0.14962321                0.19978051                0.51214326                0.57475874                0.24199945
               9.00488432                9.00491906               66.11413685                1.00000000                0.00654982               -0.09829279                0.15948235                0.33672953                0.35197925                0.29885420
              10.00438306                9.00386922               66.11416686                0.99985530               -0.05012663                0.15371241                0.17609856                0.31080934               -0.00274167                0.16874021
               0.03468334                9.98072561               66.06867478                0.99995358               -0.03479669               -0.03233007                0.10977922               -0.00120989                0.01396525                0.01507140
               1.03433538                9.97350985               66.07250517                0.99692055               -0.03660518               -0.03501856                0.11887553               -0.00160553                0.01728501                0.00197832
               2.03395124                9.96630144               66.07641649                0.99999998               -0.03904133               -0.03757569                0.12800561               -0.00157346                0.02459046               -0.00234447
               3.03355455                9.95910408               66.08041203                0.99999994               -0.03881069               -0.03771830                0.13152921                0.00045444                0.02957444                0.00191212
               4.03317503                9.95191551               66.08442761                0.01277690               -1.05081627               -0.03526715                0.12931116                1.66722562                0.15732897               -0.00189520
               5.01253822                9.97804740               66.09093457                0.01000001               -1.37331940                0.21719470                0.16345959                1.38277151                0.30851028               -0.00064717
               6.00570864                9.99261674               66.09694320                0.01000001               -0.42897155                0.09628508                0.18095507                0.62373933                0.33745590                0.03440483
               7.00395879               10.00057006               66.10281697                0.01000000               -0.05955796               -0.03631073                0.18884928                0.34499147                0.41470624                0.06271522
               8.00451748               10.00354137               66.10884106                0.01000000                0.10120626               -0.15173279                0.22090237                0.21925946                0.49830422                0.12091153
               9.00598292               10.00442442               66.11414443                0.99986344                0.04610175               -0.04946468                0.17212510                0.09875102                0.26734007                0.00367218
              10.00543951               10.00331920               66.11417443                0.99798798               -0.05434048               -0.05500208                0.18874132               -0.00487570                0.00328054               -0.00328017
              -0.07549871               -0.00662308               67.05168899                1.00000000               -0.02252524               -0.02392431                0.07517932                0.00146824               -0.00821994                0.00795467
               0.92427604               -0.01089676               67.05525273                0.99999999               -0.02257028               -0.02405883                0.07565655                0.00011667               -0.00887039               -0.00156507
               1.92404988               -0.01514144               67.05880343                0.01000001                0.12486214               -0.02419247                0.07613405                0.17454108               -0.00079811               -0.00359972
               2.92677328               -0.01586661               67.06252368                0.01000000                0.22347903               -0.07822412                0.08495745                0.14920954               -0.01218774                0.04670612
               3.92851946               -0.01368946               67.06539516                0.01000001                0.10891600               -0.02808463                0.09524295                0.20314293               -0.11621830                0.05249345
               4.92895160               -0.00698140               67.06713488                0.01000000               -0.09526305                0.00691818                0.09926169                0.28416817               -0.18580162                0.04797194
               5.92661420                0.00407110               67.06849100                0.01000000               -0.64663339                0.13717089                0.10492089                0.69942475               -0.27662835                0.03347058
               6.91601893                0.02313656               67.06873143                0.97307304               -0.54307410               -0.03078798                0.08996338                0.83411758               -0.14145813               -0.00189468
               7.91575272                0.02559905               67.07181798                1.00000000               -0.02658591               -0.03068371                0.08958359                0.00003673                0.00128903               -0.00032849
               8.91548721                0.02814023               67.07491211                1.00000000               -0.02647863               -0.03055014                0.08909040                0.00008233                0.00153794                0.00114500
               9.91522315                0.03075921               67.07799846                1.00000000               -0.02640649               -0.03046784                0.08880885               -0.00397227                0.00162657                0.00292782
              -0.07121034                0.99313768               67.05300437                1.00000000               -0.02532767               -0.02524895                0.08418150                0.00140779                0.00150107                0.00844686
               0.92853638                0.98886265               67.05656952                0.01000000               -0.02547223               -0.02539703                0.08465944                0.00005701                0.00444367               -0.00457651
               1.92828022                0.98461664               67.06019546                0.01000000               -0.04984969               -0.03264030                0.08513554                0.13686212                0.02461523                0.05366356
               2.92753939                0.98335115               67.06416118                0.01000000               -0.10859623               -0.05053826                0.08551102                0.28439797               -0.00994697                0.08587420
               3.92610829                0.98602969               67.06712242                0.01000000               -0.23131967               -0.00880936                0.09475440                0.47802635               -0.08800207                0.08658191
               4.92291300                0.99308778               67.06913187                0.01000000               -0.37794108                0.01651350                0.10648181                0.72425718               -0.14724035                0.08625205
               5.91854947                1.00544281               67.07035985                0.01000001               -0.46584304                0.01962360                0.10813274                1.06266521               -0.23498138                0.08101304
               6.91359614                1.02282868               67.07078638                0.85726946               -0.26491070               -0.03444943                0.11487052                0.75009774               -0.13250828               -0.00254314
               7.91325126                1.02529221               67.07388040                0.99999994               -0.03440904               -0.03437010                0.11463293                0.00013325                0.00079270               -0.00028069
               8.91290796                1.02783473               67.07697773                1.00000000               -0.03434077               -0.03429622                0.11439933                0.00007632                0.00052983                0.00185403
               9.91256444                1.03045453               67.08006750                1.00000000               -0.03435148               -0.03420662                0.11417911               -0.00380882                0.00026636                0.00463311
              -0.06692049                1.99287195               67.05433329                0.01000000               -0.02812942                0.01699688                0.09318229                0.07361673                0.00343200                0.01688032
               0.93279822                1.98859530               67.05782461                0.01000000               -0.03904456               -0.08486381                0.09366302                0.08134653                0.07374531                0.06187620
               1.93229862                1.98420576               67.06272614                0.01000001               -0.08750141               -0.09590601                0.09455710                0.27759447                0.07137326                0.16449010
               2.93104819                1.98312263               67.06649342                0.01000000               -0.19776290               -0.06977488                0.09266165                0.63350240               -0.01770436                0.15114729
               3.92834336                1.98613435               67.06953045                0.01000000               -0.35122860               -0.02265773                0.09843719                0.98263877               -0.07583306                0.14805490
               4.92402362                1.99334887               67.07181894                0.01000001               -0.51083784               -0.01865982                0.10821410                1.32513984               -0.14518357                0.15753183
               5.91812661                2.00446358               67.07324125                0.01000000               -0.64260648               -0.06825248                0.12100264                1.75139644               -0.26559253                0.16450686
               6.91117149                2.02244757               67.07283204                0.01000000               -0.36886325               -0.39654267                0.13952230                1.24849581               -0.17435536                0.16749122
               7.91074934                2.02491165               67.07594334                0.41938127               -0.04225357               -0.04183063                0.13968233               -0.00004541                0.00104249                0.00517758
               8.91032642                2.02745430               67.07905283                0.99999999               -0.04209935               -0.04184799                0.13976160               -0.00002368                0.00040361                0.00186272
               9.90990736                2.03007508               67.08216109                0.99999999               -0.04190627               -0.04172479                0.13947497               -0.00387281                0.00009519                0.00507043
              -0.06118470                2.99347762               67.05582300                0.01000000                0.00142059                0.13945244                0.12954204                0.25875361                0.09606337                0.19078346
               0.93882950                2.98716537               67.06047057                0.01000000                0.02447384               -0.17979570                0.12851440                0.35381924                0.09579510                0.24366373
               1.93930477                2.98269852               67.06568006                0.01000000               -0.02743263               -0.22096553                0.09300747                0.66726143                0.04305723                0.21940276
               2.93828085                2.98195565               67.06929827                0.01000000               -0.18849727               -0.17490205                0.09897198                1.08271445               -0.03848576                0.20237490
               3.93553483                2.98557653               67.07242264                0.01029777               -0.35971421               -0.12343326                0.10712168                1.47232912               -0.07063702                0.19259473
               4.93108656                2.99271458               67.07497752                0.01000000               -0.55280661               -0.08805624                0.11840543                1.85536232               -0.11707613                0.19952961
               5.92447870                3.00407776               67.07677621                0.01000001               -0.64842913               -0.11876819                0.13387473                2.04857508               -0.15386921                0.22615232
               6.91811798                3.01489783               67.07829594                0.01000000               -0.81175388               -0.48024212                0.15129433                1.93370206               -0.24784922                0.31577619
               7.90824362                3.02445560               67.07811966                0.01097764               -0.51869671               -0.25897768                0.16671936                1.10822325               -0.17040708                0.20395497
               8.90774405                3.02699777               67.08112053                0.16686789               -0.04990945               -0.04615029                0.16533352                0.00399730               -0.00696450                0.04608114
               9.90724543                3.02962004               67.08423394                0.99999999               -0.04986196               -0.04801352                0.16487564               -0.00324848               -0.00188068                0.05156087
              -0.04912092                3.99566099               67.06068155                0.01000000               -0.02253771                0.08788044                0.11744464                0.33347383               -0.01017464                0.27720790
               0.95065370                3.98499938               67.06485973                0.01000000               -0.00127565               -0.25930895                0.08664897                0.61104732               -0.04666184                0.32087128
               1.95085357                3.97978645               67.06868162                0.01000000               -0.04146189               -0.33575619                0.09082282                1.08933676               -0.07024015                0.26240717
               2.94982447                3.97962459               67.07230081                0.01030101               -0.19112749               -0.29461901                0.10216099                1.51733997               -0.07049039                0.22423764
               3.94703102                3.98366568               67.07546844                0.01000000               -0.35974150               -0.25603725                0.11553757                1.93796515               -0.07210176                0.20880981
               4.94262964                3.99158774               67.07828296                0.01000001               -0.50580762               -0.17816462                0.12898506                2.29090387               -0.07865137                0.22338784
               5.93691487                4.00208821               67.08075154                0.01000001               -0.65809698               -0.20784119                0.14436580                2.51057246               -0.10523224                0.26367047
               6.92946770                4.01284273               67.08267815                0.01057876               -0.80504982               -0.23949913                0.16129483                2.36730326               -0.14792731                0.29441394
               7.92081387                4.01973209               67.08417146                0.01000156               -1.21128856               -0.38217778                0.17503027                2.38682935               -0.25886041                0.39516035
               8.90524192                4.02653130               67.08408972                0.01000000               -0.81080143               -0.35495978                0.19896685                2.02459535               -0.16237924                0.32899319
               9.90459784                4.02911481               67.08725896                0.01000000               -0.06440844               -1.21182580                0.19818837                1.94142073               -0.00374682                0.31402811
              -0.03319200                4.99523523               67.06306825                0.01000003                0.01169958               -0.18136327                0.11462124                0.40153540               -0.06988337                0.14393876
               0.96692499                4.98197919               67.06791860                0.01000000               -0.01708484               -0.33179206                0.06704643                0.82804758               -0.16646805                0.32370673
               1.96646630                4.97598340               67.07169517                0.01000001               -0.10882902               -0.41596121                0.08221592                1.41590648               -0.18846677                0.26571308
               2.96474841                4.97606327               67.07512152                0.01000000               -0.20676638               -0.45227523                0.10597669                1.89287967               -0.11168601                0.19149782
               3.96233097                4.98045579               67.07844627                0.01000001               -0.31331509               -0.38032417                0.12472622                2.31256695               -0.06069575                0.19715409
               4.95848211                4.98915129               67.08167324                0.01000001               -0.44479079               -0.29054777                0.14004423                2.65433339               -0.03670780                0.22715560
               5.95343516                4.99992094               67.08466645                0.01045795               -0.53309723               -0.26150461                0.15298838                2.79477780               -0.04326776                0.26747680
               6.94782017                5.01010784               67.08724345                0.01052254               -0.55717604               -0.31836610                0.16531408                2.74786919               -0.06807129                0.31603500
               7.94229164                5.01681204               67.08949165                0.01000000               -0.44834645               -0.36167622                0.17789891                2.67338242               -0.07474933                0.37354599
               8.93885324                5.01989857               67.09183309                0.01000000               -0.06924104               -0.75447823                0.18965113                2.37068097               -0.06566113                0.51149527
               9.94090682                5.00538352               67.09453711                0.01000003                0.20535782               -1.56182449                0.20012559                1.56949011               -0.05922726                0.49039396
              -0.01457814                5.99203373               67.06294503                0.01000000                0.10446279               -0.71076251                0.15516909                0.74260667               -0.36509671                0.57534166
               0.98646649                5.97836354               67.06986839                0.01000001               -0.01671218               -0.41152786                0.05061169                1.05960461               -0.40581961                0.33880387
               1.98508762                5.97146722               67.07403537                0.01000000               -0.16284106               -0.48080423                0.08008453                1.71992279               -0.23304507                0.03088088
               2.98320967                5.97057908               67.07737992                0.01000001               -0.24466376               -0.58387646                0.11595575                2.12032886               -0.11216894                0.10210300
               3.98019434                5.97605920               67.08109403                0.01000001               -0.34792567               -0.48096163                0.14042098                2.51644688               -0.02493677                0.14485638
               4.97625115                5.98577679               67.08481181                0.01044912               -0.41702362               -0.37481102                0.15005698                2.77705235                0.01697877                0.19319762
               5.97185387                5.99685812               67.08833026                0.01050295               -0.43585876               -0.32561858                0.15956419                2.80312999                0.02584490                0.24841631
               6.96753398                6.00647541               67.09155996                0.01000000               -0.36815377               -0.34734463                0.16601022                2.65185350                0.02750159                0.32031205
               7.96449079                6.01249857               67.09480143                0.01000000               -0.17249559               -0.41210330                0.17233315                2.30010427                0.02138376                0.40019264
               8.96408407                6.01144173               67.09789542                0.01000000                0.02634727               -0.64698019                0.18167235                1.46806071                0.00239443                0.44051830
               9.96501774                5.99787832               67.10088015                0.01000000                0.09336726               -0.44923638                0.19138836                0.71837689               -0.01065917                0.42170865
               0.00900051                6.98101998               67.06719795                0.99961724               -0.03169181               -0.56605708                0.10163441                0.81627312               -0.00630760                0.18813917
               1.00868359                6.97374864               67.07135239                0.05816795               -0.01756475               -0.24782831                0.11055035                0.74208308               -0.09776076                0.02680496
               2.00864921                6.96636731               67.07366483                0.01254676               -0.30602880               -0.26784586                0.06415955                1.05797666               -0.03879267               -0.01463858
               3.00256302                6.96438575               67.07864438                0.01000000               -0.55935042               -0.59223361                0.16028119                1.83126719                0.01868104               -0.03538647
               3.99746221                6.97083656               67.08306160                0.01055395               -0.46693890               -0.60752774                0.14799045                2.35691484                0.04662519                0.05711710
               4.99322424                6.98165507               67.08740252                0.01052708               -0.43315338               -0.41901330                0.15599787                2.63777406                0.08869406                0.13215744
               5.98879914                6.99340857               67.09156487                0.01000000               -0.40037240               -0.30009083                0.16183249                2.57741366                0.12093650                0.21899320
               6.98521679                7.00316095               67.09586138                0.01000000               -0.27358700               -0.27129437                0.16585943                2.29178311                0.15246515                0.32123210
               7.98332740                7.00856998               67.10004629                0.01000000               -0.11910442               -0.32189592                0.16476760                1.79157527                0.13020787                0.42045164
               8.98283470                7.00695897               67.10361886                0.01000001               -0.04631103               -0.28224085                0.15576896                1.01511395                0.05748819                0.46346276
               9.98240118                6.99639879               67.10650777                0.01000003               -0.04335230                0.05699898                0.16214453                0.46263622                0.01425009                0.39715091
               0.01629001                7.98071259               67.06803355                1.00000000               -0.03291912               -0.03126893                0.10501318               -0.00017466               -0.00478734                0.02156645
               1.01596081                7.97340697               67.07204506                0.99999998               -0.03399837               -0.03435254                0.11356261               -0.00101537               -0.01123672               -0.00578518
               2.01561004                7.96611031               67.07592257                0.14657913               -0.02975255               -0.03151559                0.12302533               -0.02155168               -0.07765064                0.05924708
               3.01536576                7.95873441               67.07859786                0.01105741               -0.27733636               -0.29921027                0.09795982                0.88610015                0.02011095               -0.01601708
               4.01006331                7.96390864               67.08427398                0.01000002               -0.44655713               -0.98818473                0.14065804                2.16530612                0.17512407               -0.05531291
               5.00643462                7.97739652               67.08935972                0.01000000               -0.40835259               -0.34640061                0.15705835                2.47657326                0.17618274                0.08737026
               6.00189626                7.99085630               67.09457097                0.01000000               -0.41131953               -0.14313014                0.16231435                2.14873572                0.23679367                0.17145383
               6.99820823                8.00104952               67.09982244                0.01000000               -0.26859879               -0.15404210                0.16523806                1.70647470                0.29364367                0.26102347
               7.99652428                8.00606065               67.10502642                0.01041619               -0.08253519               -0.19506630                0.16541629                1.25352832                0.30968190                0.39452307
               8.99655753                8.00579691               67.10953582                0.01180611               -0.05667394               -0.10396820                0.12879597                0.74314426                0.18461767                0.53059775
               9.99539080                7.99901830               67.11206122                0.01000002               -0.11667220                0.36861257                0.13835848                0.41420857                0.06130807                0.34224675
               0.02360824                8.98039460               67.06895277                1.00000000               -0.03426786               -0.03236720                0.10897434               -0.00004140                0.00041477                0.02118258
               1.02326557                8.97306158               67.07286365                0.99999999               -0.03587495               -0.03485937                0.11692245               -0.00083979                0.00036458                0.00141525
               2.02289074                8.96573700               67.07677533                0.99999998               -0.03894420               -0.03730169                0.12461000               -0.00277583               -0.00531289               -0.00670664
               3.02248668                8.95840154               67.08056228                0.84006211               -0.03922637               -0.03509597                0.12584439               -0.01089782               -0.01011936                0.04379830
               4.02210622                8.95107286               67.08435671                0.01000000               -0.33393189               -0.65957615                0.12354367                1.78395388                0.13880110               -0.05792988
               5.01580804                8.97472706               67.09114849                0.01000000               -0.69926811               -0.03864572                0.15422964                2.11682039                0.30029942                0.03886313
               6.00812086                8.99054597               67.09701626                0.01000000               -0.58330528                0.02153578                0.16599962                1.32642029                0.31255965                0.08915267
               7.00414194                9.00008011               67.10278658                0.01000002               -0.22351423               -0.08523313                0.16679879                0.89854746                0.39923440                0.13785571
               8.00365057                9.00466865               67.10904849                0.01201173                0.02989998               -0.15022296                0.16723519                0.62068254                0.53733214                0.25469499
               9.00473994                9.00487960               67.11571775                0.99999997                0.02960048               -0.07032883                0.15669417                0.42257066                0.31971876                0.30494088
              10.00424258                9.00377105               67.11593006                1.00000000               -0.04973571                0.20986700                0.17654116                0.38756554               -0.00273729                0.18341827
               0.03095521                9.98006524               67.06978676                1.00000000               -0.03535884               -0.03293558                0.11218183               -0.00084934                0.01530178                0.01638463
               1.03060162                9.97270979               67.07369833                0.99999999               -0.03703203               -0.03517980                0.11997549               -0.00144317                0.01967456                0.00192068
               2.03021457                9.96536427               67.07770531                0.99847741               -0.03948372               -0.03727265                0.12781130               -0.00148259                0.02217058               -0.00281428
               3.02981194                9.95803249               67.08165790                0.99999994               -0.03988482               -0.03690487                0.12978704                0.00016877                0.01579208               -0.00084656
               4.02941687                9.95071712               67.08553115                0.01379275               -1.02570096               -0.03557407                0.12838640                1.66062109                0.16799952               -0.00781503
               5.00929793                9.97662361               67.09257070                0.01000001               -1.31726283                0.18965491                0.16009334                1.37748310                0.32973657               -0.00567432
               6.00307161                9.99128702               67.09872211                0.01000001               -0.36207154                0.07410536                0.17433410                0.63113833                0.32740592                0.02958073
               7.00205649                9.99934486               67.10456057                0.01000000                0.05334144               -0.07352528                0.17791566                0.37991424                0.41623442                0.05302679
               8.00413844               10.00305619               67.11124230                0.01000002                0.19250254               -0.16124604                0.17534725                0.30106122                0.44980651                0.13735092
               9.00590655               10.00439034               67.11586347                1.00000000                0.06103924               -0.04892638                0.17168394                0.12463322                0.22411283                0.00366970
              10.00535923               10.00321564               67.11607577                0.99830840               -0.05473179               -0.05554066                0.19153093               -0.00580516                0.00327706               -0.00327698
              -0.07914703               -0.00790393               68.05244291                1.00000000               -0.02252386               -0.02410851                0.07560471                0.00138855               -0.00821673                0.00795058
               0.92062773               -0.01227421               68.05600729                1.00000000               -0.02244643               -0.02398504                0.07525657               -0.00001160               -0.00886828               -0.00156420
               1.92040404               -0.01661448               68.05955864                0.01000001                0.14049066               -0.02386210                0.07491030                0.19492172                0.00248992               -0.00359990
               2.92343754               -0.01702400               68.06334529                0.01115553                0.22928545               -0.07182113                0.06943831                0.13146463               -0.00194744                0.03803195
               3.92498975               -0.01491297               68.06632957                0.01000000                0.09552891               -0.02545207                0.07930665                0.19498182               -0.11174973                0.04146562
               4.92534812               -0.00861225               68.06815232                0.01000001               -0.12148137                0.01574200                0.10164557                0.33524220               -0.20076391                0.04769392
               5.92256012                0.00267807               68.06944005                0.01000000               -0.62032304                0.12371965                0.09491179                0.74816301               -0.29694616                0.03748671
               6.91294166                0.02093756               68.06963177                0.97443987               -0.49422007               -0.03098191                0.09024693                0.79353863               -0.14377118               -0.00200960
               7.91267572                0.02340760               68.07271109                1.00000000               -0.02645930               -0.03066738                0.08914091                0.00002066                0.00084577               -0.00040849
               8.91241247                0.02595948               68.07579646                0.99980673               -0.02613432               -0.03030745                0.08780326                0.00005623                0.00101025                0.00111609
               9.91215303                0.02859166               68.07887667                1.00000000               -0.02594407               -0.02995680                0.08685246               -0.00423980                0.00115509                0.00252818
              -0.07476287                0.99185499               68.05384989                1.00000000               -0.02542472               -0.02548238                0.08492019                0.00145256                0.00149955                0.00844446
               0.92498289                0.98748594               68.05741568                0.01000000               -0.02544899               -0.02536261                0.08457241                0.00005095                0.00444152               -0.00457392
               1.92472815                0.98314690               68.06104225                0.01000000               -0.05407267               -0.01410254                0.08422039                0.15012350                0.02321254                0.05339183
               2.92390143                0.98225778               68.06498058                0.01000000               -0.09972315               -0.04693524                0.07894867                0.28588486               -0.01055582                0.08081565
               3.92273369                0.98483251               68.06801468                0.01000000               -0.19982032               -0.00660217                0.08191050                0.46048713               -0.08320495                0.08339770
               4.91990503                0.99154517               68.07016024                0.01000000               -0.37334235                0.03099748                0.09800615                0.72120807               -0.14965476                0.08889945
               5.91526684                1.00391526               68.07143326                0.01000001               -0.46963737                0.00978933                0.10861448                1.07528033               -0.23554576                0.07985510
               6.91051228                1.02062774               68.07194026                0.84849859               -0.25509389               -0.03473400                0.11584023                0.71615816               -0.12808527               -0.00283263
               7.91016497                1.02310092               68.07502885                0.99999994               -0.03456365               -0.03446763                0.11506552                0.00023664                0.00091160               -0.00035131
               8.90982101                1.02565640               68.07812080                1.00000000               -0.03432552               -0.03421844                0.11423077                0.00010814                0.00059703                0.00192305
               9.90947846                1.02829209               68.08120518                0.99999997               -0.03425508               -0.03378845                0.11329395               -0.00399942                0.00028411                0.00428019
              -0.07037989                1.99158642               68.05527040                0.01161874               -0.02832799                0.05163318                0.09423908                0.07484384                0.00343175                0.11236895
               0.92933683                1.98721854               68.05876240                0.01000000               -0.04927229               -0.03845061                0.09389566                0.07071921                0.07346792                0.11230031
               1.92863467                1.98310347               68.06365912                0.01000001               -0.09336013               -0.07073594                0.08722280                0.27476002                0.06648711                0.15003897
               2.92746963                1.98203729               68.06736139                0.01000000               -0.18612782               -0.06063929                0.08327563                0.62467517               -0.01616721                0.14519409
               3.92491211                1.98495499               68.07046655                0.01000000               -0.33900475               -0.01551415                0.08919376                0.96143472               -0.06874242                0.15030399
               4.92068953                1.99200769               68.07286659                0.01000001               -0.49644780               -0.00356303                0.10004743                1.28750318               -0.13165876                0.16087153
               5.91498315                2.00287385               68.07445331                0.01000000               -0.63051864               -0.06835255                0.11846963                1.71250656               -0.24596620                0.16543001
               6.90807916                2.02024288               68.07423619                0.01000000               -0.36656823               -0.37901032                0.14096159                1.21541922               -0.16385612                0.15964922
               7.90765179                2.02271825               68.07734728                0.42977487               -0.04278443               -0.04226210                0.14099771               -0.00014792                0.00193158                0.00681504
               8.90722347                2.02527511               68.08045527                0.99999999               -0.04250575               -0.04214152                0.14077129               -0.00025734                0.00082365                0.00219865
               9.90680167                2.02791589               68.08355685                0.99999999               -0.04217986               -0.04155888                0.13947971               -0.00413241                0.00020601                0.00501318
              -0.06453022                2.99288765               68.05876144                0.01000000               -0.05895602                0.17378390                0.19100048                0.23581407               -0.01528013                0.17700629
               0.93488022                2.98671693               68.06250833                0.01000000               -0.00325896               -0.14533141                0.13590105                0.29968010               -0.02939231                0.26722822
               1.93540460                2.98173218               68.06640256                0.01000000               -0.01684013               -0.19264654                0.07659981                0.61669337                0.00818145                0.18264106
               2.93454342                2.98104500               68.07020254                0.01000000               -0.17063108               -0.15741868                0.08333978                1.05782475               -0.01397225                0.18948981
               3.93199198                2.98452223               68.07341692                0.01029875               -0.34035947               -0.11074891                0.09433826                1.44322248               -0.05383247                0.19248911
               4.92773623                2.99147390               68.07610905                0.01000000               -0.53550945               -0.07715916                0.10838425                1.82692508               -0.09913599                0.20402910
               5.92128179                3.00254821               68.07808848                0.01000001               -0.63799793               -0.10656272                0.12777705                2.01249631               -0.13270599                0.22593003
               6.91497627                3.01304753               68.07979987                0.01000000               -0.80760072               -0.45031525                0.14991460                1.89526026               -0.22578721                0.30724476
               7.90512978                3.02225568               68.07981135                0.01110960               -0.51790264               -0.24017403                0.17205385                1.08099302               -0.16116994                0.19692223
               8.90461822                3.02481357               68.08278510                0.19008517               -0.05077636               -0.04668882                0.16781689                0.00259238               -0.00804401                0.05231334
               9.90411425                3.02746091               68.08588907                0.99999999               -0.05039676               -0.04667819                0.16587916               -0.00570788               -0.00213643                0.05734542
              -0.05332216                3.99506210               68.06165365                0.01177316               -0.01919376                0.12166440                0.09500168                0.21772393               -0.01878548                0.17724770
               0.94648590                3.98431191               68.06544752                0.01000000               -0.00186868               -0.25333905                0.07118200                0.53977431               -0.00329628                0.19794531
               1.94664046                3.97925054               68.06945387                0.01000000               -0.03249110               -0.30347087                0.06938178                1.03730945               -0.00539832                0.21554694
               2.94583608                3.97888892               68.07317599                0.01030487               -0.16464053               -0.27826584                0.08103975                1.46702178               -0.02549485                0.20480587
               3.94334765                3.98274001               68.07652190                0.01000000               -0.33170109               -0.24465259                0.09859786                1.90273521               -0.04150347                0.20973451
               4.93920205                3.99046451               68.07950070                0.01000001               -0.48441006               -0.16600429                0.11644290                2.26277466               -0.05755715                0.22787689
               5.93365945                4.00074260               68.08214592                0.01000001               -0.64625802               -0.18886198                0.13538082                2.48446092               -0.08542348                0.26190844
               6.92627689                4.01123657               68.08427523                0.01060284               -0.80769208               -0.21491346                0.15667016                2.34530656               -0.12907265                0.28517668
               7.91750561                4.01791476               68.08593945                0.01011065               -1.21034018               -0.35308127                0.18154484                2.35793509               -0.23725934                0.38320595
               8.90207009                4.02434133               68.08613192                0.01000000               -0.80563851               -0.34021106                0.21206618                2.00392725               -0.14631070                0.31590675
               9.90139284                4.02698232               68.08928332                0.01000001               -0.06772520               -1.20337569                0.20722827                1.93638559               -0.00608449                0.30715267
              -0.03867536                4.99532094               68.06410899                0.01171329                0.01626233               -0.15174660                0.11822544                0.27313171               -0.04660499                0.14123239
               0.96148727                4.98165015               68.06826023                0.01000000                0.01245706               -0.33345301                0.04961615                0.73582316               -0.04901825                0.16370709
               1.96157378                4.97566277               68.07227519                0.01000001               -0.05464414               -0.40455606                0.05189731                1.33159123               -0.04784631                0.20526944
               2.96039438                4.97547968               68.07601873                0.01000000               -0.15513474               -0.44977284                0.07996422                1.83526870               -0.03530695                0.19349873
               3.95847109                4.97962918               68.07957547                0.01000001               -0.27026231               -0.37410175                0.10503746                2.27489231               -0.02592218                0.21133577
               4.95498914                4.98815382               68.08299167                0.01000001               -0.41360707               -0.28135803                0.12573652                2.63510827               -0.01775314                0.23366444
               5.95019895                4.99877097               68.08613832                0.01049769               -0.51394514               -0.24446551                0.14223090                2.78186410               -0.03064529                0.26498824
               6.94471023                5.00874926               68.08886957                0.01059210               -0.55076140               -0.29691074                0.15869913                2.73367930               -0.05768352                0.30558622
               7.93918372                5.01519406               68.09126257                0.01000000               -0.45405155               -0.33853263                0.17812177                2.66271114               -0.07028149                0.36156919
               8.93562920                5.01800935               68.09374632                0.01000000               -0.08118703               -0.72293602                0.19488663                2.35761968               -0.06218614                0.48034344
               9.93755998                5.00339340               68.09657363                0.01012989                0.19307757               -1.54562903                0.20310777                1.56181808               -0.05579508                0.46502930
              -0.02051795                5.99202717               68.06583337                0.01000001                0.13784805               -0.74882485                0.25934750                0.73235337               -0.05823096                0.14454076
               0.98086053                5.97764285               68.07021284                0.01000001               -0.00196498               -0.43681867                0.06833513                1.10385272               -0.04966368                0.10828220
               1.97944275                5.97115942               68.07472541                0.01000000               -0.11427473               -0.52214638                0.05484257                1.76367560               -0.04946997                0.06052704
               2.97857504                5.96989346               68.07841455                0.01000001               -0.16356962               -0.59978458                0.09534375                2.06745965               -0.06980606                0.18664758
               3.97617136                5.97525798               68.08241650                0.01000001               -0.29063052               -0.48987847                0.12263077                2.49529435               -0.00528044                0.16786815
               4.97276243                5.98483735               68.08624085                0.01049750               -0.37350363               -0.37353672                0.13630042                2.76913084                0.02613895                0.19968970
               5.96870129                5.99585329               68.08987815                0.01058137               -0.41175164               -0.31774725                0.15020327                2.79868379                0.03413344                0.24348115
               6.96452739                6.00529836               68.09318344                0.01000000               -0.36007719               -0.32929965                0.16444268                2.65102906                0.02980457                0.30771305
               7.96149974                6.01114411               68.09651125                0.01000000               -0.17521254               -0.38239769                0.17054692                2.30325682                0.02313407                0.37964093
               8.96102314                6.00988261               68.09970816                0.01000007                0.01806824               -0.61551943                0.18080654                1.46941223                0.00407266                0.41037808
               9.96186111                5.99606974               68.10275995                0.01000000                0.08379649               -0.42762393                0.18563955                0.71755103               -0.01320744                0.39227797
               0.00474035                6.98034444               68.06820820                0.99836640               -0.03082812               -0.59936366                0.09981518                0.89238426               -0.00598373                0.09296342
               1.00443207                6.97291377               68.07244245                0.01347270               -0.00718320               -0.25314160                0.10726327                0.79402501               -0.12904192                0.06270097
               2.00459669                6.96521984               68.07420190                0.01239419               -0.33935246               -0.30151524                0.14692756                1.13220213               -0.33897871                0.18312932
               2.99764502                6.96348399               68.08053715                0.01000000               -0.55818006               -0.61436713                0.16696575                1.86994520               -0.02217862               -0.02687207
               3.99343309                6.96983161               68.08449160                0.01059155               -0.39342878               -0.62854065                0.13468902                2.37242036                0.01331954                0.07093350
               4.98977644                6.98068308               68.08891677                0.01058732               -0.38607345               -0.42544492                0.15084613                2.64019899                0.08523217                0.13323024
               5.98571162                6.99241603               68.09314601                0.01000000               -0.36682266               -0.30403471                0.15703591                2.58666780                0.11667258                0.21010070
               6.98243999                7.00216327               68.09748708                0.01000000               -0.25235064               -0.26149808                0.16124674                2.32084515                0.14455028                0.30035372
               7.98066460                7.00754610               68.10164402                0.01000007               -0.11740869               -0.28610032                0.16155194                1.83883557                0.11802169                0.39741916
               8.98009182                7.00569896               68.10518463                0.01000000               -0.05639324               -0.24896353                0.16218198                1.04940370                0.05354331                0.42222081
               9.97953674                6.99484092               68.10819277                0.01000000               -0.05550791                0.07989326                0.16627869                0.48609087                0.01550542                0.37181346
               0.01219107                7.98003990               68.06908335                1.00000000               -0.03254376               -0.03125437                0.10454050                0.00030515               -0.00428068                0.02270235
               1.01186563                7.97258002               68.07317413                0.99999998               -0.03372465               -0.03393482                0.11228933               -0.00093861               -0.01000920               -0.00522715
               2.01151658                7.96512912               68.07714474                0.07909242               -0.02517314               -0.02297543                0.12141118               -0.03056903               -0.09621204                0.09031173
               3.01136217                7.95760612               68.07950558                0.01112615               -0.25479534               -0.30934009                0.06723720                0.92431498                0.03455331               -0.06004870
               4.00642067                7.96268716               68.08563933                0.01008185               -0.41900905               -0.99895977                0.16315960                2.17267467                0.17586510               -0.05201619
               5.00298199                7.97632845               68.09094174                0.01000000               -0.37331076               -0.36206746                0.15283221                2.48582748                0.17910752                0.06850738
               5.99895446                7.98977259               68.09616046                0.01000000               -0.35838849               -0.15651137                0.16013919                2.16870002                0.22815457                0.15880658
               6.99581422                8.00006840               68.10140515                0.01000007               -0.21068470               -0.16055577                0.15750776                1.75665871                0.27757036                0.24208451
               7.99474076                8.00542211               68.10663895                0.01071501               -0.05489094               -0.18046918                0.14964430                1.31189389                0.26641094                0.35482422
               8.99471640                8.00490334               68.11079080                0.01057496               -0.07208744               -0.05043679                0.12499770                0.82754072                0.13080599                0.50755849
               9.99329901                7.99766761               68.11349681                0.01000002               -0.14173877                0.43410572                0.15136349                0.49477452                0.03760744                0.32099488
               0.01966621                8.97971935               68.07004732                0.99999998               -0.03421336               -0.03272846                0.10968306                0.00033040                0.00109844                0.02234922
               1.01932408                8.97223508               68.07403381                0.99999999               -0.03535019               -0.03505507                0.11704480               -0.00071732                0.00070899                0.00174927
               2.01895921                8.96476033               68.07801061                0.99999997               -0.03754028               -0.03719582                0.12375364               -0.00096943               -0.00551206               -0.00849662
               3.01857327                8.95729719               68.08186517                0.86479797               -0.03974819               -0.03551063                0.12959905               -0.01127657               -0.00910657                0.06079754
               4.01816424                8.94985241               68.08576024                0.01000000               -0.30828529               -0.66384143                0.13689038                1.76730430                0.14207190               -0.06079569
               5.01240757                8.97344174               68.09264696                0.01000000               -0.64092855               -0.06194847                0.15120810                2.11966919                0.30017568                0.02232784
               6.00534567                8.98928580               68.09865482                0.01000000               -0.52419562                0.00120244                0.16263749                1.34114261                0.30570338                0.08018153
               7.00192365                8.99895216               68.10443025                0.01011600               -0.16390675               -0.09928877                0.16464159                0.92999971                0.35942575                0.13181485
               8.00206754                9.00393672               68.11034932                0.01000001                0.12367383               -0.17606675                0.12834387                0.66040059                0.47946371                0.19234482
               9.00439713                9.00469023               68.11727073                1.00000000                0.09180793               -0.03484926                0.15389923                0.52508045                0.32159773                0.31175576
              10.00390370                9.00352303               68.11769768                1.00000000               -0.04934342                0.26473090                0.17698392                0.47235267               -0.00273278                0.19194160
               0.02716623                9.97938533               68.07091842                1.00000000               -0.03559217               -0.03340264                0.11378385               -0.00063883                0.01661446                0.01731810
               1.02681031                9.97187892               68.07490468                0.99999999               -0.03655765               -0.03561608                0.12105445               -0.00138290                0.02058814                0.00197686
               2.02643508                9.96438520               68.07897272                0.99999999               -0.03828772               -0.03751304                0.12756120               -0.00156325                0.02321151               -0.00400457
               3.02604456                9.95689590               68.08300778                0.99999999               -0.04064344               -0.04012833                0.13456024               -0.00161465                0.01916001               -0.00074668
               4.02562221                9.94941034               68.08699533                0.01857437               -1.00512834               -0.04420780                0.14255764                1.65547578                0.17403667               -0.00605176
               5.00594199                9.97508948               68.09413644                0.01000000               -1.26776610                0.16477482                0.15725119                1.37275775                0.33459006               -0.01225013
               6.00026689                9.98979664               68.10042988                0.01000001               -0.30893476                0.05108433                0.16938182                0.64177867                0.32602037                0.02196647
               6.99976329                9.99808262               68.10637529                0.01000000                0.09719071               -0.08695335                0.17468290                0.38917059                0.36738241                0.06085790
               8.00221070               10.00190077               68.11234800                0.01000002                0.29342015               -0.20359487                0.13656402                0.32050339                0.37663339                0.06710209
               9.00563170               10.00420636               68.11757811                1.00000000                0.14348762               -0.04838708                0.17124241                0.17652955                0.24382555                0.00366797
              10.00508046               10.00296223               68.11800505                0.99863352               -0.05512418               -0.05608071                0.19432708               -0.00673699                0.00327441               -0.00327387
              -0.08279182               -0.00927803               69.05320108                1.00000000               -0.02252422               -0.02428937                0.07603826                0.00130709               -0.00820522                0.00793535
               0.91698294               -0.01374483               69.05675787                1.00000000               -0.02232485               -0.02391049                0.07486190               -0.00014085               -0.00885946               -0.00156497
               1.91676168               -0.01818066               69.06030164                0.01000001                0.14902282               -0.02353365                0.07369736                0.21020395               -0.00591466               -0.00360076
               2.91996340               -0.01837654               69.06391245                0.01000000                0.23578771               -0.06720997                0.06693754                0.13675969               -0.02758877                0.04233401
               3.92147744               -0.01623037               69.06698129                0.01000001                0.09312265               -0.02089676                0.07239955                0.19536791               -0.09412600                0.05182578
               4.92182585               -0.01004336               69.06916779                0.01000000               -0.11408041                0.01948649                0.09136919                0.32078607               -0.19464469                0.05223791
               5.91919583                0.00083441               69.07038924                0.01000000               -0.59766915                0.11922495                0.10235841                0.71240900               -0.27701162                0.02939886
               6.90987247                0.01847940               69.07053637                0.97661550               -0.47954382               -0.03117904                0.09098473                0.76268523               -0.14560245               -0.00240569
               7.90960495                0.02095536               69.07360080                1.00000000               -0.02653124               -0.03063668                0.08904990                0.00012148                0.00008317               -0.00062889
               8.90934184                0.02351386               69.07666818                1.00000000               -0.02595652               -0.02994808                0.08673064                0.00004228                0.00003180                0.00091837
               9.90908582                0.02615275               69.07973551                1.00000000               -0.02560170               -0.02927962                0.08509381               -0.00455638                0.00012214                0.00129308
              -0.07831194                0.99047908               69.05470277                1.00000000               -0.02552085               -0.02571004                0.08565302                0.00149658                0.00149430                0.00843629
               0.92143285                0.98601606               69.05826096                0.01000000               -0.02542404               -0.02532543                0.08447809                0.00004212                0.00443363               -0.00456650
               1.92117958                0.98158400               69.06187987                0.01000000               -0.05385018                0.00134458                0.08329314                0.16014933                0.01968647                0.04735731
               2.92035585                0.98095136               69.06574015                0.01000000               -0.09575239               -0.04094597                0.07546961                0.29653381               -0.00889997                0.07470550
               3.91926453                0.98356066               69.06876063                0.01000000               -0.19272621               -0.00157196                0.07622218                0.45930141               -0.08662999                0.09108920
               4.91650132                0.99015151               69.07109199                0.01000000               -0.36029944                0.03304240                0.08497084                0.70219184               -0.15857060                0.09487387
               5.91205854                1.00202666               69.07253214                0.01000001               -0.45312391                0.01412770                0.10192511                1.03289779               -0.21940847                0.06952137
               6.90743884                1.01816761               69.07310319                0.83727083               -0.24847990               -0.03492303                0.11663350                0.68751282               -0.12403986               -0.00361387
               7.90708894                1.02064899               69.07618171                0.99984826               -0.03476383               -0.03449560                0.11542230                0.00053527                0.00122267               -0.00040977
               8.90674357                1.02321438               69.07926234                1.00000000               -0.03437890               -0.03399419                0.11388245                0.00012246                0.00071453                0.00208481
               9.90640136                1.02585996               69.08233338                0.99967543               -0.03422024               -0.03306507                0.11207387               -0.00431783                0.00029718                0.00310211
              -0.07383585                1.99020777               69.05621807                0.03818604               -0.02852847                0.00777079                0.09528544                0.02048183                0.00342883                0.10433280
               0.92587886                1.98574866               69.05970252                0.01000000               -0.05673872               -0.00956216                0.09412539                0.04030703                0.06741284                0.09458330
               1.92502937                1.98184623               69.06447060                0.01000001               -0.09807261               -0.05137078                0.07865932                0.28252474                0.06805601                0.12913854
               2.92391741                1.98080454               69.06815893                0.01000000               -0.17830234               -0.05102561                0.07766843                0.62615841               -0.01214130                0.13254745
               3.92146332                1.98373819               69.07131433                0.01000000               -0.32568584               -0.00948454                0.08177941                0.95500443               -0.06305855                0.15360769
               4.91740369                1.99061749               69.07381989                0.01000001               -0.48128218                0.00047728                0.09177700                1.26548670               -0.11707577                0.16349487
               5.91183768                2.00111696               69.07561065                0.01000000               -0.62016517               -0.05614508                0.10952000                1.66193341               -0.22549925                0.16196777
               6.90500039                2.01778094               69.07565127                0.01000000               -0.36343921               -0.35819673                0.14135194                1.17945026               -0.14912892                0.15016453
               7.90456890                2.02026545               69.07876329                0.43990460               -0.04335316               -0.04235581                0.14220666               -0.00004634                0.00385294                0.01052092
               8.90413332                2.02283397               69.08186825                0.99999999               -0.04302951               -0.04234993                0.14185472               -0.00060569                0.00172891                0.00338942
               9.90370831                2.02549145               69.08495069                0.99929112               -0.04250189               -0.04097407                0.13864481               -0.00458228                0.00040775                0.00444066
              -0.06898408                2.99063449               69.05964301                0.01000001               -0.04153865                0.18253154                0.07662129                0.35660699               -0.04838616                0.11308891
               0.93060053                2.98582482               69.06318859                0.01000000                0.03791337               -0.12711354                0.06036226                0.34153919               -0.01236289                0.19904262
               1.93177419                2.98055658               69.06721206                0.01000000                0.01932583               -0.18107354                0.07679305                0.60468924                0.03303488                0.14991640
               2.93098705                2.97993085               69.07096506                0.01000000               -0.16112578               -0.14500118                0.07705682                1.05717616                0.00802235                0.16603103
               3.92855167                2.98337097               69.07430940                0.01030089               -0.32773822               -0.10181851                0.08764632                1.43215601               -0.02996350                0.18625196
               4.92443229                2.99016105               69.07714520                0.01000000               -0.52089579               -0.06774119                0.10078688                1.79917831               -0.07644134                0.20486577
               5.91813376                3.00090376               69.07933175                0.01000001               -0.62764606               -0.09202128                0.12062480                1.97184036               -0.10532469                0.22220456
               6.91187936                3.01100368               69.08129424                0.01000000               -0.80493854               -0.41521886                0.14700470                1.84952181               -0.19410257                0.29479547
               7.90203498                3.01980188               69.08156073                0.01125399               -0.51869583               -0.21602262                0.18365087                1.05033985               -0.14596301                0.19242418
               8.90150545                3.02236738               69.08447686                0.21680527               -0.05201117               -0.04728806                0.17147494                0.00385580               -0.00953220                0.06553366
               9.90099476                3.02504047               69.08755152                0.99999999               -0.05106861               -0.04590738                0.16592447               -0.00943814               -0.00230669                0.06703112
              -0.05708436                3.99385840               69.06258159                0.01000001               -0.01280808                0.16228277                0.10077201                0.26267351                0.01417888                0.14525359
               0.94278755                3.98320639               69.06628337                0.01000000                0.00507445               -0.26684023                0.07393767                0.57721228                0.02358585                0.15386809
               1.94301712                3.97822476               69.07006925                0.01000000               -0.02705056               -0.28696702                0.06429296                1.03374100                0.04406736                0.14439395
               2.94224654                3.97790452               69.07392161                0.01030659               -0.15704406               -0.26180801                0.07653971                1.46160066                0.03019800                0.17353933
               3.93987624                3.98170182               69.07744040                0.01000000               -0.31960342               -0.22915334                0.09121744                1.88230338               -0.00218197                0.20056337
               4.93585447                3.98926267               69.08061182                0.01000001               -0.47221906               -0.15383100                0.10952791                2.23533123               -0.02825551                0.22610185
               5.93043186                3.99927654               69.08345916                0.01000001               -0.63808848               -0.17076451                0.12912051                2.45122470               -0.06204508                0.25553099
               6.92309270                4.00947656               69.08581155                0.01064420               -0.81099340               -0.18461566                0.15092064                2.31656716               -0.10104562                0.27082035
               7.91421199                4.01594499               69.08780236                0.01023394               -1.20604319               -0.31651202                0.18161096                2.31929569               -0.20039257                0.37222004
               8.89897184                4.02188821               69.08833104                0.01000000               -0.80193230               -0.32190899                0.23722031                1.97106582               -0.12407952                0.31094767
               9.89817335                4.02457330               69.09140353                0.01000000               -0.07984934               -1.19164954                0.22561912                1.92558600               -0.00820514                0.30200074
              -0.04242658                4.99388015               69.06543275                0.01000001                0.02050053               -0.15165365                0.12422995                0.28992054                0.07342083                0.10316709
               0.95777842                4.98048801               69.06891092                0.01000000                0.00887285               -0.34297124                0.06301189                0.73653573                0.08896078                0.11580318
               1.95775088                4.97481724               69.07273311                0.01000001               -0.05182125               -0.37368487                0.05329009                1.35430260                0.07689768                0.13321345
               2.95674200                4.97469469               69.07672081                0.01000000               -0.14556411               -0.40554530                0.07076222                1.79232900                0.05628570                0.17254968
               3.95483959                4.97878791               69.08054702                0.01000001               -0.25889017               -0.36006970                0.09716971                2.23879672                0.02868517                0.21046066
               4.95156420                4.98708443               69.08418797                0.01000001               -0.39476214               -0.27085948                0.11852108                2.60791788                0.01219959                0.23219161
               5.94694435                4.99748847               69.08751107                0.01054623               -0.50109727               -0.22782367                0.13650895                2.76945086               -0.01342151                0.25933926
               6.94154225                5.00731136               69.09041743                0.01067554               -0.54675491               -0.27322039                0.15341676                2.71937208               -0.05000536                0.29021635
               7.93600925                5.01347163               69.09305408                0.01000000               -0.46218980               -0.31175292                0.17736552                2.64172939               -0.08417476                0.37139652
               8.93229845                5.01592920               69.09573082                0.01000000               -0.09364774               -0.68386137                0.19360927                2.33404125               -0.06241580                0.44313671
               9.93413630                5.00120748               69.09859926                0.01015815                0.18378433               -1.52342785                0.19633629                1.55166229               -0.05522925                0.43328870
              -0.02450168                5.99082533               69.06813198                0.01000002                0.10828587               -0.71254409                0.30409053                0.69410959                0.04676466                0.04079837
               0.97658117                5.97634696               69.07123510                0.01000001                0.01990920               -0.42233251                0.09949477                1.11281823                0.00917661                0.10935611
               1.97589650                5.97075106               69.07513222                0.01000000               -0.12293569               -0.36033380                0.03321803                1.47353577                0.07926940                0.11032682
               2.97412246                5.96979361               69.07928680                0.01000001               -0.18170321               -0.59687068                0.08680442                1.94185531                0.03968011                0.21507868
               3.97226244                5.97450043               69.08354665                0.01000001               -0.24050942               -0.48777556                0.10649990                2.42806218                0.04457159                0.18323713
               4.96931227                5.98384548               69.08753782                0.01053956               -0.33342449               -0.37328219                0.12695395                2.74649601                0.04611899                0.20901636
               5.96559395                5.99472006               69.09133432                0.01067578               -0.39076475               -0.30800932                0.14535903                2.78923068                0.04472633                0.22737713
               6.96149698                6.00401216               69.09484881                0.01000000               -0.35825987               -0.31825268                0.17078119                2.65286999                0.04008273                0.29728343
               7.95842875                6.00970994               69.09821237                0.01000000               -0.17900804               -0.35404868                0.17348394                2.30899269                0.03709363                0.37724288
               8.95791682                6.00821098               69.10151155                0.01003579                0.01106357               -0.58042241                0.17981506                1.47265912                0.01452416                0.38576904
               9.95865002                5.99410475               69.10459294                0.01000000                0.07332033               -0.40546421                0.18130060                0.71731248               -0.00731980                0.35538043
               0.00041234                6.97962927               69.06919426                0.98549141               -0.03032848               -0.57489066                0.09855151                0.86743605               -0.00570052                0.02576370
               1.00010906                6.97204136               69.07349766                0.01000002               -0.33187011               -0.23179459                0.10551432                0.95496829               -0.06547495                0.06324286
               1.99377494                6.96761057               69.07660338                0.01224739               -0.41396603               -0.33216164                0.19812938                1.10868788               -0.20935838                0.14945209
               2.99182974                6.96275728               69.08198369                0.01000000               -0.22129829               -0.67941014                0.09928941                1.74308052               -0.00448021                0.02923179
               3.98934897                6.96903239               69.08575538                0.01063467               -0.27776284               -0.64503716                0.12404794                2.33717664                0.00483667                0.13350715
               4.98627448                6.97961879               69.09041944                0.01067481               -0.33933458               -0.44044950                0.14072131                2.62396267                0.10767058                0.13428535
               5.98256228                6.99132828               69.09470559                0.01000000               -0.33323516               -0.30982201                0.15830561                2.58647547                0.15289735                0.17426430
               6.97960978                7.00094631               69.09908632                0.01000000               -0.22860020               -0.25320607                0.16526512                2.34232776                0.16011837                0.29188491
               7.97799028                7.00639066               69.10327733                0.01007315               -0.11264761               -0.26290481                0.16640403                1.87062746                0.12963832                0.37836348
               8.97735682                7.00432075               69.10686250                0.01000000               -0.06476285               -0.21744995                0.17023097                1.05532511                0.06295517                0.39052943
               9.97669502                6.99309820               69.10983335                0.01000003               -0.06618031                0.09142684                0.16525852                0.48179020                0.01600153                0.34875908
               0.00802284                7.97932752               69.07012436                1.00000000               -0.03236034               -0.03113739                0.10421911                0.00060024               -0.00360202                0.02381564
               1.00769924                7.97171107               69.07429085                0.99999999               -0.03342494               -0.03376731                0.11167748               -0.00061467               -0.00890881               -0.00401071
               2.00735435                7.96410783               69.07835080                0.01315828               -0.00684981               -0.19357380                0.12022663                0.28342682               -0.13760672                0.02750469
               3.00756224                7.95620541               69.07994260                0.01119431               -0.26049438               -0.33209911                0.17608403                1.01085206               -0.17347402                0.16649290
               4.00214446                7.96159968               69.08753717                0.01020978               -0.40333016               -1.02657254                0.15867729                2.18239876                0.17638566               -0.06638480
               4.99949564                7.97503649               69.09241636                0.01000000               -0.30742627               -0.38199389                0.14667645                2.47832184                0.16601817                0.05532567
               5.99599593                7.98852362               69.09777375                0.01000000               -0.31072452               -0.17240508                0.15597832                2.19004455                0.23093852                0.14098202
               6.99328115                7.99894804               69.10297260                0.01003330               -0.17645363               -0.16000181                0.15904190                1.79771955                0.26258636                0.24174942
               7.99246686                8.00445184               69.10801930                0.01000001               -0.04826853               -0.17920841                0.14332147                1.36615182                0.22567110                0.31907457
               8.99231578                8.00386198               69.11203578                0.01000001               -0.08679685                0.00033286                0.13800499                0.89740752                0.11708727                0.50038818
               9.99073092                7.99593328               69.11508849                0.01000002               -0.15848575                0.50017222                0.16124059                0.53908029                0.05545011                0.31611718
               0.01565724                8.97900652               69.07114643                0.99979389               -0.03407838               -0.03290517                0.10995955                0.00055615                0.00140872                0.02309308
               1.01531645                8.97136602               69.07520455                0.99999999               -0.03540500               -0.03517448                0.11715651               -0.00037947                0.00087123                0.00203255
               2.01494914                8.96373909               69.07925040                0.99999998               -0.03807661               -0.03739293                0.12445925               -0.00146844               -0.00659833               -0.00951648
               3.01455492                8.95611529               69.08315426                0.87919340               -0.03916313               -0.02365276                0.12871166               -0.03139312               -0.01147884                0.10066425
               4.01416587                8.94850094               69.08709452                0.01000000               -0.28189710               -0.67368914                0.13020518                1.77440481                0.14728098               -0.09187432
               5.00891698                8.97197891               69.09417265                0.01000000               -0.58571252               -0.08184253                0.15388887                2.12193869                0.30251313                0.00736527
               6.00245162                8.98788018               69.10026901                0.01000007               -0.46405137               -0.01736960                0.15812051                1.35623040                0.30514369                0.07398922
               6.99963595                8.99774627               69.10607941                0.01038440               -0.10261291               -0.11380415                0.16127007                0.95655921                0.34068559                0.13548607
               8.00039937                9.00280649               69.11161536                0.01000005                0.20937896               -0.20254842                0.13943371                0.72912803                0.47184767                0.18233694
               9.00382353                9.00432741               69.11879573                1.00000000                0.14673326               -0.00065174                0.15109639                0.65526909                0.32219576                0.31649361
              10.00333403                9.00310164               69.11946973                1.00000000               -0.04894997                0.33010740                0.17742788                0.56941958               -0.00272908                0.19170477
               0.02331497                9.97866941               69.07206243                1.00000000               -0.03558915               -0.03371074                0.11476213               -0.00040966                0.01711588                0.01762631
               1.02295908                9.97100758               69.07611942                0.99999999               -0.03696357               -0.03584362                0.12182573               -0.00120954                0.02109845                0.00182836
               2.02257570                9.96335997               69.08025654                1.00000000               -0.03932749               -0.03791231                0.12935541               -0.00110502                0.02295298               -0.00460604
               3.02217253                9.95573236               69.08434910                0.99999999               -0.04033807               -0.03829389                0.13388439                0.00005755                0.01727996               -0.00086731
               4.02176894                9.94812590               69.08838230                0.01719023               -0.98086742               -0.03750423                0.13570753                1.64367040                0.17872804               -0.00584353
               5.00255518                9.97339964               69.09571573                0.01000000               -1.22078815                0.14207255                0.15689933                1.36633668                0.34048965               -0.02141508
               5.99735318                9.98817623               69.10210975                0.01000001               -0.25345809                0.02960529                0.16263629                0.65377101                0.31711889                0.02027906
               6.99748602                9.99667195               69.10805423                0.01000000                0.15575567               -0.10743222                0.16465404                0.39623883                0.36600191                0.05826969
               8.00046829               10.00040087               69.11397358                0.01000002                0.38199955               -0.24056224                0.15296551                0.36574218                0.37974987                0.08863734
               9.00512601               10.00384895               69.11928832                1.00000000                0.20512749               -0.04784561                0.17080076                0.23697604                0.23570444                0.00366581
              10.00457084               10.00253543               69.11996232                0.99896197               -0.05551722               -0.05662128                0.19713232               -0.00767114                0.00327050               -0.00327269
              -0.08642470               -0.01074860               70.05396367                1.00000000               -0.02253149               -0.02446722                0.07650288                0.00122308               -0.00817267                0.00788803
               0.91334999               -0.01531171               70.05750453                1.00000000               -0.02220699               -0.02383360                0.07448606               -0.00026936               -0.00883435               -0.00155797
               1.91313116               -0.01984295               70.06103259                0.01000000                0.14280639               -0.02319643                0.07251185                0.22510210               -0.00308176               -0.00358872
               2.91620611               -0.01983273               70.06468404                0.01000001                0.23603634               -0.06618581                0.07746902                0.18404571               -0.02018709                0.03705555
               3.91785189               -0.01743514               70.06777757                0.01000000                0.09205819               -0.02435987                0.08162712                0.20057795               -0.10389879                0.04838553
               4.91804728               -0.01141590               70.06997971                0.01000001               -0.11002892                0.02064426                0.08772921                0.31225272               -0.20260211                0.05323961
               5.91565131               -0.00101975               70.07148722                0.01000000               -0.56146129                0.11040370                0.09573063                0.68020265               -0.34014104                0.06522866
               6.90681805                0.01575581               70.07145147                0.98057959               -0.45528670               -0.03152454                0.09261178                0.71903302               -0.15428421               -0.00330163
               7.90654558                0.01823319               70.07449209                1.00000000               -0.02698258               -0.03029580                0.09004695                0.00015389               -0.00125510               -0.00111760
               8.90627840                0.02078951               70.07753107                1.00000000               -0.02623816               -0.02914873                0.08692620               -0.00004874               -0.00151781                0.00025463
               9.90602081                0.02342177               70.08057855                1.00000000               -0.02575882               -0.02828181                0.08473278               -0.00462336               -0.00151618               -0.00120191
              -0.08184936                0.98900673               70.05556295                0.99999999               -0.02561720               -0.02592766                0.08637316                0.00154736                0.00147912                0.00840648
               0.91789447                0.98444996               70.05910525                0.01000000               -0.02539719               -0.02528588                0.08437378                0.00004658                0.00440816               -0.00454393
               1.91764269                0.97992509               70.06270812                0.01000000               -0.05259003                0.00985007                0.08234269                0.17318314                0.01652121                0.03916570
               2.91684267                0.97950541               70.06648997                0.01000000               -0.09967210               -0.03519691                0.07485437                0.32865699               -0.02071967                0.07176219
               3.91564925                0.98232126               70.06953913                0.01000000               -0.19402766               -0.00432431                0.07814984                0.47116116               -0.09944331                0.09114837
               4.91296211                0.98879054               70.07185966                0.01000000               -0.33908858                0.03201419                0.07610293                0.68837209               -0.17911543                0.11006086
               5.90886748                1.00008428               70.07347177                0.01000001               -0.42901019                0.01666720                0.08245270                0.98202526               -0.25922018                0.10588109
               6.90438191                1.01544056               70.07427293                0.82112707               -0.24186087               -0.03503447                0.11729802                0.64859183               -0.11148597               -0.00533691
               7.90403026                1.01793024               70.07733730                0.99939179               -0.03491412               -0.03417766                0.11514366                0.00118738                0.00156063               -0.00060178
               8.90368363                1.02049802               70.08039845                1.00000000               -0.03439713               -0.03305665                0.11276384                0.00004831                0.00082893                0.00199158
               9.90334232                1.02313895               70.08344666                1.00000000               -0.03413054               -0.03176047                0.11025746               -0.00470014                0.00024622               -0.00001097
              -0.07728021                1.98873285               70.05717611                0.06649009               -0.02872313               -0.01104075                0.09627661                0.00798529                0.00341952                0.08409130
               0.92243256                1.98418257               70.06064491                0.01000000               -0.05902090               -0.01665140                0.09435637                0.03953271                0.05916575                0.06894952
               1.92153937                1.98035405               70.06523230                0.01000001               -0.10247400               -0.03966140                0.07841347                0.29634456                0.06462028                0.10694196
               2.92038308                1.97946333               70.06891476                0.01000000               -0.17746952               -0.04512309                0.07751060                0.64440887               -0.00927113                0.12559377
               3.91798998                1.98247838               70.07210214                0.01000000               -0.31656893               -0.01000333                0.07977856                0.96621855               -0.06231718                0.15611338
               4.91405170                1.98922438               70.07470212                0.01000001               -0.46740939               -0.00056249                0.08669931                1.25290779               -0.11654607                0.18331301
               5.90864179                1.99931359               70.07664371                0.01000000               -0.60538811               -0.04702478                0.10068607                1.59947605               -0.19799260                0.17528825
               6.90194394                2.01505512               70.07706323                0.01000000               -0.35649647               -0.33287016                0.13980902                1.13596902               -0.12763260                0.13751319
               7.90151186                2.01754964               70.08019142                0.45568253               -0.04366418               -0.04325697                0.14336882                0.00354431                0.00697709                0.02249545
               8.90107065                2.02012838               70.08329236                0.99999999               -0.04334537               -0.04182851                0.14167692               -0.00049624                0.00310382                0.00683528
               9.90064496                2.02278656               70.08632975                0.99999999               -0.04256973               -0.03951272                0.13568816               -0.00535823                0.00094333                0.00289556
              -0.07258911                2.98878591               70.06029387                0.01033439               -0.03469724                0.17222909                0.07196555                0.37500445               -0.00795150                0.14616998
               0.92706391                2.98411693               70.06371557                0.01000000                0.04389724               -0.12578132                0.06273164                0.36916692                0.03611063                0.14113974
               1.92828883                2.97913186               70.06793842                0.01000000                0.02713031               -0.18683420                0.07884825                0.64151127                0.06171469                0.12037852
               2.92760652                2.97860295               70.07174368                0.01000000               -0.15381298               -0.14296849                0.08232506                1.08375762                0.02585912                0.15091414
               3.92521257                2.98212120               70.07516984                0.01031359               -0.32107335               -0.09823544                0.08833834                1.44000798               -0.01422676                0.18502482
               4.92118505                2.98877929               70.07812479                0.01000000               -0.50931532               -0.06402982                0.09821624                1.77945389               -0.05783850                0.21082941
               5.91502626                2.99914379               70.08050097                0.01000001               -0.61599068               -0.08198444                0.11565821                1.92904483               -0.08053270                0.22471113
               6.90886524                3.00878316               70.08273996                0.01000000               -0.79991867               -0.37626672                0.13541600                1.79450765               -0.15701709                0.27954519
               7.89902789                3.01706510               70.08348437                0.01142821               -0.52142278               -0.18419107                0.20908942                1.01723465               -0.12929887                0.19208944
               8.89843678                3.01966145               70.08621460                0.27348344               -0.05545488               -0.04110254                0.17689896                0.01001401               -0.01403824                0.09714514
               9.89791879                3.02234870               70.08920756                0.99999999               -0.05179899               -0.04059781                0.16554843               -0.00933483               -0.00277798                0.08938293
              -0.06044216                3.99217743               70.06366909                0.01008597               -0.00878956                0.15239857                0.09795445                0.37024443                0.01006123                0.13239041
               0.93946995                3.98166695               70.06692627                0.01000000                0.01628662               -0.25512208                0.08188069                0.66710765                0.04663804                0.09783716
               1.93988358                3.97661737               70.07073973                0.01000000               -0.02005283               -0.29338954                0.08155919                1.09750149                0.08909376                0.09111779
               2.93906889                3.97660396               70.07470679                0.01030416               -0.16348899               -0.25187315                0.08817415                1.49979852                0.07267765                0.14304422
               3.93661380                3.98051367               70.07834625                0.01000000               -0.32253536               -0.21945272                0.09584738                1.88524443                0.02896790                0.19227328
               4.93261818                3.98794379               70.08169126                0.01000001               -0.46974882               -0.14538192                0.10962184                2.21221302               -0.00097797                0.22624062
               5.92721882                3.99767390               70.08472833                0.01000001               -0.63527018               -0.15305978                0.12655985                2.41303934               -0.03861746                0.25222761
               6.91991278                4.00752978               70.08729365                0.01067576               -0.81202784               -0.16334156                0.14488161                2.27468974               -0.07615775                0.26061017
               7.91097826                4.01386582               70.08957167                0.01035210               -1.19627233               -0.24265599                0.16161525                2.24677434               -0.14821353                0.35779476
               8.89598733                4.01930633               70.09087633                0.01000000               -0.79472449               -0.29849341                0.24301904                1.92538536               -0.08302169                0.30490815
               9.89508377                4.02197460               70.09379571                0.01000000               -0.09035612               -1.17394701                0.23279221                1.90681380               -0.00245243                0.29285845
              -0.04416327                4.99183388               70.06659359                0.01000000                0.01293925               -0.15478959                0.13422448                0.45072426                0.10896244                0.17978204
               0.95596613                4.97901449               70.06952047                0.01000000               -0.02674419               -0.32118572                0.07614118                0.80020319                0.17785218               -0.01539735
               1.95530185                4.97326407               70.07334099                0.01000001               -0.11299668               -0.35608417                0.09168195                1.38219316                0.20026913                0.02945375
               2.95370619                4.97356548               70.07743397                0.01000000               -0.18621076               -0.38359054                0.08933315                1.81766977                0.12323627                0.14612013
               3.95157763                4.97773214               70.08151886                0.01000001               -0.27185570               -0.33996529                0.10404073                2.22520696                0.07889187                0.19480243
               4.94826908                4.98587165               70.08536209                0.01000001               -0.39382908               -0.25787902                0.11987722                2.58146999                0.04479336                0.22753085
               5.94370105                4.99608259               70.08886850                0.01060952               -0.50509806               -0.22337970                0.14283806                2.73553388                0.01154106                0.25615337
               6.93816712                5.00551633               70.09193790                0.01000001               -0.57571081               -0.24773205                0.15212776                2.73338029               -0.04423427                0.28813926
               7.93218684                5.01221198               70.09480988                0.01000000               -0.46657044               -0.27000514                0.16194812                2.63879381               -0.10504668                0.39866084
               8.92883571                5.01369158               70.09761851                0.01000000               -0.07341589               -0.64200066                0.17801040                2.28017497               -0.06355411                0.39448535
               9.93071852                4.99886976               70.10050036                0.01016910                0.18828103               -1.50156690                0.18013787                1.54122448               -0.04976969                0.39055697
              -0.02578888                5.98908164               70.07191519                0.01000002               -0.01672947               -0.64832710                0.15980036                0.62530018                0.41169246               -0.45342513
               0.97404383                5.97524323               70.07220273                0.01000001               -0.06173401               -0.39458047                0.23188388                1.00806834                0.49810381               -0.06869579
               1.97297644                5.96949568               70.07538977                0.01000000               -0.15448070               -0.41368812                0.05786418                1.51552747                0.22525896                0.11841958
               2.97095421                5.96893215               70.08015064                0.01000001               -0.20823369               -0.50763330                0.10068703                1.94579537                0.16409479                0.15526646
               3.96881177                5.97371436               70.08454649                0.01000001               -0.25285396               -0.46104552                0.10587317                2.36852466                0.09871935                0.17739247
               4.96589713                5.98278620               70.08877993                0.01060119               -0.32634730               -0.36907026                0.12894091                2.71012557                0.08119891                0.20164778
               5.96228482                5.99320631               70.09278534                0.01000001               -0.37230656               -0.33103558                0.14567164                2.80952865                0.06631639                0.22144915
               6.95845100                6.00257514               70.09659906                0.01000000               -0.33529692               -0.28195714                0.16614917                2.70814542                0.05780901                0.30563238
               7.95557888                6.00846572               70.09998092                0.01000000               -0.17589735               -0.34527684                0.17544522                2.35927594                0.05670419                0.38833053
               8.95493306                6.00646631               70.10330446                0.01035367               -0.00134811               -0.53531310                0.17903061                1.47183734                0.03022879                0.36783183
               9.95555192                5.99194326               70.10638596                0.01000000                0.06188656               -0.37746006                0.17560316                0.70752307                0.00826100                0.32001551
              -0.00398046                6.97886734               70.07017923                0.96862035               -0.03060974               -0.52587997                0.09892340                0.70430004               -0.00546316               -0.11621507
               0.99571344                6.97112288               70.07455273                0.01801565               -0.20480282               -0.22251615                0.10605540                0.77700785               -0.04391748                0.06589316
               1.99192348                6.96499031               70.07816449                0.01210447               -0.36550097               -0.32317476                0.17397744                1.12130964                0.11311905                0.04899449
               2.98840342                6.96341282               70.08252294                0.01000000               -0.34147064               -0.45833696                0.06827403                1.56365160                0.09670081                0.13379503
               3.98509407                6.96851123               70.08697256                0.01066821               -0.27118906               -0.68470164                0.12274480                2.18701425                0.06786219                0.13614743
               4.98297964                6.97849025               70.09173120                0.01077192               -0.24956920               -0.45522235                0.12632356                2.55596431                0.12952551                0.12080479
               5.98010269                6.98946188               70.09631212                0.01000000               -0.29545126               -0.30887445                0.15654718                2.60595562                0.18721982                0.15949841
               6.97707062                6.99987719               70.10079238                0.01000000               -0.23107509               -0.23324270                0.17084103                2.41069785                0.18293126                0.29733004
               7.97548118                7.00530644               70.10497210                0.01042144               -0.11378549               -0.25000750                0.17462943                1.88601300                0.14812035                0.36833257
               8.97479491                7.00298532               70.10858925                0.01029440               -0.07830537               -0.17442193                0.17190979                1.05350105                0.08244351                0.37146199
               9.97391508                6.99132055               70.11149794                0.01071660               -0.08798295                0.12051508                0.16460683                0.47105669                0.02623037                0.32821439
               0.00378605                7.97856404               70.07116774                1.00000000               -0.03250304               -0.03120999                0.10470415                0.00081774               -0.00332879                0.02435053
               1.00346102                7.97079291               70.07540768                0.99999999               -0.03366785               -0.03378583                0.11196795               -0.00038812               -0.00848736               -0.00326184
               2.00311269                7.96303219               70.07954928                0.01000000               -0.23773502               -0.11630211                0.12011811                0.39632736               -0.04685458                0.00670217
               2.99870632                7.95976541               70.08302726                0.01128643               -0.28190343               -0.42544238                0.25195311                0.95421486               -0.19697892                0.23636388
               3.99747462                7.96002033               70.08881287                0.01033988               -0.13202742               -1.06707158                0.11595057                1.94568749                0.12851192               -0.07466360
               4.99606577                7.97368176               70.09387526                0.01000000               -0.22288141               -0.41002851                0.14395873                2.46560946                0.21177551                0.02638467
               5.99301700                7.98702882               70.09928003                0.01000000               -0.26226851               -0.15161451                0.14805965                2.18338130                0.25421562                0.13841534
               6.99082040                7.99791029               70.10458599                0.01038321               -0.14129947               -0.16484704                0.16363700                1.83785685                0.27576333                0.24370727
               7.99019101                8.00346557               70.10950537                0.01000000               -0.04157189               -0.18386283                0.15445194                1.41872858                0.22987226                0.31300956
               8.98998896                8.00297787               70.11355090                0.01000000               -0.09442076                0.03911145                0.15330779                0.95398841                0.13250371                0.48086523
               9.98830259                7.99435357               70.11672162                0.01000002               -0.16863711                0.55813734                0.15727101                0.56687083                0.07991889                0.32019591
               0.01157815                8.97824314               70.07224651                1.00000000               -0.03406189               -0.03290941                0.11011955                0.00082854                0.00137765                0.02328694
               1.01123753                8.97044716               70.07637694                0.99999999               -0.03503066               -0.03535810                0.11749798               -0.00008596                0.00092704                0.00213071
               2.01087753                8.96266426               70.08049980                0.99999999               -0.03689722               -0.03756856                0.12469802                0.00042856               -0.00830972               -0.00954905
               3.01049958                8.95490397               70.08443941                0.81661380               -0.03930300               -0.26382714                0.13361918                0.20318055               -0.01761529                0.00826404
               4.01009147                8.94716980               70.08836434                0.01000000               -0.26081208               -0.66512118                0.14473449                1.78706153                0.15199433               -0.09416810
               5.00528334                8.97028968               70.09572473                0.01000000               -0.52748454               -0.10533668                0.14926984                2.11091775                0.30891725               -0.00589540
               5.99954178                8.98642959               70.10181723                0.01026390               -0.39461668               -0.02540390                0.15208772                1.37721693                0.29979649                0.07688043
               6.99739101                8.99658024               70.10765566                0.01070915               -0.03768049               -0.13059515                0.14718069                0.97993477                0.32936921                0.14196561
               7.99878817                9.00162918               70.11313799                0.01000001                0.27978346               -0.22542373                0.15561878                0.77839532                0.46482882                0.19000047
               9.00298668                9.00376755               70.12029266                0.99994237                0.18564700                0.01583085                0.14829810                0.76111018                0.30694001                0.30514151
              10.00250111                9.00248330               70.12124624                1.00000000               -0.04855644                0.37790214                0.17788886                0.64633943               -0.00273276                0.18843624
               0.01939458                9.97790585               70.07321366                1.00000000               -0.03564038               -0.03372932                0.11525706               -0.00036629                0.01687832                0.01768962
               1.01903818                9.97008575               70.07734119                0.99999999               -0.03650640               -0.03614118                0.12258456               -0.00118633                0.02132556                0.00164077
               2.01866445                9.96228082               70.08155983                0.99999998               -0.03868921               -0.03834448                0.12972599               -0.00115197                0.02166407               -0.00440156
               3.01826439                9.95448887               70.08568546                0.99999998               -0.04171523               -0.04151046                0.13924748               -0.00166454                0.01214811               -0.00186416
               4.01783015                9.94671790               70.08970948                0.08027912               -0.96200294               -0.04518952                0.15107573                1.62817557                0.18275710               -0.00848244
               4.99902433                9.97157502               70.09727443                0.01000000               -1.17796910                0.12853473                0.14958081                1.36424126                0.33916046               -0.03166376
               5.99427077                9.98652074               70.10368260                0.01000001               -0.19024158                0.00911504                0.15500724                0.65906665                0.29822053                0.02705967
               6.99521950                9.99529839               70.10966837                0.01000000                0.21504198               -0.12818585                0.13977265                0.40466716                0.33424468                0.05715934
               7.99857161                9.99895709               70.11540731                0.01000002                0.45687728               -0.26720917                0.15640192                0.37814875                0.40222866                0.09498000
               9.00435705               10.00329449               70.12099412                1.00000000                0.26131372               -0.04730599                0.17037268                0.28476311                0.23533069                0.00366065
              10.00379788               10.00191161               70.12194769                0.99929166               -0.05591678               -0.05716923                0.19996425               -0.00861135                0.00326399               -0.00327397
              -0.09003699               -0.01231882               71.05473114                1.00000000               -0.02256712               -0.02464063                0.07700690                0.00114303               -0.00815894                0.00778158
               0.90973734               -0.01697742               71.05824759                1.00000000               -0.02212352               -0.02377684                0.07424053               -0.00038329               -0.00883143               -0.00150686
               1.90952054               -0.02160350               71.06175187                0.01000000                0.15386683               -0.02289027                0.07153470                0.24698141                0.00096330               -0.00353457
               2.91281467               -0.02124728               71.06546183                0.01104290                0.22916301               -0.05968347                0.06936387                0.17046277               -0.00218622                0.02709659
               3.91410380               -0.01878578               71.06861383                0.01000000                0.06247408               -0.01551661                0.07821947                0.20565806               -0.09930742                0.03789216
               4.91406416               -0.01273847               71.07092237                0.01000001               -0.15912748                0.03687722                0.09089811                0.34000475               -0.22296998                0.06212776
               5.91092125               -0.00183012               71.07230385                0.01245122               -0.51411238                0.08179071                0.12128611                0.62940794               -0.38900487                0.14114354
               6.90378191                0.01277045               71.07238860                0.98786721               -0.37104990               -0.03213394                0.09553252                0.60980372               -0.14777376               -0.00413779
               7.90350025                0.01524259               71.07540174                1.00000000               -0.02784403               -0.03049629                0.09283480                0.00012442               -0.00273359               -0.00256831
               8.90322503                0.01778418               71.07840670                1.00000000               -0.02698526               -0.02912696                0.08956812                0.00007058               -0.00309931               -0.00165304
               9.90296055                0.02039249               71.08143016                1.00000000               -0.02644820               -0.02839532                0.08708195               -0.00423695               -0.00314955               -0.00501009
              -0.08536696                0.98743477               71.05643024                0.99999999               -0.02571985               -0.02612499                0.08704351                0.00159974                0.00141292                0.00832717
               0.91437584                0.98278481               71.05994844                0.01000000               -0.02538813               -0.02526262                0.08432533                0.00007343                0.00431377               -0.00447612
               1.91412528                0.97816760               71.06352672                0.01000000               -0.06327007                0.01791292                0.08154179                0.19512315                0.01399788                0.03352723
               2.91311044                0.97815589               71.06723724                0.01000000               -0.11096530               -0.03450069                0.07667635                0.34694636               -0.02893293                0.06846782
               3.91190597                0.98105905               71.07032363                0.01000000               -0.20620347                0.00077602                0.07853270                0.49001183               -0.11077589                0.09212473
               4.90898637                0.98763030               71.07261405                0.01000000               -0.37225529                0.03785432                0.08315745                0.71978922               -0.21441669                0.13510703
               5.90446087                0.99898779               71.07418119                0.01000001               -0.38213905               -0.02881819                0.06927441                0.97071435               -0.28850191                0.17586920
               6.90134359                1.01244911               71.07544915                0.79996531               -0.17331191               -0.03531431                0.11757825                0.55339767               -0.08771786               -0.00776608
               7.90099463                1.01493763               71.07848458                0.99999999               -0.03464039               -0.03371535                0.11454191                0.00114273                0.00087949               -0.00025357
               8.90065078                1.01749291               71.08151762                1.00000000               -0.03423785               -0.03148295                0.11174618                0.00014768                0.00061905                0.00105248
               9.90030987                1.02010854               71.08453853                0.99999998               -0.03409114               -0.03020154                0.10918396               -0.00384529                0.00054221               -0.00514704
              -0.08070507                1.98715868               71.05814360                0.09661593               -0.02889537               -0.01849303                0.09712122                0.00488615                0.00341742                0.07011041
               0.91900598                1.98251732               71.06158965                0.01000000               -0.06215062               -0.02092778                0.09458768                0.04492121                0.05342316                0.05314707
               1.91805192                1.97875476               71.06603887                0.01000001               -0.10719175               -0.03554365                0.08354940                0.32002395                0.05777661                0.09887388
               2.91686215                1.97806271               71.06970915                0.01000000               -0.18111524               -0.04993895                0.08270934                0.68186756               -0.01237145                0.12642620
               3.91442962                1.98122974               71.07290990                0.01000000               -0.31654698               -0.01158448                0.08412805                0.99679828               -0.07166885                0.16695406
               4.91053121                1.98801862               71.07555388                0.01000001               -0.44564453               -0.01208984                0.08908790                1.26608948               -0.12322240                0.21171895
               5.90551673                1.99759352               71.07762437                0.01000000               -0.58155908               -0.08372148                0.09810415                1.57463029               -0.17432948                0.20955685
               6.89890002                2.01206417               71.07844745                0.01000000               -0.35187110               -0.30424757                0.13738156                1.06933996               -0.10355815                0.11727394
               7.89847930                2.01456828               71.08163067                0.60424940               -0.04214759               -0.03371084                0.13941026                0.00350485                0.01096833                0.05140332
               8.89805707                2.01715453               71.08470179                0.99999998               -0.04134525               -0.03833012                0.13507609                0.00354406                0.00341356                0.01227658
               9.89765240                2.01978846               71.08766445                0.99953209               -0.04046728               -0.03731799                0.12918777               -0.00443634               -0.00000754               -0.00030538
              -0.07598652                2.98706491               71.06108232                0.01000001               -0.03352894                0.15239062                0.08415949                0.39551214                0.00001626                0.14666560
               0.92367819                2.98236625               71.06444323                0.01000000                0.04834486               -0.15795419                0.07968091                0.40177526                0.04941485                0.13852780
               1.92498037                2.97745673               71.06878902                0.01000000                0.02973121               -0.20551082                0.09279953                0.68787077                0.07472204                0.11697230
               2.92427281                2.97715711               71.07261156                0.01000000               -0.15471733               -0.14937982                0.09227296                1.13010375                0.02721367                0.15525422
               3.92188603                2.98082736               71.07607617                0.01030532               -0.31642133               -0.10157363                0.09425297                1.46364573               -0.01176579                0.19457092
               4.91794439                2.98738851               71.07910953                0.01000000               -0.49890513               -0.07342203                0.10111643                1.77038123               -0.04806726                0.22488683
               5.91190792                2.99731336               71.08164492                0.01000001               -0.60943794               -0.08199790                0.11475021                1.87580260               -0.06780402                0.23241671
               6.90575563                3.00636416               71.08400256                0.01000000               -0.79667785               -0.32866694                0.12971623                1.73881146               -0.10853798                0.26015516
               7.89597437                3.01426341               71.08574252                0.01169919               -0.51270685               -0.13964525                0.16432371                0.97739435               -0.10226358                0.16458313
               8.89550149                3.01672631               71.08801484                0.40098906               -0.05105433               -0.02860289                0.17262813                0.00645341               -0.03539751                0.11889857
               9.89495328                3.01936218               71.09086249                0.99999999               -0.05482081               -0.03253907                0.16810913               -0.00475651               -0.00412556                0.10763162
              -0.06339750                3.99020649               71.06454068                0.01000001                0.00471750                0.10823911                0.10478322                0.40944636                0.03438968                0.16274319
               0.93664967                3.97935824               71.06792099                0.01000000                0.02079919               -0.37313231                0.11923306                0.76739609                0.06335144                0.08828912
               1.93701848                3.97464454               71.07170044                0.01000000               -0.02780459               -0.33502243                0.11341005                1.22896239                0.08967286                0.10173947
               2.93609358                3.97507511               71.07568509                0.01032021               -0.17736750               -0.24919337                0.10748477                1.56548843                0.07241193                0.14726757
               3.93347113                3.97919827               71.07935735                0.01000000               -0.33203724               -0.21718291                0.10662320                1.90391776                0.03656531                0.19466335
               4.92945284                3.98655018               71.08280426                0.01000001               -0.47070038               -0.14210641                0.11319793                2.19606649                0.01490597                0.23179622
               5.92405712                3.99595356               71.08599036                0.01000001               -0.63633165               -0.13794181                0.12534345                2.38160402               -0.02011663                0.26249304
               6.91672620                4.00549083               71.08870918                0.01073583               -0.81960412               -0.12977142                0.14087920                2.23911882               -0.07145610                0.24554705
               7.90766504                4.01177538               71.09103466                0.01053709               -1.18194141               -0.16139051                0.14628032                2.16724917               -0.14357266                0.32107493
               8.89308737                4.01658247               71.09319143                0.01000000               -0.76897486               -0.26677724                0.18076322                1.85988518               -0.05216854                0.27675779
               9.89228554                4.01913768               71.09605937                0.01000000               -0.08018306               -1.14669030                0.18159127                1.87671699                0.02268750                0.27204315
              -0.04610109                4.98922969               71.06811724                0.01000000                0.06891494               -0.60176553                0.11951838                0.89511985                0.03865599                0.09742637
               0.95458806                4.97490361               71.07043374                0.01000000               -0.00280792               -0.47087306                0.15011474                1.39727862                0.14085480                0.08595195
               1.95384275                4.97075628               71.07456675                0.01000001               -0.17796015               -0.31742908                0.14485888                1.63524620                0.18391093                0.02329242
               2.95102886                4.97217324               71.07850747                0.01000000               -0.26767174               -0.36325663                0.12596583                1.89407426                0.11222290                0.13770171
               3.94848932                4.97648371               71.08262783                0.01000001               -0.29592160               -0.33018451                0.11835284                2.22547726                0.08901402                0.18568995
               4.94511042                4.98454638               71.08658551                0.01000001               -0.39449803               -0.25204287                0.12356391                2.56576949                0.07119477                0.22826669
               5.94059935                4.99455452               71.09036783                0.01067449               -0.51971188               -0.21240643                0.14533684                2.71331848                0.04420846                0.26157755
               6.93471619                5.00376873               71.09345999                0.01000001               -0.61858214               -0.21102513                0.16200518                2.76062211                0.00354823                0.26827374
               7.92822771                5.01103560               71.09629304                0.01000000               -0.46896458               -0.22305269                0.15341020                2.64072112               -0.06281362                0.39490987
               8.92533689                5.01139077               71.09929103                0.01000000               -0.04252540               -0.59927954                0.15824753                2.22108768               -0.04121506                0.35169778
               9.92737720                4.99642837               71.10220202                0.01000000                0.20403103               -1.48150985                0.16058684                1.52209542               -0.03905060                0.34679720
              -0.01684293                5.97817118               71.07132799                0.04031870               -0.00884091               -0.55886388               -0.03577278                1.05981796                0.67027122               -0.41836431
               0.98306866                5.96994078               71.07587277                0.01000001               -0.53516505               -0.23746612                0.17809767                1.33910884                0.48070648               -0.03031266
               1.97245377                5.96829596               71.07628951                0.01000000               -0.74105132               -0.31626604                0.16508751                1.60467844                0.11251400                0.10947126
               2.96824764                5.96780998               71.08130054                0.01000001               -0.34231168               -0.48083411                0.13629620                1.91127186                0.18296400                0.11269662
               3.96560754                5.97259458               71.08566411                0.01000001               -0.27751133               -0.44973716                0.12284335                2.33539921                0.11339153                0.15550297
               4.96269741                5.98150932               71.09011664                0.01066721               -0.32531992               -0.38034168                0.13770348                2.67629331                0.11512773                0.18484649
               5.95910114                5.99170543               71.09424776                0.01000001               -0.36199204               -0.32654823                0.14923833                2.82035726                0.10005653                0.22819774
               6.95545757                6.00127033               71.09817180                0.01000000               -0.31218544               -0.24313762                0.15292294                2.77505611                0.07333544                0.30850751
               7.95285743                6.00731432               71.10172127                0.01000000               -0.16706053               -0.34013685                0.17086464                2.41273268                0.07173866                0.38767819
               8.95211636                6.00459688               71.10509216                0.01073044               -0.01025902               -0.49436056                0.17700229                1.46680622                0.04594048                0.35496262
               9.95265225                5.98950748               71.10810501                0.01000000                0.05358915               -0.35507730                0.17144255                0.69231312                0.02129148                0.29391073
              -0.00844393                6.97805242               71.07117272                0.94924195               -0.03106191               -0.02119665                0.10025231                0.02615236               -0.00522818               -0.03962314
               0.99124545                6.97015428               71.07561876                0.01000002               -0.17444774               -0.00595734                0.10741359                0.12289149               -0.00486119               -0.06654913
               1.98806712                6.96443096               71.08008293                0.01197384               -0.31448895               -0.31947009                0.18354421                0.93730872                0.10294855                0.01863852
               2.98495568                6.96255656               71.08334917                0.01000000               -0.32845808               -0.43968802                0.10690985                1.45847196                0.07168125                0.08671965
               3.98149796                6.96748896               71.08821027                0.01072428               -0.27151197               -0.69399733                0.13386897                2.13210714                0.13032666                0.08326596
               4.97952544                6.97693955               71.09294591                0.01000001               -0.21262312               -0.49693381                0.13293586                2.55505930                0.13380395                0.09795171
               5.97724549                6.98802356               71.09783654                0.01000000               -0.24585103               -0.29593066                0.14623163                2.66174071                0.16047244                0.20873577
               6.97460842                6.99890598               71.10250314                0.01000000               -0.20448401               -0.21557092                0.16190245                2.46614015                0.18910588                0.28873587
               7.97315581                7.00423286               71.10676992                0.01084292               -0.10642766               -0.23840914                0.17676379                1.89197727                0.16086229                0.35587171
               8.97247986                7.00150356               71.11030070                0.01073143               -0.08767763               -0.14104977                0.16812235                1.03636045                0.09033055                0.33887062
               9.97140226                6.98932682               71.11312548                0.01090973               -0.10776002                0.15407104                0.15737500                0.44910648                0.03353594                0.29922150
              -0.00052361                7.97774725               71.07221844                1.00000000               -0.03284325               -0.03130406                0.10553497                0.00083142               -0.00363119                0.02441817
               0.99914795                7.96982163               71.07653021                0.99999999               -0.03393577               -0.03395840                0.11271662               -0.00022174               -0.00836097               -0.00285357
               1.99879767                7.96190656               71.08075316                0.01000896               -0.23944428               -0.14466979                0.12037400                0.39239705               -0.01267758               -0.03214222
               2.99435907                7.95901622               71.08498166                0.01147095               -0.24654891               -0.44670930                0.16633590                0.90952322                0.07585404               -0.03070569
               3.99386669                7.95871463               71.08985618                0.01048300               -0.05475334               -1.08839954                0.12354436                1.84884525                0.17181953               -0.04680583
               4.99326400                7.97157064               71.09529554                0.01000000               -0.17485874               -0.42388536                0.13641518                2.45945952                0.27202517               -0.00922627
               5.99036952                7.98578682               71.10073495                0.01000000               -0.23464666               -0.15041752                0.14793041                2.23296996                0.28898422                0.16063966
               6.98857107                7.99695891               71.10624534                0.01078512               -0.11350584               -0.17013850                0.16000359                1.85267389                0.29426640                0.22516879
               7.98809940                8.00254614               71.11110834                0.01016995               -0.04107309               -0.17641479                0.15854648                1.43600481                0.24390976                0.30736754
               8.98774961                8.00177588               71.11510193                0.01000000               -0.10557773                0.07417266                0.16254951                0.97084918                0.14617152                0.43002403
               9.98598785                7.99258890               71.11823391                0.01000002               -0.17617600                0.61587384                0.15498812                0.57979987                0.08562144                0.32030230
               0.00742394                8.97742634               71.07334882                0.99999999               -0.03422274               -0.03291692                0.11048199                0.00093210                0.00130779                0.02321703
               1.00708171                8.96947512               71.07755451                0.99999999               -0.03517313               -0.03548724                0.11804038                0.00013474                0.00023750                0.00217218
               2.00672047                8.96153756               71.08174437                0.99999994               -0.03718202               -0.03773407                0.12531804                0.00071492               -0.00648326               -0.01042328
               3.00633807                8.95362237               71.08582664                0.88396996               -0.04000186               -0.29066282                0.13470687                0.20450902               -0.00874220               -0.02401530
               4.00592044                8.94572097               71.08998921                0.01000000               -0.23478140               -0.67243286                0.14660790                1.74039457                0.14596739               -0.07113797
               5.00164244                8.96846184               71.09715805                0.01000000               -0.47019023               -0.09518361                0.14085362                2.06977525                0.29814975               -0.01242106
               5.99651663                8.98501521               71.10331076                0.01062229               -0.33699345               -0.04000722                0.14898237                1.37977512                0.28450166                0.08618559
               6.99490257                8.99550321               71.10902303                0.01000001                0.02711529               -0.15845949                0.13605475                0.97822486                0.31016577                0.12331210
               7.99705894                9.00070457               71.11472774                0.01083982                0.34757579               -0.23921523                0.14838992                0.82857520                0.44699696                0.20524825
               9.00185409                9.00298701               71.12176169                0.99984314                0.21566428                0.03716797                0.14549956                0.82411855                0.28527466                0.28940098
              10.00137222                9.00164430               71.12302751                1.00000000               -0.04818640                0.42390716                0.17837291                0.70278566               -0.00271493                0.19025988
               0.01539747                9.97708891               71.07436757                1.00000000               -0.03580447               -0.03374260                0.11575187               -0.00034906                0.01689895                0.01763086
               1.01503942                9.96911189               71.07857111                0.99999999               -0.03663782               -0.03632288                0.12327453               -0.00108005                0.02038710                0.00174614
               2.01466471                9.96115188               71.08285106                1.00000000               -0.03867942               -0.03856819                0.13062593               -0.00102237                0.02355387               -0.00482931
               3.01426584                9.95320296               71.08713405                0.99999997               -0.04147975               -0.04194105                0.14074756               -0.00151846                0.02252037               -0.00006496
               4.01383512                9.94526597               71.09140381                0.09264701               -0.94502822               -0.04549984                0.15275376                1.61466863                0.17421017               -0.00469962
               4.99536527                9.96966697               71.09870734                0.01000000               -1.14557351                0.12051334                0.14313722                1.35831808                0.32021670               -0.03510025
               5.99092365                9.98498667               71.10520989                0.01000001               -0.14595323               -0.00285339                0.14945666                0.64683882                0.26728765                0.04059061
               6.99244621                9.99378972               71.11084968                0.01000000                0.31317299               -0.17134941                0.12543196                0.39312164                0.30286156                0.03275582
               7.99718711                9.99776184               71.11710162                0.01000002                0.54230185               -0.29427304                0.16131891                0.44929310                0.44238309                0.11681992
               9.00329224               10.00251924               71.12269578                1.00000000                0.27709363               -0.04677691                0.16996662                0.30907601                0.22008567                0.00365952
              10.00272898               10.00106704               71.12396160                0.99962482               -0.05632642               -0.05772568                0.20283308               -0.00954413                0.00325752               -0.00328227
              -0.09362077               -0.01399116               72.05550381                1.00000000               -0.02266083               -0.02480299                0.07753337                0.00108648               -0.00818702                0.00763785
               0.90615262               -0.01874355               72.05898934                0.99633810               -0.02215247               -0.02380734                0.07433338               -0.00044520               -0.00890246               -0.00144368
               1.90593618               -0.02346333               72.06246328                0.01006516                0.15739033               -0.02280318                0.07112696                0.26486335               -0.00281324               -0.00350258
               2.90930043               -0.02284162               72.06607132                0.01000000                0.22345063               -0.05309278                0.07072511                0.18498845               -0.01594359                0.02970722
               3.91040520               -0.02009689               72.06934195                0.01000000                0.02987140               -0.00354137                0.08237909                0.22941890               -0.08715668                0.05246619
               4.90989786               -0.01355670               72.07179767                0.01000001               -0.20001068                0.04178782                0.09575899                0.39910254               -0.19925005                0.08397944
               5.90640498               -0.00195156               72.07391294                0.01392478               -0.45665838                0.02327146                0.13848451                0.54116984               -0.49911483                0.21752812
               6.90076469                0.00955197               72.07336212                0.99819928               -0.29660870               -0.03255693                0.09932020                0.45433139               -0.17863506               -0.00427666
               7.90047281                0.01201613               72.07634878                1.00000000               -0.02883515               -0.03198986                0.09678668               -0.00021065               -0.00353425               -0.00341180
               8.90018799                0.01453461               72.07932243                1.00000000               -0.02809568               -0.03106273                0.09417834               -0.00015808               -0.00397915               -0.00246717
               9.89991089                0.01710483               72.08232018                1.00000000               -0.02770939               -0.03031085                0.09155352               -0.00293335               -0.00393447               -0.00615569
              -0.08885751                0.98576081               72.05730382                0.99999999               -0.02582319               -0.02629340                0.08759482                0.00159716                0.00130716                0.00820425
               0.91088426                0.98101837               72.06079175                0.01000000               -0.02543194               -0.02528589                0.08445388                0.00004774                0.00417969               -0.00436404
               1.91063385                0.97630864               72.06433895                0.01000000               -0.07085812                0.02662797                0.08127028                0.21241482                0.01402460                0.03095768
               2.90946710                0.97662745               72.06802349                0.01000000               -0.12884634               -0.02704242                0.08026953                0.37616240               -0.02141814                0.06688472
               3.90805692                0.97986769               72.07110978                0.01013018               -0.23254384                0.00809049                0.08784400                0.52702010               -0.11288508                0.10571223
               4.90481622                0.98686118               72.07352281                0.01000000               -0.38972888                0.02599925                0.10308367                0.76941906               -0.24072096                0.16089567
               5.90026235                0.99828115               72.07485725                0.01000001               -0.32460303               -0.10037189                0.11443410                0.91109355               -0.30275747                0.27234906
               6.89832416                1.00922640               72.07662449                0.77722947               -0.11414831               -0.03523893                0.11718735                0.42584312               -0.06202607               -0.00867462
               7.89797938                1.01169623               72.07962814                0.99982426               -0.03410491               -0.03481822                0.11461678                0.00008319                0.00000571               -0.00111632
               8.89764206                1.01422398               72.08263337                1.00000000               -0.03340196               -0.03289614                0.11174187                0.00113184                0.00019677               -0.00164502
               9.89731134                1.01680172               72.08563034                0.99973016               -0.03307187               -0.03241699                0.10916508               -0.00179675                0.00073247               -0.00922042
              -0.08410395                1.98548297               72.05911853                0.12902672               -0.02902954               -0.02193300                0.09773030                0.00412101                0.00340579                0.06097737
               0.91560575                1.98075073               72.06253666                0.01000000               -0.06603224               -0.02311141                0.09475135                0.05237520                0.05072314                0.04416006
               1.91457540                1.97706923               72.06690329                0.01000001               -0.11705656               -0.02494498                0.08718245                0.34239414                0.05413190                0.10089766
               2.91326462                1.97661753               72.07056895                0.01000000               -0.19317660               -0.04476799                0.08704718                0.71961200               -0.01923341                0.13275432
               3.91071187                1.98006492               72.07378470                0.01000000               -0.31959202               -0.01512644                0.09093112                1.03840609               -0.08202474                0.18214458
               4.90687278                1.98696328               72.07648388                0.01000001               -0.42251190               -0.04172645                0.10262541                1.29074125               -0.13152891                0.23170079
               5.90226163                1.99604100               72.07860579                0.01000000               -0.55031541               -0.14275103                0.10754774                1.51993564               -0.15332973                0.25213174
               6.89586647                2.00884719               72.07981086                0.01000000               -0.33923728               -0.27509343                0.13578636                0.97757423               -0.08285065                0.10478442
               7.89547689                2.01131977               72.08297962                0.69577403               -0.03806665               -0.03717367                0.12895849                0.00102261                0.00976912                0.02427437
               8.89510514                2.01387669               72.08599388                0.99999997               -0.03787024               -0.03370966                0.12625238                0.00517614                0.00091866                0.01423014
               9.89471948                2.01645649               72.08891350                1.00000000               -0.03856572               -0.03476557                0.12668636               -0.00053774               -0.00099519                0.00372005
              -0.07931061                2.98532215               72.06197706                0.01000000               -0.03438888                0.14571973                0.09334001                0.40284809                0.00207006                0.15452575
               0.92034551                2.98055615               72.06530919                0.01000000                0.04627693               -0.16542565                0.09138304                0.42295247                0.05871415                0.15439512
               1.92161493                2.97580974               72.06979442                0.01000000                0.02590695               -0.20973982                0.10117252                0.72567363                0.07179546                0.14601261
               2.92086365                2.97573209               72.07358914                0.01000000               -0.15678209               -0.14820620                0.09917976                1.16755144                0.01567371                0.17494751
               3.91847929                2.97956517               72.07705490                0.01032127               -0.31043425               -0.11048224                0.10004730                1.49043096               -0.01740514                0.20912388
               4.91465496                2.98602665               72.08014712                0.01000000               -0.48510682               -0.09297786                0.10684579                1.76357406               -0.04288664                0.23530402
               5.90877716                2.99542613               72.08279598                0.01000001               -0.60290426               -0.09200752                0.11786204                1.81739053               -0.05293249                0.24028326
               6.90259687                3.00372453               72.08533429                0.01000000               -0.79034106               -0.29319468                0.13187809                1.65497531               -0.10899706                0.24297490
               7.89297033                3.01095276               72.08677084                0.01196209               -0.49940062               -0.07914856                0.09661207                0.89864696               -0.08436506                0.13965064
               8.89260886                3.01354979               72.08966717                0.82256607               -0.04146768               -0.01556961                0.13991855               -0.00161171               -0.00439515                0.08736839
               9.89214098                3.01610641               72.09256975                0.99948843               -0.04678822               -0.01902743                0.14643871                0.00976960                0.00797229                0.08128045
              -0.06651498                3.98839737               72.06576475                0.01000000                0.00921966                0.08364726                0.11897376                0.46885811                0.03244042                0.17678521
               0.93357721                3.97744222               72.06931093                0.01012514                0.02139562               -0.38872039                0.13789780                0.82326367                0.03208392                0.20093528
               1.93391293                3.97287443               72.07300793                0.01000000               -0.03584967               -0.33344439                0.13075443                1.27512973                0.03954661                0.16792868
               2.93286022                3.97365341               72.07685648                0.01032227               -0.18434990               -0.25140096                0.11653220                1.60033822                0.03342357                0.18393569
               3.93022593                3.97785527               72.08047871                0.01000000               -0.32884636               -0.22129952                0.11301328                1.91254513                0.02081704                0.20852908
               4.92628329                3.98510373               72.08395522                0.01000001               -0.46571849               -0.14510208                0.11485992                2.18217963                0.01577886                0.23509981
               5.92091156                3.99420085               72.08723519                0.01000001               -0.64219721               -0.11846945                0.12353220                2.34065783               -0.00448505                0.26530387
               6.91343935                4.00298329               72.09011123                0.01000001               -0.86434981               -0.11526694                0.13354027                2.26259703               -0.06003326                0.24103368
               7.90362457                4.00973680               72.09249728                0.01071082               -1.17600460               -0.07645983                0.13850937                2.13555935               -0.17603207                0.32635763
               8.88991926                4.01356529               72.09449159                0.01000000               -0.69114663               -0.23624907                0.07430738                1.79163558               -0.06049640                0.20652585
               9.88980163                4.01607594               72.09742753                0.01000000               -0.01176242               -1.11731723                0.07786824                1.84979215                0.02480185                0.20609525
              -0.04802314                4.98699509               72.06898395                0.01000001                0.03568577               -0.53692485                0.09759402                0.83076240               -0.00252904                0.11639923
               0.95233371                4.97278174               72.07252276                0.01000000               -0.05352592               -0.39951292                0.19544592                1.36324904               -0.00747428                0.19474511
               1.95090634                4.96914085               72.07623817                0.01000001               -0.22220736               -0.33527517                0.15743762                1.69041808                0.00861877                0.14986370
               2.94788957                4.97070407               72.07995329                0.01000000               -0.28132329               -0.36545133                0.14589683                1.91884950                0.02930999                0.16967187
               3.94527987                4.97513917               72.08388592                0.01000001               -0.29682964               -0.33066466                0.12546727                2.22290493                0.05538467                0.19114851
               4.94195297                4.98312461               72.08783337                0.01000001               -0.37845643               -0.24904960                0.12251727                2.56251599                0.07127096                0.23160091
               5.93771074                4.99305674               72.09177524                0.01075767               -0.48200530               -0.19496461                0.13059639                2.68069074                0.06507506                0.25643332
               6.93231287                5.00141919               72.09517801                0.01000001               -0.63056116               -0.16405750                0.15732638                2.76858317                0.04444327                0.26374277
               7.92509952                5.00942356               72.09787809                0.01000000               -0.51052186               -0.19971983                0.15812334                2.69371725                0.01235947                0.33639192
               8.92210243                5.00882481               72.10078346                0.01000000               -0.04919953               -0.55046979                0.15270006                2.19426879               -0.00623061                0.34208528
               9.92411553                4.99376006               72.10371210                0.01000002                0.20130991               -1.45889641                0.14318498                1.50104685               -0.02455766                0.32834415
              -0.02147302                5.97765887               72.07119973                0.04117735                0.01694608               -0.49053337               -0.01431338                0.93161079               -0.00265142                0.06387673
               0.97869644                5.96945196               72.07576469                0.01000001               -0.43640111               -0.18236390               -0.01108160                1.14411766               -0.08413192                0.11096977
               1.96979896                5.96616893               72.07869152                0.01000000               -0.67287782               -0.41207136                0.25902751                1.61190642               -0.05582654                0.13419374
               2.96523889                5.96634438               72.08287656                0.01000001               -0.37677314               -0.46189937                0.15135950                1.94465962                0.05254683                0.09829347
               3.96226350                5.97124198               72.08700336                0.01000001               -0.28114203               -0.45773465                0.13762260                2.33011736                0.07688404                0.15224086
               4.95961604                5.98012273               72.09153400                0.01075094               -0.30163509               -0.39271126                0.13607341                2.65680315                0.10888418                0.17880844
               5.95623079                5.99030156               72.09577010                0.01000001               -0.35859261               -0.29536695                0.14789669                2.78117872                0.11030774                0.22359638
               6.95244419                5.99970214               72.09965752                0.01000000               -0.30687501               -0.19204134                0.14335104                2.75236604                0.10104343                0.28647747
               7.95009329                6.00574240               72.10339822                0.01000000               -0.14880292               -0.31933786                0.15911955                2.43275516                0.09068823                0.35605200
               8.94946813                6.00255590               72.10684451                0.01114969               -0.00706185               -0.45359226                0.16837054                1.46495676                0.06259634                0.34329386
               9.94995206                5.98689801               72.10981481                0.01000000                0.04839225               -0.32919916                0.17088114                0.67524600                0.03475771                0.28112002
              -0.01297710                6.97718443               72.07218428                0.93194352               -0.03168859               -0.03912830                0.10124900                0.02314871               -0.00520378                0.01442223
               0.98670601                6.96913446               72.07670101                0.01000000               -0.03854247               -0.03259315                0.10973999               -0.01111833                0.02548052               -0.00882610
               1.98625205                6.96089942               72.08183537                0.01184062               -0.24981510               -0.27205072                0.06129101                0.84701752                0.09197147               -0.06279517
               2.98170971                6.96146608               72.08466113                0.01000000               -0.40740908               -0.48352760                0.18067756                1.54832760               -0.00036398                0.05373951
               3.97810386                6.96598448               72.08964994                0.01077771               -0.28401245               -0.69683511                0.14235497                2.10689707                0.11553403                0.05772511
               4.97602946                6.97527038               72.09438992                0.01000001               -0.21744778               -0.54188179                0.15375694                2.60881932                0.13890454                0.09850911
               5.97375491                6.98714940               72.09923675                0.01000000               -0.20550559               -0.27670858                0.13763170                2.69620352                0.16465522                0.21330039
               6.97191935                6.99757836               72.10403043                0.01000000               -0.14270194               -0.19041843                0.14030517                2.48877722                0.19656489                0.26781098
               7.97090087                7.00303681               72.10850738                0.01132078               -0.08366957               -0.20436507                0.16479010                1.91469559                0.18166601                0.33618400
               8.97024596                6.99975296               72.11195170                0.01000001               -0.09823239               -0.12192698                0.15972490                1.02289826                0.08941000                0.32473357
               9.96893622                6.98717608               72.11464544                0.01043395               -0.13097330                0.19797866                0.14725108                0.43226235                0.01085957                0.28633049
              -0.00491011                7.97687630               72.07327843                0.99999998               -0.03308103               -0.03130393                0.10649352                0.00088055               -0.00404078                0.02455025
               0.99475908                7.96880009               72.07766201                0.99999999               -0.03411031               -0.03423778                0.11353132               -0.00038343               -0.00918912               -0.00352241
               1.99440769                7.96072791               72.08195676                0.01291421               -0.18193519               -0.02707595                0.12038209                0.20487101               -0.00840907               -0.06181690
               2.99112038                7.95667383               72.08635398                0.01165870               -0.19052726               -0.45974039                0.13957093                0.84737761                0.09578765               -0.06434875
               3.99059714                7.95730528               72.09128376                0.01066450               -0.02464347               -1.08925361                0.14834853                1.80934114                0.16778442               -0.10018248
               4.99062751                7.96928510               72.09660357                0.01000000               -0.13751287               -0.43204650                0.13937916                2.46787164                0.22968492                0.04488802
               5.98784688                7.98476739               72.10223863                0.01000000               -0.21475868               -0.17355233                0.14617797                2.31103001                0.27606483                0.15715732
               6.98633233                7.99589378               72.10778606                0.01128918               -0.08171380               -0.15681106                0.14866093                1.85728540                0.28152466                0.20316427
               7.98621261                8.00165510               72.11267630                0.01071571               -0.02727543               -0.16479668                0.13808479                1.41560779                0.23621061                0.25475703
               8.98578683                8.00011736               72.11680189                0.01000001               -0.12307705                0.11043817                0.17244708                0.96744640                0.17627704                0.44833917
               9.98375107                7.99085759               72.11982139                0.01000002               -0.20357603                0.66923626                0.23346531                0.62297050                0.13569644                0.42896655
               0.00319292                8.97655835               72.07445615                1.00000000               -0.03461923               -0.03276721                0.11095103                0.00091546                0.00119447                0.02326393
               1.00284673                8.96844970               72.07873775                0.99999999               -0.03585946               -0.03563108                0.11850091                0.00014552                0.00039521                0.00232378
               2.00247573                8.96035790               72.08300616                0.99999999               -0.03834179               -0.03785300                0.12643911               -0.00067639               -0.00791266               -0.01015531
               3.00207990                8.95227128               72.08713355                0.86389066               -0.03981594               -0.24005417                0.13144606                0.14415863               -0.01394140               -0.03047470
               4.00167942                8.94419941               72.09129650                0.01000000               -0.20775567               -0.67552878                0.13449953                1.67510485                0.14289557               -0.08056871
               4.99792478                8.96662945               72.09854181                0.01000002               -0.41562916               -0.07553378                0.13953866                2.02370151                0.30280738                0.01109767
               5.99336683                8.98367836               72.10479688                0.01102008               -0.28737199               -0.06165481                0.14752799                1.37199952                0.27301237                0.08803059
               6.99217734                8.99444214               72.11037675                0.01000000                0.08113054               -0.17967902                0.13763296                0.95575956                0.27824183                0.10526444
               7.99498944                8.99974087               72.11610579                0.01059296                0.41075277               -0.25546804                0.12176924                0.84400748                0.38320623                0.16351598
               9.00039240                9.00196173               72.12320265                1.00000000                0.24628681                0.06910795                0.14268298                0.84659417                0.27124992                0.26363046
               9.99991518                9.00056081               72.12481370                1.00000000               -0.04772186                0.45600995                0.17880368                0.73892396               -0.00276666                0.18733616
               0.01132549                9.97622096               72.07552870                1.00000000               -0.03630527               -0.03373901                0.11636410               -0.00009187                0.01680690                0.01791577
               1.01096244                9.96808747               72.07980668                0.99999999               -0.03764525               -0.03622309                0.12441042               -0.00093463                0.02097688                0.00166587
               2.01057259                9.95997085               72.08417235                1.00000000               -0.04001975               -0.03870495                0.13245004               -0.00105136                0.02277737               -0.00459847
               3.01016204                9.95187274               72.08850041                0.99999997               -0.04157619               -0.03985324                0.13776590               -0.00059282                0.01700007               -0.00001516
               4.00974106                9.94379470               72.09276456                0.06743689               -0.92697268               -0.04047078                0.14044812                1.60124861                0.16992929               -0.00468418
               4.99162259                9.96777442               72.10013717                0.01000001               -1.11334398                0.11449722                0.14084463                1.35676018                0.31532119               -0.02331801
               5.98747418                9.98353429               72.10667174                0.01000001               -0.11187897               -0.01440676                0.14973925                0.63702358                0.25139658                0.04475272
               6.98938501                9.99230020               72.11217701                0.01000000                0.40494952               -0.21419465                0.13753908                0.37133917                0.28298581                0.03703635
               7.99557317                9.99654574               72.11863369                0.01000002                0.62568836               -0.31951353                0.14923603                0.51833906                0.38079427                0.09885969
               9.00189878               10.00149952               72.12439346                1.00000000                0.28791053               -0.04622077                0.16949261                0.32224021                0.21109314                0.00368615
              10.00133138                9.99997778               72.12600435                0.99995076               -0.05673940               -0.05830219                0.20564795               -0.01055295                0.00330005               -0.00320303
              -0.09717180               -0.01576608               73.05628181                1.00000000               -0.02283865               -0.02497821                0.07817136                0.00100713               -0.00807700                0.00749388
               0.90259982               -0.02061112               73.05973425                0.99241406               -0.02229543               -0.02386711                0.07468846               -0.00049205               -0.00890981               -0.00147354
               1.90238230               -0.02542490               73.06317441                0.01000000                0.15086551               -0.02283626                0.07112799                0.28185526                0.00342306               -0.00354013
               2.90561713               -0.02455749               73.06687633                0.01000000                0.21260099               -0.04465625                0.07492100                0.23705181                0.00824725                0.03233814
               3.90663432               -0.02127211               73.07026141                0.01001762               -0.00544781                0.00026569                0.09666987                0.25388117               -0.06590088                0.04599590
               4.90550817               -0.01450915               73.07283755                0.01000003               -0.36299061                0.06711567                0.12059160                0.58682677               -0.17660644                0.08089298
               5.89937450                0.00063181               73.07507354                0.01000003               -0.38674057               -0.08898937                0.08859085                0.62641945               -0.52207238                0.24400918
               6.89777336                0.00616017               73.07437501                1.00000000               -0.09526253               -0.03332937                0.10398401                0.15507478               -0.18419387               -0.00370766
               7.89746925                0.00861565               73.07733747                0.99999999               -0.02996576               -0.03311903                0.10108128               -0.00070031               -0.00294403               -0.00216123
               8.89717404                0.01111295               73.08029027                1.00000000               -0.02914521               -0.03243917                0.09831844               -0.00048194               -0.00349730               -0.00143944
               9.89688635                0.01364907               73.08326123                1.00000000               -0.02876965               -0.03182597                0.09507771               -0.00196396               -0.00327789               -0.00421221
              -0.09231668                0.98398414               73.05818213                0.99999999               -0.02590116               -0.02644646                0.08803812                0.00153642                0.00133242                0.00809662
               0.90742430                0.97915021               73.06163752                0.01000000               -0.02546426               -0.02528956                0.08461994               -0.00007632                0.00424898               -0.00429703
               1.90717403                0.97434674               73.06515213                0.01000000               -0.07565261                0.03710724                0.08120676                0.22828608                0.01611323                0.02908996
               2.90591125                0.97499595               73.06884263                0.01000000               -0.15125346               -0.01451818                0.08202088                0.41813722               -0.02380412                0.07092265
               3.90414896                0.97873055               73.07208051                0.01031706               -0.27433859                0.00998074                0.09825817                0.57029620               -0.09172201                0.09944535
               4.90042448                0.98616200               73.07467572                0.01000000               -0.44224636                0.02687388                0.12234391                0.92913691               -0.19413600                0.14506037
               5.89530403                0.99974192               73.07646987                0.01000001               -0.25461457               -0.29671924                0.20478580                0.97067656               -0.26509721                0.28663755
               6.89533219                1.00582688               73.07779289                0.75725076               -0.01590870               -0.03550586                0.11797351                0.18191797               -0.08214621               -0.00709071
               7.89498586                1.00828446               73.08077692                0.99999999               -0.03398356               -0.03522955                0.11488760               -0.00079541                0.00015286               -0.00310813
               8.89465252                1.01078856               73.08375246                1.00000000               -0.03276325               -0.03538088                0.11155395                0.00069344               -0.00046726               -0.00128752
               9.89433059                1.01333081               73.08672183                0.99999999               -0.03219223               -0.03628090                0.10874623               -0.00043003               -0.00034703               -0.00378092
              -0.08747321                1.98370499               73.06009821                0.16622333               -0.02911052               -0.02374652                0.09806710                0.00317449                0.00328487                0.05550843
               0.91223568                1.97888309               73.06348467                0.01000000               -0.07122589               -0.02351612                0.09469792                0.06115347                0.04880677                0.04002691
               1.91110227                1.97531725               73.06778252                0.01000001               -0.13198105               -0.00372037                0.08719013                0.36156851                0.05044769                0.10396628
               2.90959606                1.97515215               73.07145009                0.01000000               -0.21140423               -0.03137140                0.08965654                0.75124023               -0.01725065                0.13650076
               3.90687419                1.97892751               73.07472852                0.01000000               -0.32582612               -0.02073577                0.09438341                1.08535799               -0.07363875                0.18008596
               4.90307954                1.98602832               73.07760639                0.01000001               -0.38755155               -0.07693738                0.11632362                1.33455087               -0.11594993                0.21409014
               5.89912316                1.99469743               73.07977532                0.01000000               -0.51051823               -0.31261498                0.13073572                1.48899013               -0.13746951                0.22659180
               6.89286918                2.00545006               73.08116318                0.01000000               -0.33157470               -0.24517960                0.13371232                0.87411322               -0.07593765                0.09580060
               7.89249166                2.00791106               73.08420984                0.64913748               -0.03638053               -0.03728474                0.12328971               -0.00381953                0.00620775               -0.00122340
               8.89214157                2.01040534               73.08722684                0.99938676               -0.03492035               -0.04062959                0.12272425               -0.00127211                0.00316448                0.00469451
               9.89179326                2.01292345               73.09019818                0.99999999               -0.03483106               -0.04285264                0.12576937                0.00065995                0.00263667                0.00255863
              -0.08260939                2.98350920               73.06294912                0.01000001               -0.03554967                0.15151552                0.10009232                0.39867595                0.00212046                0.15495275
               0.91703511                2.97867988               73.06627089                0.01000000                0.03728638               -0.13598550                0.09800641                0.42878084                0.06206396                0.16847960
               1.91813634                2.97427233               73.07081247                0.01000000                0.01453426               -0.18789451                0.09627375                0.74251142                0.06815673                0.16954601
               2.91732580                2.97436852               73.07459516                0.01000000               -0.15781947               -0.13812381                0.09762072                1.18693554                0.00977043                0.18753107
               3.91497995                2.97831583               73.07807712                0.01032094               -0.29901096               -0.11948375                0.10191353                1.50846420               -0.01679193                0.21399725
               4.91134558                2.98462326               73.08124644                0.01000000               -0.46589220               -0.12311996                0.10936558                1.75530860               -0.03525261                0.22759709
               5.90566210                2.99348962               73.08400216                0.01000001               -0.58723792               -0.12085257                0.12133485                1.74941425               -0.03746882                0.23258511
               6.89960082                3.00092329               73.08664012                0.01000000               -0.78539566               -0.24911371                0.12534767                1.57217119               -0.11500283                0.22638593
               7.88995419                3.00753877               73.08767476                0.01226408               -0.49930672               -0.03578860                0.10575566                0.81625287               -0.08700366                0.13306108
               8.88961469                3.00997597               73.09081321                0.76186130               -0.03233115               -0.04043235                0.11653482               -0.01296909                0.00946180                0.02134305
               9.88930757                3.01247376               73.09379127                0.99889941               -0.03071184               -0.04031097                0.12055114                0.00560091                0.00535318                0.01831153
              -0.06984105                3.98673530               73.06692015                0.01000000               -0.01107783                0.13067487                0.11446796                0.41181310                0.03292147                0.18833409
               0.93004817                3.97616338               73.07067894                0.01029647                0.00524557               -0.31675654                0.11953925                0.74866511                0.00476729                0.27295476
               1.93026386                3.97155936               73.07431553                0.01000000               -0.03784489               -0.31011877                0.11065678                1.23372791               -0.00060645                0.21692680
               2.92929127                3.97238967               73.07801573                0.01033530               -0.17375611               -0.24109637                0.10786114                1.58099919                0.00285880                0.21471803
               3.92678874                3.97653783               73.08161761                0.01000000               -0.31396725               -0.22669045                0.10990967                1.89566182                0.00854310                0.21704124
               4.92301193                3.98356592               73.08510146                0.01000001               -0.44886655               -0.15118189                0.11273664                2.15217442                0.01305538                0.22979605
               5.91781141                3.99228038               73.08846100                0.01000001               -0.63742381               -0.11706688                0.11919140                2.28979849                0.00440917                0.24917082
               6.91026345                4.00046778               73.09137999                0.01000001               -0.90236853               -0.07129948                0.12342908                2.24081489               -0.04095636                0.25244254
               7.89976404                4.00719529               73.09380485                0.01000001               -1.16581291               -0.03381336                0.11546208                2.10220826               -0.18091905                0.30104045
               8.88694719                4.00959669               73.09467757                0.01000000               -0.64271672               -0.20482077                0.04715614                1.73427643               -0.09744661                0.20498189
               9.88690970                4.01211723               73.09761674                0.01000000               -0.00374915               -1.09328916                0.04827015                1.83811475               -0.00815190                0.19312146
              -0.05322928                4.98612270               73.07006912                0.01000003                0.04136383               -0.52434539                0.11352248                0.81296418               -0.03752975                0.10699192
               0.94718435                4.97234475               73.07434266                0.01000000               -0.00930593               -0.40907248                0.12536508                1.28966573               -0.10942381                0.25628506
               1.94658460                4.96806996               73.07771550                0.01000001               -0.16085232               -0.30883602                0.12584514                1.55816708               -0.12215687                0.28142427
               2.94396731                4.96954660               73.08142541                0.01000000               -0.24338321               -0.36608358                0.12442181                1.87037637               -0.03024088                0.19980964
               3.94171693                4.97378203               73.08513718                0.01000001               -0.26603919               -0.33312301                0.11802881                2.18760345                0.01402454                0.20421735
               4.93864652                4.98159962               73.08903586                0.01000001               -0.35803590               -0.25184928                0.11786991                2.52313391                0.05618130                0.22889371
               5.93455621                4.99114828               73.09297976                0.01000001               -0.45721591               -0.17822638                0.11127964                2.66350211                0.05255859                0.23905380
               6.92950220                4.99949730               73.09660652                0.01000000               -0.58433830               -0.11601661                0.12068517                2.76505435                0.00591715                0.31119603
               7.92286945                5.00686250               73.09945551                0.01000000               -0.50619668               -0.16946098                0.13959101                2.70512117                0.06031659                0.26448002
               8.91937827                5.00587956               73.10234503                0.01000000               -0.09203344               -0.46510877                0.14083341                2.18749852                0.01059284                0.39232305
               9.92102878                4.99060797               73.10506572                0.01000000                0.16505084               -1.39603460                0.13735657                1.49769667               -0.03109322                0.36683246
              -0.02602587                5.97624839               73.07104172                0.01000003               -0.00799017               -0.49302731                0.08160732                0.95574488               -0.49455282                0.44591002
               0.97389423                5.96798193               73.07565114                0.01000001               -0.48743855               -0.21321579                0.09300315                1.20269340               -0.49125671                0.22296405
               1.96422536                5.96538264               73.08147006                0.01000000               -0.64537474               -0.40800694                0.16074524                1.62239500               -0.14485548                0.10839029
               2.96098673                5.96506800               73.08432773                0.01000001               -0.28687869               -0.46963305                0.12997267                1.88296251               -0.11988956                0.17807298
               3.95848779                5.96987537               73.08841656                0.01000001               -0.24391916               -0.47094802                0.13049813                2.29119305                0.03227705                0.15579566
               4.95610835                5.97852894               73.09283811                0.01000001               -0.26520089               -0.38797307                0.11803728                2.64553360                0.07928912                0.18546107
               5.95318377                5.98871585               73.09720569                0.01000000               -0.31290148               -0.26636232                0.12089090                2.79801903                0.09918125                0.22108875
               6.94985032                5.99814745               73.10103882                0.01000000               -0.28497820               -0.16818204                0.12599123                2.74285496                0.12868340                0.27641371
               7.94748421                6.00380607               73.10490367                0.01000000               -0.14493151               -0.25920222                0.13764125                2.40727405                0.10895077                0.31870213
               8.94695169                6.00029451               73.10845957                0.01161472               -0.00387011               -0.39193520                0.15650121                1.45711021                0.07909776                0.32263853
               9.94740680                5.98419654               73.11152263                0.01000000                0.04551109               -0.27805576                0.16985289                0.65036250                0.05093702                0.27516204
              -0.01758146                6.97626216               73.07319770                0.91448996               -0.03145678               -0.01410053                0.10141688                0.01454265               -0.00297971                0.07121701
               0.98210397                6.96808044               73.07781356                0.01000001               -0.02360603               -0.01337415                0.11241971                0.00196421               -0.06045396                0.04878907
               1.98194642                6.95990982               73.08130875                0.01171307               -0.24850752               -0.29416027                0.04746684                0.88928283               -0.26068895                0.16514617
               2.97713382                6.96015393               73.08696272                0.01000000               -0.39332820               -0.49055854                0.16968432                1.52071623               -0.03871556                0.02531100
               3.97407986                6.96436307               73.09105737                0.01000001               -0.22085517               -0.74054755                0.12917957                2.10856126                0.02983308                0.06148842
               4.97271672                6.97384016               73.09602105                0.01000000               -0.15908866               -0.51062124                0.13242791                2.61262226                0.13676606                0.11544365
               5.97089808                6.98582103               73.10058917                0.01000000               -0.17238180               -0.26730050                0.12495759                2.69090256                0.17316892                0.18931692
               6.96926908                6.99613366               73.10530924                0.01000000               -0.10151086               -0.17357890                0.12254786                2.48854937                0.20426301                0.25281312
               7.96886787                7.00167845               73.11006572                0.01191942               -0.05695390               -0.18816000                0.14758094                1.91153888                0.19484633                0.29674744
               8.96813001                6.99804085               73.11349520                0.01000000               -0.13179427               -0.04014010                0.14762757                1.02733880                0.07811834                0.31250606
               9.96623198                6.98504686               73.11607051                0.01000001               -0.18980248                0.34017163                0.15643336                0.46339926               -0.00483842                0.33569863
              -0.00937158                7.97596638               73.07434831                0.99999999               -0.03425717               -0.03104018                0.10701475               -0.00188895               -0.00539218                0.02272188
               0.99028585                7.96771444               73.07880083                1.00000000               -0.03454508               -0.03517611                0.11459066               -0.00156573               -0.00915110                0.00002296
               1.98993752                7.95949943               73.08316080                0.01028165               -0.16690176               -0.03954781                0.12034211                0.18811939               -0.00336319                0.01936780
               2.98694781                7.95525683               73.08777308                0.01187978               -0.14823646               -0.46437469                0.12957198                0.81000304                0.01882785               -0.03613782
               3.98697279                7.95506442               73.09282315                0.01000001               -0.00224936               -1.08671321                0.13432240                1.81749566                0.13187293               -0.15395836
               4.98690283                7.96831651               73.09808312                0.01000000               -0.11322363               -0.43449840                0.13607566                2.48934553                0.15992450                0.10271017
               5.98470832                7.98336984               73.10365851                0.01000000               -0.15694689               -0.17391595                0.13304033                2.28016040                0.23545875                0.13647775
               6.98376389                7.99467587               73.10921855                0.01187179               -0.04502642               -0.14580502                0.14058786                1.82812191                0.24503979                0.19048003
               7.98380779                8.00004287               73.11387004                0.01000001                0.01830879               -0.18304768                0.11987798                1.39225666                0.20257630                0.18557368
               8.98413007                7.99949171               73.11855087                0.01269404               -0.05725068                0.13135994                0.14418572                1.06991389                0.22871381                0.43050920
               9.98266278                7.99099997               73.12290321                0.01000002               -0.14672894                0.70805987                0.18485974                0.74396698                0.24339737                0.42419169
              -0.00111536                8.97564135               73.07556784                1.00000000               -0.03450294               -0.03321232                0.11125623                0.00101674               -0.00000018                0.02267906
               0.99853961                8.96737692               73.07992453                0.99999999               -0.03591073               -0.03535584                0.11918703                0.00034872                0.00013889                0.00255831
               1.99816642                8.95911886               73.08427315                0.99999998               -0.03853552               -0.03859499                0.12703286               -0.00107326               -0.00691374               -0.01035398
               2.99776890                8.95086644               73.08845556                0.88971509               -0.03981667               -0.23939561                0.13187560                0.12878727               -0.01224981               -0.03723825
               3.99737009                8.94262880               73.09267920                0.01000000               -0.17853408               -0.64141222                0.13358580                1.64539510                0.14127735               -0.08792160
               4.99419821                8.96515019               73.09994882                0.01000002               -0.36140770               -0.11533173                0.14078945                2.02878021                0.30196491                0.02423596
               5.99014193                8.98234272               73.10626132                0.01148756               -0.25198612               -0.06189160                0.14596258                1.36353977                0.26025759                0.08685695
               6.98915849                8.99321756               73.11177569                0.01032105                0.08776135               -0.18729691                0.13689724                0.90274329                0.22924050                0.08594861
               7.99189716                8.99801750               73.11716312                0.01000000                0.47063447               -0.26798168                0.11805753                0.81146228                0.32526450                0.12860891
               8.99857118                9.00066805               73.12461535                1.00000000                0.30988211                0.03598232                0.13969565                0.86019646                0.26968300                0.23274457
               9.99809480                8.99920805               73.12660358                1.00000000               -0.04763785                0.38108477                0.17917737                0.69952076               -0.00237778                0.10889992
               0.00717763                9.97530213               73.07669486                0.99999999               -0.03623179               -0.03392186                0.11713437               -0.00018115                0.01776904                0.01790081
               1.00681531                9.96700733               73.08105932                0.99999999               -0.03755507               -0.03695884                0.12517095               -0.00115934                0.02187032                0.00196999
               2.00642653                9.95872753               73.08550006                0.99999998               -0.04008447               -0.03913307                0.13353909               -0.00090954                0.02431598               -0.00530070
               3.00601362                9.95046892               73.08988937                0.99999996               -0.04147916               -0.03975218                0.13838618               -0.00009502                0.01900678               -0.00145653
               4.00559695                9.94223618               73.09421278                0.01975612               -0.91245531               -0.03926235                0.14011998                1.59973390                0.16354129               -0.00795391
               4.98776452                9.96600988               73.10152424                0.01000000               -1.08426010                0.08596917                0.14987482                1.35142174                0.30739415               -0.01989369
               5.98391174                9.98213201               73.10820468                0.01000001               -0.08102734               -0.02107094                0.16137705                0.62298382                0.24153070                0.05020376
               6.98614397                9.99092993               73.11360046                0.01000000                0.43373995               -0.22876232                0.14231505                0.32610930                0.24900871                0.03354109
               7.99258654                9.99468324               73.12008634                0.01000002                0.69997356               -0.33342660                0.14355592                0.53300949                0.32240076                0.09317469
               9.00014344               10.00021136               73.12608563                1.00000000                0.34933196               -0.04566915                0.16903350                0.35414760                0.20422353                0.00358854
               9.99957318                9.99862167               73.12807456                0.99999991               -0.05702591               -0.05863882                0.20852228               -0.01113124                0.00314971               -0.00354734
              -0.10068720               -0.01764193               74.05706724                1.00000000               -0.02309796               -0.02517253                0.07901936                0.00079460               -0.00788128                0.00726807
               0.89908182               -0.02257955               74.06048311                0.98960287               -0.02251186               -0.02384347                0.07515993               -0.00063922               -0.00883324               -0.00159378
               1.89886257               -0.02748956               74.06388584                0.01000000                0.16482758               -0.02281104                0.07131490                0.31144835                0.00433653               -0.00366338
               2.90237837               -0.02612746               74.06756974                0.01145098                0.21316955               -0.04003967                0.06864600                0.20214484                0.01013941                0.00525602
               3.90312596               -0.02281517               74.07127535                0.01000000               -0.04123861                0.02046645                0.06054277                0.25195716               -0.03560155                0.04394126
               4.90155360               -0.01561518               74.07420950                0.01000001               -0.43499383                0.06087351                0.16741110                0.64660985               -0.15606538                0.07184351
               5.89442608                0.00013596               74.07568475                0.02357449               -0.33683585               -0.08238349                0.07089264                0.65457651               -0.33374939                0.13664857
               6.89481689                0.00264204               74.07544180                1.00000000                0.00362946               -0.03456255                0.10918304                0.00363268               -0.15944176               -0.00305547
               7.89449867                0.00509401               74.07837041                0.99985834               -0.03113028               -0.03323046                0.10473284               -0.00060965               -0.00266349               -0.00179606
               8.89419428                0.00758144               74.08128880                1.00000000               -0.02976334               -0.03197788                0.10002968               -0.00037913               -0.00306267               -0.00030241
               9.89390340                0.01009938               74.08422174                0.99999999               -0.02908775               -0.03102285                0.09531450               -0.00198072               -0.00238009               -0.00083331
              -0.09574163                0.98210634               74.05906458                0.99999999               -0.02591244               -0.02659571                0.08838018                0.00136759                0.00137129                0.00804457
               0.90399924                0.97718201               74.06248415                0.01000000               -0.02536836               -0.02512755                0.08447779               -0.00041295                0.00437997               -0.00424576
               1.90375100                0.97228233               74.06596309                0.01000000               -0.09683086                0.04888822                0.08063237                0.25232534                0.01879326                0.02671842
               2.90206263                0.97347215               74.06966391                0.01000000               -0.16808055               -0.01387632                0.08381810                0.43511995               -0.02472368                0.04876122
               3.90038939                0.97738950               74.07307494                0.01051232               -0.27592452                0.02425995                0.08227321                0.57391244               -0.07357264                0.10005259
               4.89654414                0.98499355               74.07596968                0.01000000               -0.42730791                0.01447751                0.12117237                0.99380031               -0.05000295                0.09152610
               5.89184323                0.99931213               74.07895297                0.01000001               -0.20849748               -0.35477045                0.18577667                0.94161187               -0.15945062                0.09387936
               6.89237419                1.00229642               74.07898396                0.74312867                0.00898207               -0.03630331                0.12045077                0.02729493               -0.14531069               -0.00649538
               7.89202287                1.00476171               74.08192589                0.99999999               -0.03431929               -0.03482768                0.11534456                0.00019769               -0.00030265               -0.00383501
               8.89168780                1.00726166               74.08486445                1.00000000               -0.03286128               -0.03358090                0.11065916                0.00066291               -0.00049783                0.00078129
               9.89136565                1.00978916               74.08780526                1.00000000               -0.03221529               -0.03305788                0.10665680               -0.00094371               -0.00041086                0.00260141
              -0.09081119                1.98182615               74.06107987                0.21092545               -0.02912371               -0.02535407                0.09822720                0.00066916                0.00307661                0.05312937
               0.90889758                1.97691790               74.06443062                0.01000000               -0.07849368               -0.02252719                0.09407068                0.06931186                0.04638787                0.03814780
               1.90761894                1.97348821               74.06864709                0.01000001               -0.14619846                0.01926594                0.08589404                0.37899565                0.05364189                0.09370536
               2.90597361                1.97359502               74.07236208                0.01000000               -0.22680704               -0.02775381                0.09382310                0.79568044               -0.01086042                0.12297677
               3.90308280                1.97767003               74.07567237                0.01000000               -0.32333137               -0.02167397                0.09674501                1.10910645               -0.05895570                0.17162589
               4.89950698                1.98467437               74.07881036                0.01000001               -0.35636729               -0.09550160                0.10178683                1.34256246               -0.07925986                0.17357373
               5.89595545                1.99304055               74.08122050                0.01000000               -0.47968882               -0.39599847                0.14896362                1.40162397               -0.13199038                0.11265605
               6.88991320                2.00191597               74.08248510                0.01000000               -0.32090371               -0.21304906                0.13176141                0.78034657               -0.08278065                0.08390254
               7.88953738                2.00439746               74.08544542                0.61237790               -0.03665581               -0.03713691                0.12380109                0.00140685                0.00435117               -0.00906980
               8.88918009                2.00690982               74.08844837                0.99699333               -0.03539225               -0.03678726                0.12062644                0.00172818                0.00474027                0.00237762
               9.88882953                2.00943823               74.09142889                0.99999994               -0.03505533               -0.03675368                0.11873566               -0.00084496                0.00317261                0.00626797
              -0.08591173                2.98159926               74.06397890                0.01000000               -0.03648356                0.16089442                0.10765370                0.38507340                0.00029385                0.15346348
               0.91372343                2.97673147               74.06726932                0.01000000                0.02827647               -0.10441788                0.09737747                0.42239978                0.05766852                0.16514560
               1.91465380                2.97266765               74.07171989                0.01000000                0.00354897               -0.15891338                0.08436402                0.75653352                0.07559645                0.14956539
               2.91379441                2.97291707               74.07554155                0.01000000               -0.15808134               -0.12387484                0.09321475                1.19650360                0.02569998                0.17210496
               3.91149217                2.97695602               74.07909317                0.01034458               -0.28847720               -0.12669972                0.10186398                1.51973606               -0.00146688                0.20356111
               4.90802487                2.98308352               74.08233443                0.01000000               -0.44290325               -0.13820661                0.11013961                1.73150863               -0.01976571                0.20421607
               5.90263410                2.99139216               74.08522268                0.01000001               -0.57003265               -0.14169419                0.11438608                1.68588378               -0.03162926                0.19912831
               6.89662421                2.99803543               74.08784124                0.01000000               -0.77884690               -0.19251136                0.11723055                1.49949891               -0.11000811                0.20316970
               7.88705717                3.00401897               74.08888596                0.01258374               -0.49713092               -0.02102981                0.11640652                0.78308501               -0.08254453                0.11187334
               8.88668160                3.00652591               74.09199786                0.59961900               -0.03826154               -0.03883534                0.13010196                0.00067352                0.01179769               -0.00085186
               9.88629194                3.00905408               74.09498077                0.99999994               -0.03896595               -0.03871539                0.12961426               -0.00064628               -0.00142088                0.00122931
              -0.07337413                3.98504404               74.06805411                0.01000000               -0.03486816                0.17070495                0.14835705                0.40809591                0.01726818                0.18901445
               0.92627718                3.97482954               74.07170172                0.01048534               -0.00309279               -0.18981154                0.08016250                0.70206623                0.00671036                0.24632760
               1.92656401                3.97030994               74.07522107                0.01000000               -0.03309367               -0.25264220                0.07712285                1.15073191                0.02101943                0.18491621
               2.92561531                3.97111752               74.07901371                0.01035235               -0.16264702               -0.22643997                0.09390876                1.54473821                0.02420588                0.20081178
               3.92331107                3.97513604               74.08267690                0.01000000               -0.29571488               -0.22657239                0.10312593                1.86252301                0.01762324                0.20727495
               4.91970101                3.98191023               74.08620995                0.01000001               -0.42949280               -0.15588446                0.10982422                2.11398923                0.01777725                0.21726896
               5.91472121                3.99020667               74.08961902                0.01000001               -0.62123217               -0.11495129                0.11236405                2.23563330                0.00519663                0.22516138
               6.90727637                3.99806575               74.09257981                0.01000001               -0.90063073               -0.00255765                0.10807125                2.15507201               -0.04782266                0.23397070
               7.89670860                4.00397686               74.09480652                0.01000001               -1.15589638               -0.02023078                0.09873969                2.07887683               -0.17312276                0.26854666
               8.88415844                4.00613311               74.09543471                0.01000000               -0.64741641               -0.18183210                0.14525851                1.73547720               -0.10535875                0.22893952
               9.88376027                4.00866392               74.09839293                0.01000000               -0.03981711               -1.09316311                0.14255875                1.84109853               -0.01563337                0.22544580
              -0.05732081                4.98501336               74.07125440                0.01000001               -0.01803307               -0.07977763                0.14940065                0.43174888               -0.04584855                0.03128868
               0.94249886                4.97293524               74.07503006                0.01000000               -0.06493684               -0.21946024                0.07064450                0.73836172               -0.06915039                0.20281185
               1.94138045                4.96761481               74.07875508                0.01000001               -0.13178926               -0.27832274                0.08102605                1.35571427               -0.05022802                0.20976024
               2.93986308                4.96838827               74.08244173                0.01000000               -0.17152702               -0.33744989                0.09017184                1.75445189               -0.01571518                0.19692041
               3.93794991                4.97242457               74.08624650                0.01000001               -0.23145275               -0.33491695                0.10511792                2.13325732                0.01946025                0.20022660
               4.93523402                4.97996583               74.09019076                0.01000001               -0.33793284               -0.25317364                0.10972746                2.46901246                0.04656313                0.21223810
               5.93119126                4.98909313               74.09400083                0.01000001               -0.46392799               -0.15463723                0.10234085                2.66554724                0.04095426                0.22468910
               6.92595546                4.99798428               74.09759171                0.01000000               -0.53119601               -0.07690273                0.09440400                2.72823680                0.00760174                0.27673597
               7.92056734                5.00361435               74.10066991                0.01000000               -0.46256900               -0.12353158                0.11058455                2.65239739                0.03849683                0.25832193
               8.91670408                5.00288927               74.10360013                0.01000002               -0.12575215               -0.41373045                0.11960325                2.19245763                0.00526573                0.41769592
               9.91805229                4.98719082               74.10645923                0.01105849                0.13482137               -1.36337275                0.13841381                1.48437520               -0.02252011                0.41203049
              -0.04058291                5.98344849               74.07283188                0.01000002               -0.09741134               -0.48555908                0.24375558                0.45180397               -0.12219067                0.10706305
               0.95844298                5.97044033               74.07762475                0.01000001               -0.05959119               -0.29873456                0.21968395                0.80910070               -0.17607664                0.06519391
               1.95822526                5.96474348               74.08190643                0.01000000               -0.12741950               -0.25516030                0.02124651                1.22184201               -0.09730808                0.12433633
               2.95589459                5.96436852               74.08547602                0.01000001               -0.19133041               -0.49306617                0.10259260                1.75089587               -0.08344649                0.17665341
               3.95439866                5.96843770               74.08961332                0.01000001               -0.17409414               -0.48084535                0.10669253                2.20852631                0.01826344                0.14960700
               4.95241270                5.97684676               74.09389474                0.01000001               -0.21924741               -0.38157960                0.10127138                2.63375942                0.06663502                0.17047995
               5.95001371                5.98711392               74.09818792                0.01000002               -0.25464087               -0.23051020                0.09254051                2.82098853                0.09242111                0.20957646
               6.94731988                5.99652769               74.10217734                0.01000000               -0.25810757               -0.17646970                0.10172876                2.74824487                0.11995740                0.24440893
               7.94485156                6.00150623               74.10615104                0.01000000               -0.14443790               -0.18044835                0.10926070                2.36876581                0.10969773                0.29721363
               8.94443113                5.99785850               74.10997453                0.01217929               -0.00034388               -0.34887462                0.14189893                1.44948477                0.08213194                0.31545526
               9.94484468                5.98139646               74.11321187                0.01000000                0.04135524               -0.23406766                0.17033569                0.63562298                0.05087532                0.28453785
              -0.02226842                6.97530218               74.07421262                0.90997728               -0.03456998               -0.42439431                0.10197646                0.49883249               -0.00546653                0.02875129
               0.97738588                6.96696055               74.07894940                0.01000002               -0.29212369               -0.18753719                0.11437569                0.72650070               -0.05100154               -0.00259807
               1.97188911                6.96251160               74.08278471                0.01157626               -0.30995520               -0.32963040                0.15282757                0.93546540               -0.26016133                0.17484472
               2.97118678                6.95852695               74.08805482                0.01000000               -0.11234540               -0.49551450                0.08109038                1.31180308               -0.06355588                0.03244070
               3.96964220                6.96280766               74.09223353                0.01000001               -0.09768969               -0.79167067                0.10879501                2.11665973                0.01619338                0.05130856
               4.96923298                6.97233424               74.09703847                0.01000000               -0.08560514               -0.47176141                0.09494538                2.61266026                0.11108469                0.10738843
               5.96793010                6.98448293               74.10173590                0.01000000               -0.13524659               -0.26445661                0.10138512                2.67637827                0.14613086                0.17694216
               6.96652805                6.99445489               74.10648139                0.01000000               -0.06591275               -0.16453811                0.10452241                2.46120867                0.18677559                0.22659146
               7.96661184                7.00000538               74.11145900                0.01262852               -0.03622556               -0.16185281                0.12567232                1.87685749                0.17386788                0.27416799
               8.96580354                6.99591178               74.11490425                0.01021310               -0.14615042               -0.01255600                0.14135416                0.97004403                0.07258931                0.26381504
               9.96368883                6.98250947               74.11777410                0.01002163               -0.21147068                0.37059381                0.17314325                0.41325125                0.02008012                0.27349602
              -0.01392300                7.97496060               74.07541873                0.99999999               -0.03134325               -0.03183966                0.10743470                0.01029700               -0.00756984                0.02236300
               0.98576357                7.96668959               74.07995382                1.00000000               -0.03544142               -0.03590798                0.11533284               -0.00257039               -0.01391479               -0.01001523
               1.98536817                7.95815087               74.08436360                0.01000000               -0.19644930               -0.23500153                0.11962734                0.48429789               -0.01164157                0.00213297
               2.98183458                7.95445823               74.08894542                0.01213086               -0.12218070               -0.45583624                0.11849604                0.83477405               -0.00009983               -0.03574828
               3.98292456                7.95260428               74.09397021                0.01000001                0.05780302               -1.08781538                0.10490844                1.81614046                0.10180401               -0.13246249
               4.98299064                7.96741153               74.09932508                0.01000000               -0.07519673               -0.43305914                0.11702318                2.51847405                0.15156126                0.08068699
               5.98142062                7.98182479               74.10489944                0.01000000               -0.09845219               -0.18067995                0.11210828                2.23202083                0.22355771                0.12590212
               6.98102160                7.99323693               74.11059782                0.01257817               -0.02444052               -0.13378408                0.12632380                1.78883390                0.24031646                0.16731492
               7.98093181                7.99826917               74.11507386                0.01000007                0.01531625               -0.19543158                0.13204058                1.32068385                0.17385015                0.17924428
               8.98132792                7.99760738               74.11968560                0.01108097               -0.05087427                0.15850404                0.12437770                1.05406127                0.10828221                0.32765517
               9.97991433                7.98880834               74.12351858                0.01000002               -0.14135957                0.75289961                0.13061797                0.73021206                0.07254669                0.28652041
              -0.00552045                8.97466539               74.07668128                1.00000000               -0.03353446               -0.03178288                0.11156694                0.00144751                0.00023787                0.02128155
               0.99414420                8.96624239               74.08112149                0.99999999               -0.03365614               -0.04161484                0.11944414               -0.00113715               -0.00034460               -0.00055076
               1.99380642                8.95781157               74.08554681                0.99994815               -0.03576770               -0.03699262                0.12572156                0.00142557               -0.00967750               -0.01120208
               2.99342885                8.94941022               74.08977106                0.80326956               -0.03973591               -0.27411182                0.13886923                0.16173311               -0.01858663               -0.03317573
               3.99301171                8.94105135               74.09396822                0.01000000               -0.15234452               -0.60179074                0.15729249                1.63576486                0.13776340               -0.08350964
               4.99038196                8.96367306               74.10135759                0.01000002               -0.31332950               -0.15929098                0.13512469                2.03029497                0.29527046                0.02317002
               5.98674512                8.98086933               74.10771613                0.01203341               -0.22608053               -0.05865692                0.14192244                1.34570475                0.24236434                0.07742983
               6.98586035                8.99177921               74.11311470                0.01000001                0.09549745               -0.19577332                0.13513465                0.83446754                0.20305481                0.06504986
               7.98865507                8.99609675               74.11846694                0.01000000                0.52426251               -0.28531817                0.13197688                0.79534309                0.31453027                0.12627237
               8.99634560                8.99908186               74.12599657                1.00000000                0.36180486                0.05116774                0.13778638                0.90689031                0.25104761                0.23207197
               9.99589116                8.99756746               74.12839724                1.00000000               -0.04544354                0.40782736                0.17931097                0.72366923               -0.00527020                0.14978609
               0.00295195                9.97432495               74.07787138                0.99999999               -0.03573048               -0.03404402                0.11806297                0.00047494                0.01701188                0.01741894
               1.00259464                9.96585729               74.08231010                1.00000000               -0.03615490               -0.03850939                0.12501701               -0.00065205                0.02178400                0.00046977
               2.00222885                9.95741102               74.08684313                0.99521218               -0.03825923               -0.04005462                0.13179695               -0.00182233                0.02291898               -0.00535846
               3.00182946                9.94897599               74.09126814                0.99999995               -0.04259140               -0.04342268                0.14564416               -0.00206658                0.01265333               -0.00279420
               4.00137702                9.94056847               74.09556696                0.13902542               -0.90254443               -0.04828852                0.16433050                1.59901760                0.16801074               -0.01077062
               4.98377857                9.96422571               74.10313467                0.01000000               -1.05742266                0.05526586                0.15996091                1.34382038                0.32299980               -0.01344508
               5.98022857                9.98065165               74.10989928                0.01000001               -0.06475229               -0.02176747                0.17768236                0.60313283                0.22732659                0.04962483
               6.98248352                9.98932146               74.11502331                0.01000000                0.46537259               -0.24577413                0.15581711                0.25787555                0.21108187                0.00875110
               7.98953602                9.99256281               74.12150481                0.01000002                0.77557499               -0.35339438                0.14224662                0.55355935                0.35012376                0.09455442
               8.99799502                9.99863074               74.12777413                1.00000000                0.39402471               -0.04511214                0.16890604                0.38504660                0.19892663                0.00549403
               9.99741652                9.99696489               74.13017480                1.00000000               -0.05785089               -0.06025717                0.21035999               -0.01404981                0.00536296               -0.00536369
              -0.10416117               -0.01961541               75.05786220                1.00000000               -0.02342811               -0.02522003                0.08009335                0.00030953               -0.00729213                0.00667446
               0.89560455               -0.02464508               75.06123745                0.98937620               -0.02282166               -0.02371361                0.07592349               -0.00097772               -0.00819015               -0.00193664
               1.89538240               -0.02965266               75.06460071                0.01340480                0.14129272               -0.02274841                0.07212713                0.29899224                0.00526011               -0.00366925
               2.89843040               -0.02864071               75.06824925                0.01000001                0.19500628               -0.01804522                0.02454577                0.27046149               -0.02356663               -0.04668117
               3.89928252               -0.02399246               75.07147227                0.01000002               -0.02264714                0.03270472                0.06240898                0.31132444               -0.00410355                0.03119932
               4.89797746               -0.01659265               75.07618578                0.01000002               -0.39076524               -0.00156796                0.06135037                0.59793426               -0.32305183                0.25504506
               5.89146722               -0.00317165               75.07649140                0.09754585               -0.30392959               -0.07445969                0.08238170                0.54372217               -0.26714506                0.01569412
               6.89189887               -0.00098526               75.07655867                0.99995568                0.00508815               -0.03610736                0.11542760               -0.01256016               -0.14291535               -0.00277480
               7.89156898                0.00146878               75.07943213                0.99999998               -0.03187031               -0.03360220                0.10732083                0.00007621               -0.00401271               -0.00227084
               8.89126146                0.00395560               75.08229086                1.00000000               -0.02980566               -0.03109783                0.09986851                0.00000124               -0.00356987               -0.00013250
               9.89097287                0.00646536               75.08516752                1.00000000               -0.02885952               -0.02896696                0.09327948               -0.00223516               -0.00223105                0.00019153
              -0.09912840                0.98013239               75.05994974                0.99999999               -0.02582013               -0.02656684                0.08839320                0.00093918                0.00115022                0.00829941
               0.90061340                0.97511778               75.06332707                0.01000000               -0.02507314               -0.02470215                0.08363673               -0.00104293                0.00424411               -0.00444545
               1.90037013                0.97011986               75.06676477                0.01000000               -0.11542373                0.05436058                0.07887201                0.24611530                0.02363738                0.02510964
               2.89830492                0.97117884               75.07051899                0.01000000               -0.19991992                0.01873788                0.10555836                0.50689490               -0.03602851                0.00376775
               3.89637174                0.97633458               75.07372598                0.01070301               -0.23792636                0.01671295                0.06965232                0.60885545               -0.13065199                0.09540479
               4.89354639                0.98339167               75.07709917                0.01000000               -0.36354958               -0.01361473                0.15253948                0.88589625               -0.19844183                0.30757749
               5.88910074                0.99608376               75.08018541                0.01000001               -0.20466689               -0.30737557                0.11688541                0.83016890               -0.12046440               -0.02881367
               6.88945306                0.99865367               75.08020191                0.73767760               -0.00007155               -0.03719565                0.12340646                0.00693886               -0.14489343               -0.00750254
               7.88909931                1.00113275               75.08308381                0.99999999               -0.03449354               -0.03495907                0.11610863                0.00186981               -0.00145865               -0.00530080
               8.88876319                1.00364462               75.08596564                1.00000000               -0.03292771               -0.03180592                0.10958424                0.00171839               -0.00085484                0.00031231
               9.88844076                1.00617569               75.08885497                0.99978090               -0.03224262               -0.02960260                0.10335014               -0.00075374               -0.00022816                0.00313473
              -0.09411317                1.97985325               75.06206275                0.27002069               -0.02906065               -0.02640773                0.09832867               -0.00203510                0.00281212                0.05664391
               0.90559622                1.97486088               75.06536609                0.01000000               -0.08215898               -0.02030412                0.09228944                0.07076993                0.04455129                0.03436406
               1.90424365                1.97143455               75.06950040                0.01000001               -0.16213232                0.02849046                0.08392481                0.39395338                0.07012847                0.06426018
               2.90235358                1.97173405               75.07332655                0.01000000               -0.24984261               -0.00099196                0.10271539                0.85344160                0.01448609                0.07646916
               3.89924680                1.97634179               75.07666342                0.01000000               -0.32036823               -0.04760293                0.10871464                1.15935037               -0.06126549                0.17386556
               4.89594621                1.98313505               75.07964212                0.01000001               -0.32190988               -0.10418431                0.09917487                1.28067080               -0.01508239                0.18471362
               5.89280860                1.99068084               75.08275459                0.01000000               -0.44787811               -0.35050455                0.13936459                1.27788654               -0.09542152                0.03948735
               6.88698865                1.99827083               75.08379840                0.01000002               -0.30965884               -0.18808452                0.12789470                0.71865352               -0.09314371                0.06973832
               7.88661542                2.00076959               75.08668586                0.54821004               -0.03678753               -0.03588119                0.12336085                0.00480094                0.00314978               -0.02186514
               8.88625290                2.00331948               75.08963937                1.00000000               -0.03598804               -0.03360171                0.11971948                0.00481756                0.00490138                0.00647456
               9.88589566                2.00587330               75.09257289                0.99999999               -0.03572365               -0.03206937                0.11392660               -0.00098889                0.00367625                0.01142500
              -0.08918435                2.97960424               75.06510219                0.01000000               -0.03681573                0.16934170                0.11785861                0.37686030               -0.00389496                0.19482173
               0.91044749                2.97471170               75.06821844                0.01000000                0.02801900               -0.07658444                0.08630067                0.42523162                0.05547208                0.13365526
               1.91137603                2.97068967               75.07249975                0.01000000                0.00095088               -0.16060276                0.07555452                0.77879537                0.11317553                0.09326020
               2.91046651                2.97115900               75.07645946                0.01000000               -0.16091489               -0.11141540                0.09125185                1.23294184                0.06044189                0.13535023
               3.90815773                2.97538252               75.08011440                0.01038254               -0.28228749               -0.14058922                0.10628751                1.54235756                0.02445117                0.17558336
               4.90482076                2.98130798               75.08344924                0.01000000               -0.43175154               -0.15400433                0.11754678                1.70851428               -0.00981464                0.18703402
               5.89952270                2.98907367               75.08628988                0.01000001               -0.55416937               -0.13376978                0.11525559                1.61604351               -0.04194926                0.14791568
               6.89373738                2.99489198               75.08898473                0.01000000               -0.76880122               -0.14370491                0.09409059                1.42361579               -0.18045580                0.20458591
               7.88414668                3.00041513               75.09000289                0.01286563               -0.49907735                0.00063396                0.10921642                0.74559333               -0.06923216                0.08915040
               8.88375583                3.00297259               75.09341525                0.73429663               -0.04166716               -0.03731334                0.14026270                0.00599382                0.02819025                0.03197700
               9.88331334                3.00553430               75.09638355                0.99999994               -0.04424923               -0.03628076                0.13457424               -0.00458198                0.00529324                0.03129013
              -0.07679089                3.98324009               75.06988729                0.01000002               -0.01936828                0.11832387                0.18139090                0.38324867               -0.06443304                0.26484292
               0.92301542                3.97332919               75.07228219                0.01069505                0.00815771               -0.21168708                0.02632539                0.64177948               -0.00811567                0.04255996
               1.92337226                3.96822250               75.07585798                0.01000000               -0.03479339               -0.25549318                0.07275599                1.14844456                0.09170437                0.13263036
               2.92231956                3.96950574               75.07989391                0.01037955               -0.17136496               -0.20681522                0.08867205                1.55012909                0.07776197                0.16075587
               3.91994496                3.97353001               75.08368013                0.01000000               -0.29471001               -0.22661933                0.10325192                1.83742976                0.04284153                0.17976776
               4.91642536                3.98005497               75.08729794                0.01000001               -0.41997417               -0.15741983                0.11090552                2.07390620                0.02583523                0.18741309
               5.91154548                3.98800545               75.09070828                0.01000001               -0.61529270               -0.10002504                0.11016298                2.18967048               -0.01153803                0.20661238
               6.90411950                3.99539673               75.09354141                0.01000001               -0.90493992                0.02712548                0.10169608                2.10123088               -0.06064509                0.19896351
               7.89344668                4.00078227               75.09577965                0.01000001               -1.14329472                0.01346431                0.10882634                2.03303864               -0.13368620                0.24911470
               8.88125361                4.00257321               75.09758274                0.01000000               -0.63830405               -0.16394658                0.17968765                1.71519254               -0.05920988                0.19973493
               9.88068060                4.00514769               75.10046791                0.01000000               -0.05730086               -1.07523252                0.17016976                1.83478966               -0.00502671                0.20948535
              -0.06169757                4.98197071               75.07305714                0.01000000               -0.00017540               -0.39043241                0.30822321                0.78749789                0.02294202                0.33820721
               0.93830067                4.97047796               75.07575555                0.01000000               -0.00670274               -0.39813604                0.08856029                1.09459058                0.07710345                0.05608016
               1.93816837                4.96557980               75.07933602                0.01000001               -0.10695456               -0.21913820                0.06996837                1.38002013                0.07486441                0.09681157
               2.93616158                4.96702269               75.08322884                0.01000000               -0.19056369               -0.32588810                0.08575791                1.72808442                0.04916933                0.17053407
               3.93435710                4.97085014               75.08723954                0.01000001               -0.21690661               -0.33247672                0.10010285                2.08131330                0.04874765                0.17229757
               4.93182345                4.97815959               75.09123041                0.01000000               -0.31913730               -0.24820698                0.10343350                2.43320639                0.04902167                0.18401355
               5.92797435                4.98707317               75.09502658                0.01000001               -0.44191419               -0.14165693                0.10039226                2.62395041                0.03661079                0.19400112
               6.92298517                4.99543449               75.09849460                0.01012711               -0.51716929               -0.06253885                0.09431587                2.68890487                0.02641599                0.21348821
               7.91763097                5.00068442               75.10166720                0.01000000               -0.46454509               -0.09105124                0.10165715                2.63467301                0.02751783                0.24163966
               8.91369426                4.99969365               75.10473710                0.01000002               -0.13853935               -0.36368585                0.11581807                2.18125649               -0.00332538                0.36230341
               9.91486018                4.98402965               75.10783399                0.01000001                0.11659156               -1.32876343                0.13911600                1.49705146               -0.02218962                0.40726278
              -0.03805543                5.97543144               75.07591683                0.01000002               -0.06464285               -0.38601922                0.16076369                0.72016329                0.34661878               -0.38199466
               0.96129814                5.96536647               75.08004482                0.01000001               -0.37583218               -0.23892778                0.19509739                1.13097369                0.26278124               -0.09931772
               1.95442793                5.96383973               75.08189499                0.01000001               -0.48436174               -0.23151290                0.08210363                1.35454558               -0.03717962                0.10644387
               2.95161091                5.96298798               75.08637958                0.01000001               -0.19967986               -0.48446712                0.09133725                1.66465187                0.03125150                0.11983397
               3.95043433                5.96688048               75.09055042                0.01000001               -0.13722270               -0.49088934                0.09654939                2.15829127                0.03711052                0.13228851
               4.94886646                5.97509083               75.09486353                0.01000001               -0.18423722               -0.38010007                0.09492977                2.59522140                0.06581238                0.14099579
               5.94674959                5.98517231               75.09905650                0.01026856               -0.22900538               -0.22124034                0.08857991                2.77292780                0.08150657                0.17221562
               6.94428635                5.99414595               75.10307339                0.01000000               -0.24343086               -0.15947367                0.08929285                2.70426363                0.08207443                0.17798646
               7.94188097                5.99896125               75.10708888                0.01000000               -0.13764215               -0.12227116                0.08639597                2.37224693                0.08421552                0.25608553
               8.94153351                5.99529950               75.11129755                0.01288606                0.00343352               -0.30437846                0.11622810                1.45917964                0.07515994                0.32573783
               9.94194964                5.97857242               75.11492934                0.01000000                0.04161361               -0.19097913                0.15879461                0.62897722                0.04222321                0.31501047
              -0.02716436                6.97425033               75.07523723                0.92577199               -0.03237885               -0.07432293                0.10254362                0.11802078               -0.00857258               -0.07823428
               0.97251185                6.96569940               75.08010108                0.01000000               -0.25989330               -0.00122060                0.11451465                0.32318792               -0.03751284               -0.07769406
               1.96763777                6.96094955               75.08436530                0.01141389               -0.30489869               -0.35298750                0.13944358                0.89595553                0.00047310                0.01645325
               2.96641388                6.95733335               75.08858453                0.01000000               -0.11088517               -0.50811730                0.08075047                1.29055511               -0.00799161                0.04853280
               3.96542007                6.96103235               75.09323327                0.01000001               -0.04889163               -0.80999940                0.09800097                2.07095557                0.05181089                0.03062167
               4.96543605                6.97055759               75.09791996                0.01011914               -0.05211427               -0.47398475                0.09212119                2.58771870                0.09077090                0.08818850
               5.96437779                6.98264836               75.10261687                0.01000000               -0.10772735               -0.26323266                0.08897022                2.64222855                0.09912104                0.13630809
               6.96328150                6.99224501               75.10739969                0.01000000               -0.02277124               -0.13785438                0.08434095                2.48500403                0.14293123                0.18070459
               7.96392236                6.99823899               75.11257917                0.01351318               -0.00074060               -0.11707191                0.08763370                1.88385576                0.10963969                0.23282504
               8.96326669                6.99360609               75.11632228                0.01109778               -0.15142411               -0.01734974                0.11787576                0.91442802                0.00621583                0.28718299
               9.96089388                6.98021007               75.11953337                0.01000003               -0.23728079                0.37674102                0.16085977                0.38530344               -0.01159384                0.27736182
              -0.01859316                7.97394498               75.07649701                0.99999999               -0.03441539               -0.03179994                0.10804548               -0.00162619               -0.01012888                0.02186023
               0.98106269                7.96534205               75.08110749                1.00000000               -0.03468734               -0.03448917                0.11431376               -0.00048369               -0.01881181               -0.02203660
               1.98071309                7.95677998               75.08555335                0.01000000               -0.18617397               -0.22671260                0.11609199                0.45845504               -0.01631583               -0.02112714
               2.97733921                7.95282563               75.09014300                0.01243281               -0.10419426               -0.47265718                0.11914816                0.82311922                0.02176959               -0.04384182
               3.97862921                7.95068049               75.09492132                0.01000001                0.08328079               -1.08352458                0.10372069                1.79521253                0.08664143               -0.08143947
               4.97900482                7.96561113               75.10042359                0.01000000               -0.03612376               -0.43767920                0.10727037                2.50734178                0.13004529                0.05991456
               5.97790673                7.97990766               75.10590067                0.01000000               -0.03045139               -0.18784419                0.09399906                2.23160316                0.18463171                0.09944467
               6.97839579                7.99138886               75.11174503                0.01344915                0.01451399               -0.10759716                0.09358619                1.79497148                0.20585303                0.11258343
               7.97819701                7.99661981               75.11651085                0.01083582               -0.02724006               -0.20634938                0.13890624                1.24735865                0.18633121                0.16892117
               8.97785099                7.99495250               75.12103843                0.01176044               -0.08746311                0.18074401                0.13044951                0.99412871                0.17032750                0.37290122
               9.97644775                7.98610724               75.12551557                0.01000002               -0.14032431                0.76687463                0.17897183                0.73018197                0.15479725                0.30278507
              -0.00999103                8.97361433               75.07779918                1.00000000               -0.03417963               -0.03373422                0.11244703                0.00120842                0.00044563                0.01974075
               0.98966717                8.96500962               75.08231341                0.99999999               -0.03428356               -0.03512825                0.11807177                0.00087637               -0.00227169               -0.00416617
               1.98932330                8.95641529               75.08678758                0.99296824               -0.03457075               -0.03761222                0.12332005                0.00421837               -0.00704579               -0.01349213
               2.98897576                8.94788021               75.09123295                0.89915664               -0.03922409               -0.27033779                0.13948080                0.15751089               -0.00094083               -0.02602361
               3.98853882                8.93936186               75.09582505                0.01000000               -0.13100228               -0.59286015                0.16184014                1.61926094                0.12184301               -0.04874976
               4.98635571                8.96180400               75.10265131                0.01000002               -0.26533496               -0.17121509                0.12504036                2.02084932                0.26193078                0.01485273
               5.98323212                8.97889147               75.10909977                0.01273414               -0.19434705               -0.05747263                0.12952506                1.34759857                0.24793383                0.06927512
               6.98246877                8.99009307               75.11447838                0.01000000                0.10368887               -0.20505646                0.12094869                0.77924069                0.22080532               -0.01350099
               7.98530590                8.99411201               75.11980266                0.01000001                0.55965295               -0.30606086                0.13191739                0.78845422                0.35362683                0.13738370
               8.99366183                8.99722097               75.12737108                1.00000000                0.39410731                0.09068093                0.13835301                0.95182705                0.23019961                0.21976515
               9.99318804                8.99554756               75.13018980                1.00000000               -0.04737896                0.44260207                0.17895325                0.75422633               -0.00815812                0.12114004
              -0.00135957                9.97327030               75.07905611                1.00000000               -0.03611796               -0.03440330                0.11962465                0.00006505                0.01589282                0.01674796
               0.99827925                9.96463949               75.08355966                1.00000000               -0.03567776               -0.03701304                0.12512766               -0.00092033                0.01852042               -0.00066596
               1.99792687                9.95602774               75.08813599                1.00000000               -0.03681954               -0.03875534                0.12933643               -0.00067335                0.02496424               -0.00631143
               2.99754286                9.94741887               75.09280225                0.99999999               -0.04181213               -0.04613324                0.14638779               -0.00351285                0.03098410                0.00169784
               3.99709063                9.93882328               75.09749939                0.17359236               -0.88253325               -0.05385745                0.16731180                1.59357924                0.16387209               -0.00159818
               4.97989219                9.96218683               75.10472345                0.01000001               -1.02604971                0.03828302                0.15372514                1.35039386                0.32988961               -0.01242225
               5.97656964                9.97875820               75.11175832                0.01020212               -0.05660579               -0.01332720                0.17887249                0.58879698                0.25780127                0.04496774
               6.97876008                9.98728773               75.11671680                0.01000000                0.51342816               -0.28053340                0.17152870                0.21615002                0.19486695               -0.03089557
               7.98683820                9.99049859               75.12293127                0.01000002                0.83459520               -0.36134119                0.14203184                0.62714968                0.32011597                0.10419365
               8.99545198                9.99676612               75.12946375                1.00000000                0.40204461               -0.04548452                0.16925607                0.40204938                0.19300302                0.00740290
               9.99487909                9.99495928               75.13228176                1.00000000               -0.05728896               -0.05882768                0.20986296               -0.01157893                0.00758043               -0.00717565
              -0.10758355               -0.02168352               76.05866910                1.00000000               -0.02369434               -0.02447003                0.08164455               -0.00037508               -0.00539333                0.00485107
               0.89217950               -0.02679753               76.06200158                0.99406679               -0.02302399               -0.02380032                0.07728463               -0.00141859               -0.00564456               -0.00261052
               1.89195597               -0.03189107               76.06532838                0.01000000                0.14279896               -0.02240970                0.07413474                0.26743436               -0.03529045               -0.00288732
               2.89503548               -0.03160056               76.06806065                0.01098493                0.15756970                0.00707645                0.15753991                0.19416087               -0.09303018               -0.11932584
               3.89510736               -0.02669859               76.07252353                0.01021544               -0.24810212                0.08050359                0.07236102                0.57185553                0.00455912               -0.07853017
               4.89007344               -0.01234107               76.07543651                0.01000002               -0.31985379                0.00298289               -0.01760351                0.59226342               -0.27618018                0.40169283
               5.88871029               -0.00693818               76.07733239                0.23954305               -0.05277976               -0.05891658                0.07647008                0.14414906               -0.14454285                0.00537772
               6.88901785               -0.00469994               76.07775035                1.00000000               -0.00120310               -0.03934338                0.12378500               -0.00982279               -0.12543585               -0.00484221
               7.88868622               -0.00225477               76.08051683                0.99999999               -0.03151794               -0.03432679                0.10876629                0.00083278               -0.00747728               -0.00333728
               8.88838749                0.00022923               76.08328617                0.99999999               -0.02903847               -0.03098285                0.09918154                0.00036084               -0.00475224               -0.00051846
               9.88810545                0.00272832               76.08608733                1.00000000               -0.02820324               -0.02818413                0.09127468               -0.00239301               -0.00268458               -0.00080751
              -0.10247330                0.97807178               76.06083244                1.00000000               -0.02576099               -0.02549500                0.08754681                0.00036630               -0.00034571                0.00883498
               0.89726909                0.97296447               76.06415689                0.01012947               -0.02474353               -0.02443292                0.08177296               -0.00077449                0.00255553               -0.00516249
               1.89703183                0.96788484               76.06754053                0.01000000               -0.14441177                0.04647478                0.07466593                0.23054041                0.04847938                0.02655314
               2.89438086                0.96847020               76.07177508                0.01000000               -0.29178285                0.03922506                0.08352428                0.51432167                0.09357268               -0.16742850
               3.89119617                0.97410644               76.07446799                0.01000001               -0.41324927                0.07287571                0.10895137                0.98265550               -0.04365718                0.02576302
               4.88611587                0.98768875               76.07902047                0.01000000               -0.24324826               -0.28201753                0.09547844                1.07034634               -0.16090535                0.30999506
               5.88633121                0.99247265               76.08129068                0.01000001                0.02310224               -0.26679973                0.10480002                0.41991659               -0.14652928               -0.04141315
               6.88657791                0.99490663               76.08145209                0.72865103               -0.00506186               -0.03860714                0.12810218                0.00152618               -0.13613766               -0.01416713
               7.88622997                0.99740196               76.08424806                0.99999999               -0.03391837               -0.03520778                0.11631020                0.00429780               -0.00287511               -0.00712918
               8.88589955                0.99991940               76.08705614                1.00000000               -0.03237712               -0.03197639                0.10890278                0.00240593               -0.00078982                0.00015644
               9.88558243                1.00244648               76.08987226                0.99965635               -0.03171189               -0.02950901                0.10108379               -0.00076391                0.00020516                0.00190748
              -0.09736161                1.97780658               76.06304645                0.35318508               -0.02874310               -0.02003096                0.09742030                0.00328278                0.00221173                0.06896629
               0.90235095                1.97271381               76.06627641                0.01000000               -0.07886705               -0.02379996                0.08908933                0.06990367                0.04409921                0.02150662
               1.90106104                1.96903843               76.07032559                0.01000001               -0.16253227                0.01452169                0.07120831                0.40572912                0.11436154                0.02165645
               2.89910031                1.96918394               76.07441639                0.01000000               -0.27595631                0.02932588                0.08651409                0.93641220                0.04830454               -0.00051770
               3.89554192                1.97475892               76.07784666                0.01000000               -0.29930757               -0.03277352                0.10915630                1.33149381               -0.02506860                0.12530959
               4.89311416                1.98201858               76.08079385                0.01000001               -0.28255881               -0.42601862                0.15760181                1.42520615                0.00707491                0.09677187
               5.88989074                1.98772582               76.08400780                0.01000001               -0.44975468               -0.30379355                0.12477208                1.12188820               -0.08683935               -0.00374787
               6.88411906                1.99452792               76.08504300                0.01256681               -0.30656653               -0.12612434                0.11427664                0.60197076               -0.08718927                0.03549508
               7.88375941                1.99704107               76.08791263                0.45286846               -0.03639912               -0.03468852                0.12174556                0.00369039                0.00934948               -0.03555762
               8.88339108                1.99958970               76.09084276                0.99999998               -0.03617014               -0.03486605                0.12062948                0.00311336                0.00839672                0.00923731
               9.88303601                2.00213814               76.09370742                0.99999999               -0.03550730               -0.03308077                0.11221382               -0.00121697                0.00562697                0.01029652
              -0.09222212                2.97767116               76.06633608                0.03235732               -0.03425674                0.22896903                0.11958961                0.37718242               -0.00709100                0.24318642
               0.90743531                2.97248847               76.06899533                0.01000000                0.04492049               -0.22850942                0.07105312                0.41486687                0.07550836                0.06105974
               1.90867629                2.96817527               76.07323098                0.01000000               -0.00233531               -0.14560766                0.07311573                0.81467928                0.15744601                0.05731325
               2.90738861                2.96905672               76.07736659                0.01000000               -0.18424386               -0.08103448                0.08941265                1.27618989                0.10671406                0.09568226
               3.90499141                2.97345097               76.08121892                0.01041274               -0.28677580               -0.15763344                0.11430054                1.56668062                0.05571158                0.12889497
               4.90165309                2.97916838               76.08468536                0.01000000               -0.43658931               -0.20706242                0.12706546                1.65106097                0.00631446                0.14417303
               5.89625963                2.98639678               76.08752779                0.01000001               -0.61755031               -0.10618022                0.13222847                1.57860001               -0.06759546                0.10126120
               6.88930208                2.99238414               76.08972305                0.01000000               -0.75088126               -0.09963848                0.10198405                1.35922225               -0.23276880                0.19679856
               7.88124200                2.99670819               76.09107029                0.01313768               -0.42186709                0.01268886                0.09003090                0.65360339               -0.03883340                0.08078303
               8.88086474                2.99922208               76.09480312                0.77685971               -0.03904001               -0.03918656                0.13924960               -0.00142111                0.04783199                0.03018745
               9.88046120                3.00178487               76.09767225                0.99999999               -0.04035416               -0.03674792                0.12609393               -0.00105132                0.00743765                0.02420282
              -0.07945259                3.98238596               76.07168193                0.02711091               -0.04032269                0.40384026                0.09621846                0.07393332               -0.17858386                0.34343376
               0.92014418                3.96814363               76.07222822                0.01000001                0.01194878               -0.30971288                0.05201066                0.70335248                0.06310704               -0.04881414
               1.92078638                3.96612627               76.07667619                0.01000000               -0.03978880               -0.23306175                0.08940875                1.30738909                0.19476976                0.11857789
               2.91934840                3.96756325               76.08078715                0.01041840               -0.20112574               -0.18717189                0.09610475                1.55171610                0.11265674                0.13837318
               3.91676387                3.97160625               76.08474194                0.01000000               -0.30794177               -0.22253684                0.11027830                1.81229858                0.06812694                0.14420119
               4.91318957                3.97787733               76.08842806                0.01000001               -0.42584428               -0.15439370                0.11868679                2.03851459                0.03294670                0.14147866
               5.90824698                3.98560222               76.09182228                0.01000000               -0.60987323               -0.08859243                0.11826952                2.15287414               -0.01638962                0.16012214
               6.90099210                3.99253515               76.09461373                0.01000001               -0.91267183                0.01689614                0.11923262                2.11168496               -0.05155669                0.17854708
               7.88999355                3.99729485               76.09698305                0.01000000               -1.13530612                0.02148617                0.12153505                1.99520045               -0.12357488                0.23362398
               8.87828598                3.99880597               76.09902847                0.01000000               -0.60520706               -0.14007708                0.14627171                1.68571876               -0.04297858                0.17630979
               9.87788940                4.00140319               76.10179633                0.01000000               -0.03965773               -1.04551113                0.13177922                1.80739708                0.00140861                0.19895137
              -0.06225879                4.98574796               76.07741887                0.01000006                0.00208365               -0.43787280                0.05983313               -0.06807057               -0.04363983               -0.11789733
               0.93776204                4.96629421               76.07680127                0.01000000               -0.11683789               -0.20175871                0.22242352                0.76711709                0.18523120                0.03673530
               1.93540445                4.96351403               76.08015444                0.01000001               -0.24095467               -0.21415978                0.09327342                1.46898003                0.11777473                0.15873609
               2.93294295                4.96531328               76.08415688                0.01000000               -0.22405720               -0.30768675                0.10495461                1.70009920                0.08205876                0.14792731
               3.93092330                4.96900024               76.08824855                0.01000001               -0.22577678               -0.32582608                0.10593861                2.03301355                0.06302749                0.14339211
               4.92842741                4.97608051               76.09225943                0.01000000               -0.31320108               -0.24501004                0.10702625                2.38289973                0.04498178                0.14089618
               5.92465928                4.98462493               76.09600868                0.01000001               -0.42921297               -0.13171403                0.10181790                2.59142787                0.02371327                0.13883865
               6.91984315                4.99272207               76.09947803                0.01047367               -0.48920451               -0.06764114                0.10248700                2.62249341                0.00692910                0.16753162
               7.91487519                4.99713791               76.10270305                0.01000000               -0.46861874               -0.07894392                0.11102321                2.60083180                0.01442769                0.19232590
               8.91047078                4.99642054               76.10591649                0.01000002               -0.17302429               -0.30089447                0.11553202                2.17723072               -0.00612514                0.31585729
               9.91141471                4.98087464               76.10924155                0.01005821                0.09439273               -1.27029444                0.13522616                1.47221838               -0.01341089                0.41246319
              -0.04190651                5.97362850               76.07604715                0.01173173               -0.03730444               -0.62953194                0.02820708                0.55255682                0.05125176               -0.16724556
               0.95772045                5.96410845               76.08152670                0.01000001               -0.34732893               -0.09751088                0.11146198                0.89800446               -0.08705209                0.06700297
               1.95114691                5.96184308               76.08354850                0.01000001               -0.49281316               -0.21658664                0.14757829                1.26558643               -0.08500091                0.09470214
               2.94786419                5.96140951               76.08730276                0.01000001               -0.22450019               -0.47895518                0.10685211                1.62313397                0.02616330                0.11243081
               3.94665691                5.96508973               76.09154431                0.01000000               -0.13206602               -0.49755232                0.10484494                2.09936493                0.04412879                0.10971406
               4.94522287                5.97297713               76.09579334                0.01000001               -0.16114647               -0.37712758                0.09605840                2.55577985                0.04803210                0.10383249
               5.94343398                5.98296794               76.09995952                0.01066183               -0.21469357               -0.21300090                0.09346035                2.69893531                0.05128127                0.11843466
               6.94092899                5.99118233               76.10396320                0.01000000               -0.25611350               -0.16623626                0.09805801                2.61646262                0.03121994                0.12682770
               7.93831171                5.99571597               76.10787896                0.01000000               -0.14175653               -0.09489976                0.08446861                2.33063013                0.05175937                0.19425081
               8.93809386                5.99278808               76.11229910                0.01375224                0.00569218               -0.22529876                0.07544869                1.43921017                0.04265252                0.27486505
               9.93842556                5.97599730               76.11638776                0.01000000                0.03316919               -0.17020861                0.10088543                0.60192507               -0.00080418                0.30829393
              -0.03216756                6.97315732               76.07626349                0.96143091               -0.03248869               -0.03963195                0.10158255                0.04666517               -0.00902030               -0.03301577
               0.96750755                6.96434400               76.08123969                0.01097847               -0.22086621               -0.00359627                0.10958999                0.23177599               -0.04026829               -0.10646395
               1.96341512                6.95918230               76.08557358                0.01126164               -0.26742881               -0.32685108                0.11599371                0.81248061               -0.01162266               -0.02506028
               2.96215898                6.95573418               76.08966983                0.01000000               -0.10360627               -0.52382669                0.11744324                1.24523523               -0.00309177                0.04362489
               3.96134299                6.95904919               76.09419355                0.01000001               -0.02470872               -0.83530058                0.10978534                2.02618374                0.04784435                0.02619186
               4.96166480                6.96853796               76.09888090                0.01045148               -0.04551021               -0.45493277                0.09802373                2.53525295                0.07457074                0.06147472
               5.96043279                6.98036492               76.10351531                0.01000000               -0.11202130               -0.28185765                0.09784602                2.56086081                0.07051491                0.07646028
               6.95942438                6.98939734               76.10816821                0.01000002               -0.02753703               -0.13862098                0.08263316                2.42372455                0.10391440                0.14016035
               7.95988205                6.99523992               76.11321167                0.01000001               -0.02253601               -0.06459325                0.05979830                1.97852754               -0.00223855                0.15939976
               8.95897366                6.99191456               76.11726177                0.01217754               -0.14236366                0.06142638                0.09052915                0.99332210               -0.05834485                0.29854089
               9.95703477                6.97747047               76.12099130                0.01000003               -0.19388841                0.41051563                0.13478714                0.33711237               -0.00606787                0.25505034
              -0.02334655                7.97283586               76.07757964                0.99999999               -0.03224621               -0.03281156                0.10663221                0.00144444               -0.01069381                0.02075781
               0.97633099                7.96403653               76.08224010                0.99964775               -0.03235538               -0.03185482                0.11043894                0.00365064               -0.01901258               -0.02331163
               1.97600634                7.95530606               76.08668544                0.01000000               -0.17144941               -0.21116111                0.11006920                0.41136542               -0.01680127               -0.02863107
               2.97290200                7.95093298               76.09132838                0.01278080               -0.08147694               -0.47518395                0.11531949                0.76456239                0.02311347               -0.04568563
               3.97437681                7.94838372               76.09604462                0.01000000                0.08550982               -1.07754470                0.11791265                1.78163509                0.08372829               -0.08839472
               4.97461220                7.96387847               76.10147049                0.01000000               -0.02924961               -0.44338578                0.10769154                2.48140584                0.10894526                0.04272060
               5.97379181                7.97733079               76.10677942                0.01000000               -0.00418571               -0.19838689                0.09238831                2.19876891                0.14255794                0.07121965
               6.97452848                7.98840991               76.11246954                0.01000001                0.07866143               -0.14299646                0.07164149                1.86212511                0.14332117                0.03416626
               7.97536504                7.99442410               76.11785199                0.01205148                0.06006328               -0.14079547                0.12661972                1.42797754                0.23780134                0.19509455
               8.97572975                7.99401661               76.12229459                0.01384519               -0.06545313                0.15686399                0.12018898                1.06861480                0.20992126                0.39357789
               9.97405598                7.98420761               76.12709802                0.01000002               -0.16737698                0.78768013                0.06667137                0.67188943                0.16388597                0.19842610
              -0.01454000                8.97250109               76.07893022                0.99999999               -0.03496293               -0.03449130                0.11401626                0.00104412               -0.00084194                0.01903759
               0.98511037                8.96370690               76.08348292                0.99999999               -0.03570138               -0.03425228                0.11675353                0.00060847               -0.00245361               -0.00510183
               1.98474597                8.95495908               76.08801322                0.99379052               -0.03689036               -0.03590482                0.12110753                0.00013963               -0.00394138               -0.01217743
               2.98437256                8.94623050               76.09256067                0.99999995               -0.03578852               -0.25308213                0.12163064                0.13614828                0.00115789               -0.02243058
               3.98403020                8.93749830               76.09720502                0.01000000               -0.10133550               -0.55979441                0.11619190                1.58981008                0.11192190               -0.03810540
               4.98234585                8.95967024               76.10385840                0.01000002               -0.20767376               -0.20227426                0.11872164                2.02020538                0.24078914                0.00745380
               5.97987673                8.97639718               76.11030663                0.01358147               -0.13861460               -0.05484447                0.09709354                1.32333007                0.22279854                0.05478420
               6.97957356                8.98653741               76.11553367                0.01045073                0.14790868               -0.20916033                0.11593353                0.83531320                0.25503632               -0.07073948
               7.98283490                8.99242401               76.12110529                0.01000001                0.54944438               -0.30173177                0.15149950                0.81703913                0.44302895                0.16142821
               8.99056245                8.99505184               76.12876363                1.00000000                0.36278279                0.02884278                0.13996467                0.87874562                0.21452338                0.21133574
               9.99009056                8.99322407               76.13197631                1.00000000               -0.04718929                0.42149277                0.17831595                0.71102966               -0.00775853                0.11633082
              -0.00573728                9.97214604               76.08026388                1.00000000               -0.03775486               -0.03550562                0.12288751                0.00081668                0.01521169                0.01646154
               0.99388517                9.96335148               76.08481266                1.00000000               -0.03885914               -0.03554177                0.12600266               -0.00042351                0.01717020                0.00003475
               1.99348554                9.95458796               76.08942986                0.99999998               -0.03997106               -0.03711180                0.12959068               -0.00005059                0.02491337               -0.00604701
               2.99308575                9.94587134               76.09419589                0.99999999               -0.03761366               -0.03591614                0.12756284                0.00131233                0.02880269                0.00399338
               3.99273326                9.93718783               76.09891319                0.04500037               -0.84841635               -0.03104642                0.11955507                1.56838878                0.16032706                0.00102668
               4.97611742                9.95983299               76.10620917                0.01000000               -0.96710101                0.01627442                0.14279878                1.32946038                0.35005453               -0.00784163
               5.97339124                9.97623390               76.11347673                0.01000000               -0.04547525               -0.01632808                0.12877149                0.57113771                0.28478946                0.01066780
               6.97520792                9.98422670               76.11845388                0.01000000                0.49000757               -0.23107092                0.15293716                0.17121442                0.22369463               -0.02764881
               7.98319140                9.98838947               76.12434544                0.01000002                0.86483378               -0.40345378                0.15075473                0.55398762                0.22604565                0.10725622
               8.99250459                9.99459346               76.13115925                1.00000000                0.43703542               -0.04583788                0.16990156                0.40661437                0.18738272                0.00731109
               9.99193210                9.99263746               76.13437206                1.00000000               -0.05724899               -0.05866103                0.20828747               -0.01144481                0.00743675               -0.00751042
              -0.11093399               -0.02384507               77.05949509                1.00000000               -0.02336307               -0.02231828                0.08410983               -0.00130454               -0.00109492                0.00026453
               0.88883238               -0.02900791               77.06278315                0.99997622               -0.02242479               -0.02523904                0.07915467               -0.00207669                0.00079975               -0.00318712
               1.88861751               -0.03413470               77.06608341                0.01627945                0.02711359               -0.02115910                0.07738655                0.03799287                0.10426572                0.00033647
               2.88937465               -0.03845608               77.07140005                0.01000001                0.16901690               -0.00693878                0.21806461                0.62156176               -0.07885107               -0.31670746
               3.89199785               -0.02945198               77.07291949                0.01000006               -0.08648253                0.09786949                0.07196077                0.76200241               -0.06947857                0.04021171
               4.88764500               -0.01572673               77.07583371                0.01000003               -0.28676663               -0.00390485                0.03688972                0.50962561                0.02426627               -0.08363522
               5.88626252               -0.01098067               77.07802080                0.42168758               -0.07196430               -0.04392425                0.07160636                0.10965946               -0.07667695                0.00245090
               6.88620571               -0.00848558               77.07903437                1.00000000               -0.01894518               -0.04367411                0.12908434                0.00273242               -0.09160399               -0.01372100
               7.88588362               -0.00606044               77.08160745                0.99999999               -0.03048985               -0.03452011                0.10790414               -0.00004135               -0.01061779               -0.00397921
               8.88559592               -0.00359471               77.08427449                1.00000000               -0.02833784               -0.03141314                0.09905927               -0.00028484               -0.00452823                0.00003533
               9.88531686               -0.00112067               77.08699302                1.00000000               -0.02790581               -0.02855903                0.09133752               -0.00302116               -0.00245063               -0.00168885
              -0.10578420                0.97593175               77.06170067                1.00000000               -0.02593747               -0.02129902                0.08627856                0.00105233               -0.00367288                0.00784714
               0.89395642                0.97073970               77.06496253                0.01000000               -0.02471346               -0.02697666                0.07912172                0.00443269               -0.00275528               -0.00543199
               1.89372153                0.96565371               77.06825809                0.01000000               -0.03537556                0.01559620                0.06743468                0.02541080                0.03021072                0.02631274
               2.89324891                0.96147453               77.07218948                0.01000000               -0.27341654                0.22941305               -0.00019134                0.61484689                0.11791007               -0.21607079
               3.88825320                0.97152671               77.07590500                0.01000000               -0.48716568                0.07745176                0.07751864                1.15649008               -0.15605943                0.05808567
               4.88350560                0.98423423               77.07900874                0.01000000               -0.22573278               -0.24338360                0.12057949                0.96674776                0.03183495               -0.04101703
               5.88373854                0.98858009               77.08228141                0.01000001                0.01336611               -0.23252772                0.09372537                0.37017982               -0.07570642               -0.04446272
               6.88377292                0.99107767               77.08276395                0.66340561               -0.01503899               -0.04023257                0.13642363                0.00742931               -0.12013217               -0.03489940
               7.88343776                0.99359436               77.08541002                1.00000000               -0.03248683               -0.03516739                0.11588965                0.00662630               -0.00481559               -0.00801083
               8.88312318                0.99609116               77.08814370                0.99999999               -0.03125774               -0.03240224                0.10868095                0.00147538                0.00107964                0.00149193
               9.88281261                0.99859374               77.09087664                0.99971825               -0.03105759               -0.03000432                0.10067767               -0.00164138                0.00153344                0.00017753
              -0.10052886                1.97572895               77.06401116                0.45791201               -0.02720754               -0.00496333                0.09172750                0.02933716               -0.00172762                0.08105186
               0.89919907                1.97045256               77.06714787                0.01000000               -0.05401194               -0.03793126                0.08609408                0.07773063                0.03308726                0.00111683
               1.89839090                1.96617723               77.07092457                0.01000001               -0.17002366               -0.00841907                0.05092003                0.40558931                0.11036851                0.02813949
               2.89579859                1.96613218               77.07505683                0.01000000               -0.30114708                0.26136747                0.04780314                0.86418793                0.06768207                0.05585633
               3.89236796                1.97209705               77.07884655                0.01000000               -0.29360065               -0.02307827                0.10579600                1.34867072                0.10179048                0.05904433
               4.88992658                1.97940560               77.08279416                0.01000001               -0.27726463               -0.38384940                0.15171360                1.37021571                0.00737595                0.02634447
               5.88682267                1.98436878               77.08525004                0.01000001               -0.42932769               -0.26478420                0.12197523                1.03493613               -0.13657862               -0.02074034
               6.88134003                1.99070976               77.08608394                0.01209461               -0.29100064               -0.09102311                0.08786131                0.53170100               -0.08040793                0.03324558
               7.88100265                1.99323622               77.08912077                0.28009058               -0.03569896               -0.03169926                0.12261391               -0.00501653                0.02779708               -0.06429823
               8.88062605                1.99575725               77.09205196                0.99999997               -0.03618913               -0.03502687                0.12057079                0.00151726                0.01452876                0.01468840
               9.88027887                1.99827925               77.09481717                0.99999998               -0.03471739               -0.03321468                0.10965146               -0.00224002                0.00752842                0.00920536
              -0.09464468                2.97583248               77.06749399                0.12565745               -0.02925600                0.16485109                0.09031822                0.36854504               -0.00249031                0.23419476
               0.90506276                2.96998108               77.06963950                0.01000000                0.03991897               -0.29527961                0.07577492                0.48685477                0.11881675                0.00900289
               1.90615370                2.96548533               77.07396207                0.01000000               -0.02249535               -0.12533174                0.07304819                0.85193172                0.16876163                0.09523573
               2.90461285                2.96670188               77.07824771                0.01000000               -0.21002518               -0.03246370                0.08831453                1.31440786                0.13943236                0.10713430
               3.90195319                2.97106515               77.08240041                0.01044794               -0.29873300               -0.13563229                0.11525954                1.55769919                0.08170144                0.10269936
               4.89863819                2.97655724               77.08599055                0.01000000               -0.44100440               -0.20475657                0.13504032                1.61483145                0.02780413                0.05968535
               5.89313310                2.98328440               77.08893445                0.01000000               -0.65493442               -0.08208879                0.14218297                1.54546592               -0.04352419                0.06316748
               6.88553950                2.98925721               77.09102441                0.01000000               -0.74215776               -0.07485341                0.13370497                1.31317757               -0.15872143                0.14228987
               7.87828995                2.99296038               77.09180351                0.01345142               -0.37145000                0.02928871                0.05789658                0.58456026               -0.03972861                0.08210538
               8.87811050                2.99539062               77.09620024                0.84582530               -0.02830672               -0.03856065                0.13808251               -0.00381107                0.08849926                0.03484646
               9.87772381                2.99792945               77.09890543                0.99999998               -0.03866862               -0.03609120                0.12015316               -0.00140883                0.00539884                0.02203937
              -0.08145516                3.97902597               77.07181166                0.09840495                0.07384649               -0.02924664               -0.00345255                0.21757559               -0.05866000                0.04549842
               0.91928331                3.96454697               77.07332240                0.01026253                0.00819453               -0.40334436                0.12190858                0.94257946                0.12805131                0.25463237
               1.91870873                3.96367059               77.07764616                0.01000000               -0.13881856               -0.18015604                0.10576477                1.39752469                0.18440400                0.12423709
               2.91650694                3.96548291               77.08181600                0.01045207               -0.25210726               -0.16181301                0.10693963                1.54048044                0.11643040                0.14640850
               3.91366659                3.96938441               77.08588570                0.01000000               -0.32514931               -0.20747675                0.11628180                1.76947348                0.07887933                0.11618539
               4.91000395                3.97531047               77.08967168                0.01000000               -0.43172882               -0.14725026                0.12565353                1.98336834                0.04312128                0.09592543
               5.90503201                3.98272700               77.09307367                0.01000000               -0.60381739               -0.07858507                0.12880685                2.09995725                0.00409381                0.09256918
               6.89792760                3.98921270               77.09592607                0.01000001               -0.92357819                0.00892185                0.13441601                2.09924334               -0.02519961                0.12555526
               7.88656045                3.99382199               77.09821035                0.01000007               -1.11734241                0.03373211                0.14869963                1.94822244                0.00293622                0.21755037
               8.87558075                3.99498604               77.10050818                0.01000000               -0.56936996               -0.13252261                0.14276100                1.63290968               -0.01619611                0.15507040
               9.87517305                3.99755742               77.10310349                0.01000000               -0.04077056               -1.01209839                0.12633508                1.76804026               -0.00136510                0.18979975
              -0.06133517                4.97524755               77.07425380                0.24793282                0.06048914               -0.28920316               -0.14052106                0.33994813                0.35025641               -0.32338587
               0.93926972                4.96191419               77.08020402                0.01000000               -0.27482896               -0.11394354                0.14389120                0.97035546                0.12762564                0.17305297
               1.93316825                4.96188221               77.08120149                0.01000001               -0.47805377               -0.16779761                0.13096564                1.48972708               -0.03697684                0.17871015
               2.92970865                4.96346562               77.08532794                0.01000000               -0.28265766               -0.28796313                0.11567155                1.63324137                0.07046957                0.14906469
               3.92751510                4.96691561               77.08935831                0.01000000               -0.23728425               -0.31273241                0.11465931                1.96531788                0.05733505                0.12111319
               4.92496296                4.97361223               77.09337093                0.01000000               -0.31425370               -0.23822282                0.11521834                2.31025163                0.03782552                0.09292010
               5.92123002                4.98171270               77.09706293                0.01000000               -0.42667923               -0.13463134                0.11208636                2.51983766                0.01659954                0.08198541
               6.91642938                4.98943565               77.10054434                0.01000001               -0.48744828               -0.06101851                0.10555819                2.54930096               -0.00297110                0.09853458
               7.91148106                4.99363502               77.10388766                0.01000000               -0.46980569               -0.07421746                0.10720857                2.56621696               -0.05166949                0.18999307
               8.90703326                4.99274017               77.10704774                0.01000002               -0.17696055               -0.27672572                0.10920117                2.11747317               -0.01058544                0.24358869
               9.90794185                4.97768748               77.11053852                0.01000000                0.09085845               -1.22844376                0.11676076                1.42388983                0.00258184                0.37425248
              -0.04798949                5.97324191               77.07648098                0.40211130                0.00452365               -0.15950118                0.05456473                0.10451875               -0.00174041                0.08510146
               0.95205575                5.96226810               77.08227406                0.01000001               -0.25293352                0.04712654                0.03137170                0.50997044               -0.13676569               -0.05712091
               1.94695184                5.96031464               77.08484655                0.01000001               -0.39586932               -0.22854043                0.11161757                1.16312401               -0.11988164                0.11011330
               2.94413837                5.95972364               77.08851662                0.01000000               -0.20627551               -0.46426961                0.11833076                1.54192682                0.00002716                0.11257108
               3.94282633                5.96312976               77.09264731                0.01000000               -0.13632370               -0.49298669                0.11266950                2.02365812                0.02365803                0.10226073
               4.94141189                5.97054601               77.09678470                0.01000000               -0.16104930               -0.37511522                0.10484477                2.47736805                0.02674627                0.07192903
               5.93960535                5.98003437               77.10092571                0.01000001               -0.22102937               -0.21775202                0.09969343                2.63585304                0.01664028                0.05853909
               6.93699130                5.98799233               77.10503455                0.01000000               -0.25125422               -0.14468865                0.10093604                2.57686557               -0.00774389                0.10321838
               7.93458026                5.99233764               77.10877825                0.01000002               -0.15567734               -0.10905294                0.09466770                2.23810834                0.00526390                0.15844482
               8.93387776                5.98945152               77.11280652                0.01000001               -0.04120175               -0.15793820                0.07194678                1.39689024               -0.03232556                0.19298529
               9.93375623                5.97298855               77.11694705                0.01000000               -0.01215280               -0.15433325                0.08298668                0.62228295               -0.06691129                0.30363346
              -0.03729718                6.97205752               77.07726888                0.99944188               -0.03064269               -0.07742491                0.10024745                0.07299654               -0.01195574               -0.00017914
               0.96239640                6.96285672               77.08229288                0.01104088               -0.18638190                0.01822473                0.09566734                0.23873822               -0.03866278               -0.10363505
               1.95897519                6.95731140               77.08668518                0.01106647               -0.23321643               -0.32734583                0.10373346                0.78302234               -0.03292898               -0.01815792
               2.95773207                6.95418023               77.09093340                0.01000000               -0.09046472               -0.53512858                0.12118260                1.20241991               -0.00720728                0.05078423
               3.95716589                6.95705588               77.09542898                0.01000001               -0.00631802               -0.86143159                0.12156154                1.96325153                0.02094908                0.05124994
               4.95760571                6.96610993               77.09988043                0.01000001               -0.03325584               -0.45289869                0.09667045                2.46694118                0.03431685                0.03461954
               5.95650077                6.97735766               77.10457379                0.01000000               -0.09711435               -0.27468236                0.09839451                2.52927174                0.06771699                0.02508590
               6.95566342                6.98654188               77.10905235                0.01000002               -0.08583716               -0.16427996                0.09917681                2.36473227                0.07664500                0.10349035
               7.95478403                6.99145396               77.11377514                0.01000001               -0.06716287                0.01452215                0.07589503                2.07936301               -0.00105515                0.15092180
               8.95432016                6.98958141               77.11813286                0.01352217               -0.07352872                0.09353399                0.09280374                1.10362437               -0.00570723                0.19459523
               9.95331346                6.97460081               77.12222911                0.01000003               -0.10067068                0.30511032                0.10842769                0.32006012                0.02597909                0.22052653
              -0.02812795                7.97169341               77.07862965                0.99999999               -0.02954114               -0.03733398                0.10472391                0.00311329               -0.00703984                0.02091700
               0.97157664                7.96263259               77.08331627                0.99854921               -0.02916315               -0.02608496                0.10387495                0.01065112               -0.01692245               -0.02750237
               1.97128878                7.95376773               77.08775473                0.01000000               -0.15671729               -0.19420382                0.10424140                0.37900077               -0.01370148               -0.03251866
               2.96844229                7.94902107               77.09244939                0.01320105               -0.05635590               -0.48080742                0.11626322                0.71042223                0.01983883               -0.01644959
               3.97016167                7.94590113               77.09727957                0.01000007                0.10033198               -1.06623482                0.13579900                1.73903020                0.06311030               -0.00365891
               4.97044893                7.96148804               77.10257742                0.01000000               -0.02014154               -0.44477667                0.09809324                2.45518909                0.12632268               -0.02424281
               5.96975884                7.97454073               77.10774844                0.01000002               -0.01296399               -0.20339047                0.09592209                2.13653667                0.13627059                0.03640662
               6.97018965                7.98470673               77.11317786                0.01000001                0.16845786               -0.19239669                0.07717157                1.95973878                0.13872368                0.03797369
               7.97312799                7.99262808               77.11904324                0.01356110                0.13068702               -0.03034234                0.08849066                1.63839812                0.16358527                0.15387437
               8.97280339                7.99132220               77.12344221                0.01000001               -0.15046875                0.15008085                0.10372958                0.96118932               -0.00816957                0.24669272
               9.97011862                7.97909075               77.12684900                0.01000002               -0.26847728                0.79996588                0.09355667                0.44155765               -0.11121335                0.13403440
              -0.01911328                8.97131084               77.08007951                0.99999999               -0.03516182               -0.03806015                0.11582692                0.00117077               -0.00007521                0.01802396
               0.98053510                8.96233502               77.08464848                0.99999999               -0.03600001               -0.03259394                0.11595045               -0.00017392               -0.00010898               -0.00460128
               1.98016672                8.95342733               77.08920973                0.99186845               -0.03639952               -0.03471024                0.11708744               -0.00089114               -0.00498964               -0.00891967
               2.97980711                8.94456408               77.09366556                0.95766165               -0.03435966               -0.23963867                0.11380345                0.12485683               -0.00617567               -0.02307149
               3.97947953                8.93573118               77.09814889                0.01000000               -0.08686115               -0.52368270                0.10553578                1.53862715                0.11436413               -0.04629938
               4.97806989                8.95721439               77.10502575                0.01000002               -0.17333529               -0.20797898                0.10747801                1.97197464                0.21548505               -0.00327919
               5.97601282                8.97328985               77.11104164                0.01000001               -0.06495256               -0.09546824                0.08308347                1.28707140                0.18837931                0.00157773
               6.97677084                8.98269394               77.11679705                0.01172804                0.24618489               -0.19061952                0.13168083                0.98664328                0.28013598               -0.00155836
               7.98093652                8.99084711               77.12283265                0.01000001                0.51552216               -0.32323372                0.12188830                0.77074187                0.35712788                0.03531291
               8.98708128                8.99258302               77.13017038                1.00000000                0.28354932                0.03994500                0.14142922                0.80613251                0.17994845                0.20952955
               9.98660751                8.99060013               77.13375612                1.00000000               -0.04737754                0.54634100                0.17765825                0.72589001               -0.00783241                0.20298667
              -0.01015290                9.97093221               77.08151387                1.00000000               -0.03904288               -0.03786376                0.12690142                0.00088907                0.01413528                0.01502523
               0.98945667                9.96198071               77.08607971                0.99999999               -0.04025997               -0.03543091                0.12729347               -0.00077710                0.01750272                0.00031812
               1.98904190                9.95307352               77.09072781                0.99751204               -0.04105504               -0.03538064                0.12772581               -0.00010240                0.02078256               -0.00443051
               2.98863557                9.94422830               77.09535351                0.99999999               -0.03790041               -0.03357812                0.11945655                0.00054370                0.01576613                0.00002675
               3.98828390                9.93542747               77.09989049                0.01310349               -0.81529113               -0.03037086                0.10967363                1.53544489                0.16744855               -0.00613969
               4.97232975                9.95732846               77.10757943                0.01000000               -0.91315897                0.01140663                0.12219975                1.28618064                0.34214654               -0.00127252
               5.97002072                9.97263136               77.11433375                0.01000001                0.00177514               -0.06584912                0.09448024                0.57908321                0.28066671               -0.05735984
               6.97236525                9.98089434               77.11977555                0.01000000                0.43165157               -0.17996061                0.16624813                0.23604402                0.35817054                0.00246287
               7.97865375                9.98616341               77.12594636                0.01000000                0.84038841               -0.46837044                0.16886450                0.33306103                0.20842553                0.02676227
               8.98917302                9.99212110               77.13286178                1.00000000                0.49742275               -0.04619244                0.17059588                0.40188220                0.17381344                0.00731014
               9.98860220                9.99001757               77.13644751                1.00000000               -0.05708193               -0.05825604                0.20681793               -0.01088315                0.00744370               -0.00745715
              -0.11418157               -0.02608941               78.06035130                1.00000000               -0.02112537               -0.01979467                0.08802192               -0.00195499                0.00467976               -0.00551682
               0.88560718               -0.03122004               78.06358467                1.00000000               -0.01970284               -0.02888535                0.08043500               -0.00227659                0.01090019               -0.00404973
               1.88542438               -0.03623371               78.06687611                0.23062718                0.05075990               -0.01963600                0.07871128                0.08379582                0.13649614                0.00508934
               2.88662238               -0.03951357               78.07242195                0.08056155                0.19298793                0.00055722                0.02849375                0.46539295                0.10822291               -0.10976314
               3.88928414               -0.03186538               78.07396275                0.09070242               -0.05824587                0.12064854                0.07186339                0.15464475               -0.12568689               -0.03126811
               4.88545746               -0.02036385               78.07617430                0.21935380               -0.26540259                0.02718098                0.04509941                0.31462034                0.04766155                0.03890459
               5.88397608               -0.01541038               78.07876452                0.67213265               -0.09291757               -0.02354558                0.07118832                0.10509453               -0.01124375               -0.00601463
               6.88359911               -0.01243352               78.08033204                0.99992247               -0.03711686               -0.04074010                0.12293691                0.01830052               -0.05162794               -0.02000600
               7.88323375               -0.00993948               78.08267491                0.99999999               -0.03438750               -0.03320936                0.10645136               -0.00173071               -0.01082217               -0.00363660
               8.88291136               -0.00750848               78.08526735                0.99999998               -0.03071785               -0.03197516                0.10018180               -0.00234636               -0.00218926                0.00040904
               9.88261939               -0.00507271               78.08791408                1.00000000               -0.02919698               -0.03014088                0.09417968               -0.00364238               -0.00171462               -0.00299254
              -0.10907048                0.97371265               78.06255802                1.00000000               -0.02729576               -0.01381469                0.08626421                0.00344376               -0.00794811                0.00255206
               0.89065657                0.96849110               78.06573932                0.01000000               -0.02602129               -0.03603855                0.07749168                0.01746977               -0.01223176               -0.00238894
               1.89040910                0.96356993               78.06888922                0.01000000               -0.07822105                0.00654750                0.06164734                0.09679892               -0.03715692                0.03009968
               2.88909215                0.96049200               78.07177125                0.01000000               -0.45766876                0.18782027                0.01845274                0.58403818               -0.11356437                0.11829921
               3.88125572                0.96934110               78.07601836                0.01000000               -0.43579902                0.06548937                0.02908484                0.99861130                0.06555569                0.04371087
               4.88037616                0.97990796               78.08143206                0.01000000               -0.00969278               -0.20362456                0.10079811                0.82068922                0.08989053               -0.08277421
               5.88106187                0.98435416               78.08316519                0.01000001                0.03352492               -0.19658203                0.06635047                0.35722112               -0.12506642               -0.04315633
               6.88104666                0.98715907               78.08418056                0.47751593               -0.01539756               -0.03170502                0.13615236                0.02076637               -0.09645708               -0.07382648
               7.88075392                0.98972843               78.08656585                1.00000000               -0.02960764               -0.03494549                0.11566085                0.00631418               -0.00962776               -0.00610532
               8.88045451                0.99217177               78.08922976                0.99999999               -0.03033586               -0.03323023                0.10900516               -0.00143222                0.00402899                0.00343548
               9.88014720                0.99462588               78.09188582                1.00000000               -0.03073115               -0.03169130                0.10285392               -0.00275081                0.00346977               -0.00231929
              -0.10366960                1.97363430               78.06488100                0.54872689               -0.02311097                0.04209505                0.08175936                0.06786435               -0.00484536                0.06558329
               0.89609929                1.96805918               78.06799829                0.01000000               -0.04854735               -0.09985521                0.08451515                0.14749690                0.01136948                0.00145276
               1.89535946                1.96389724               78.07134399                0.01000001               -0.17836606               -0.01057701                0.02566511                0.46089334                0.01408233                0.09448699
               2.89253197                1.96424284               78.07537245                0.01000000               -0.27595259                0.19741169                0.04353470                0.90969656                0.11706780                0.18644126
               3.88984040                1.96944440               78.07996258                0.01000000               -0.28368920               -0.04376466                0.11838303                1.44738525                0.09239400                0.10442756
               4.88685819                1.97556366               78.08382812                0.01000001               -0.29855052               -0.32116945                0.11235156                1.32562683               -0.00363858               -0.07251728
               5.88386939                1.98065798               78.08644730                0.01000001               -0.41090079               -0.22588321                0.11149274                1.03310623               -0.14645794               -0.01477995
               6.87864017                1.98693237               78.08680022                0.01157781               -0.27610296               -0.08856314                0.06081171                0.54577816               -0.07501681                0.03716265
               7.87834733                1.98936161               78.09036491                0.05336367               -0.03274562               -0.02338534                0.12689949               -0.02938892                0.06323440               -0.10758027
               8.87798526                1.99182692               78.09325417                0.99504818               -0.03455900               -0.03544930                0.11851386                0.00050765                0.01909375                0.01938639
               9.87765615                1.99429346               78.09590045                1.00000000               -0.03291056               -0.03432768                0.10864759               -0.00276517                0.00795555                0.00518719
              -0.09656296                2.97455455               78.06814244                0.38025310               -0.00934807                0.14509048                0.03730956                0.19506070               -0.00399787                0.15936085
               0.90334356                2.96649400               78.07051083                0.01000000                0.00031345               -0.26937156                0.09588051                0.47876288                0.10514885                0.02325585
               1.90344331                2.96335839               78.07469194                0.01000000               -0.08023249               -0.12628240                0.08371884                0.92838240                0.12674647                0.17623446
               2.90173891                2.96444024               78.07913288                0.01000000               -0.22803550               -0.04158225                0.09349028                1.30064598                0.09648562                0.15957760
               3.89888260                2.96846581               78.08352412                0.01049191               -0.30318919               -0.12361720                0.10741006                1.48448563                0.07779814                0.09490872
               4.89567513                2.97348457               78.08738617                0.01000000               -0.42636634               -0.15741051                0.12375376                1.56882596                0.03307488                0.02948852
               5.89035528                2.97983650               78.09037145                0.01000000               -0.62082687               -0.06664274                0.12740198                1.50541582               -0.01579611                0.04259751
               6.88325859                2.98538781               78.09239715                0.01000000               -0.75418411               -0.07030217                0.16000916                1.30677436               -0.09232178                0.13379554
               7.87527159                2.98926072               78.09222822                0.01000001               -0.38628922                0.01000469                0.07338867                0.65988987               -0.00513571                0.09331403
               8.87553281                2.99146279               78.09756477                0.89051610               -0.00563953               -0.03835175                0.13260410               -0.01188692                0.14147798                0.03359399
               9.87515880                2.99393933               78.10007532                0.99999997               -0.03740044               -0.03636850                0.11594983               -0.00158002                0.00274952                0.01524407
              -0.08364728                3.97653611               78.07161288                0.36779913                0.05179888                0.00281898               -0.01627992                0.08400675                0.01196964                0.04531593
               0.91687071                3.96267175               78.07466640                0.01064140               -0.01859275               -0.28451903                0.10788581                0.74293915                0.05333791                0.23772502
               1.91598086                3.96137159               78.07879148                0.01000000               -0.17166174               -0.17352734                0.10726554                1.34185603                0.10058152                0.19700977
               2.91343747                3.96341119               78.08292594                0.01049190               -0.27475421               -0.14231396                0.10958227                1.50285389                0.09247356                0.16207300
               3.91048578                3.96697206               78.08706758                0.01000000               -0.32867269               -0.19024630                0.11618635                1.70743333                0.07666563                0.09966007
               4.90686402                3.97241545               78.09094113                0.01000000               -0.42056554               -0.13293433                0.12281783                1.90786148                0.05379751                0.05684979
               5.90207447                3.97932512               78.09439842                0.01000000               -0.57562917               -0.07119447                0.12849551                2.02867374                0.03205937                0.04160538
               6.89535144                3.98552633               78.09730205                0.01000000               -0.83021560                0.00982295                0.12600375                1.99684956                0.04358746                0.07238929
               7.88547016                3.98956170               78.09995704                0.01043170               -1.11412621                0.05545750                0.14185411                1.88001799                0.17190513                0.19463281
               8.87306891                3.99105988               78.10188369                0.01000000               -0.63993446               -0.12344098                0.13422489                1.60399012               -0.02636998                0.13226557
               9.87267147                3.99356609               78.10432303                0.01732316               -0.03974435               -0.97115950                0.12017992                1.71692010                0.00524813                0.17160256
              -0.06715411                4.97461093               78.07460845                0.49959493                0.05209696               -0.21103325                0.04539280                0.12525876               -0.01543870                0.13382598
               0.93336686                4.96080362               78.07967909                0.01000000               -0.16524489               -0.08972885               -0.03057497                0.75128838               -0.12872898                0.20489879
               1.92954100                4.95988784               78.08277376                0.01000001               -0.35856694               -0.14049672                0.11111512                1.36580988               -0.06243803                0.15964154
               2.92619553                4.96159396               78.08647031                0.01000000               -0.27569929               -0.26778580                0.10981804                1.56997657                0.02517338                0.14431085
               3.92402701                4.96466088               78.09054174                0.01000000               -0.23581129               -0.29538927                0.11499189                1.88040691                0.05438852                0.10374138
               4.92147930                4.97082589               78.09456380                0.01000000               -0.31045707               -0.22546224                0.11962325                2.21835512                0.04282490                0.06227069
               5.91781787                4.97841261               78.09825040                0.01000007               -0.42601490               -0.13486287                0.11942039                2.41004265                0.01847792                0.04035310
               6.91295900                4.98558427               78.10158919                0.01000001               -0.52397336               -0.03938260                0.10510511                2.47636988               -0.00362292                0.03098041
               7.90733840                4.99036987               78.10484722                0.01000000               -0.46753910               -0.02821544                0.09578355                2.42922788               -0.09083649                0.15853663
               8.90360822                4.98899397               78.10810051                0.01000002               -0.14268090               -0.27486121                0.10304140                2.01779555               -0.00349325                0.21366619
               9.90448478                4.97451614               78.11157676                0.01000002                0.08765650               -1.15933627                0.10156553                1.35895741                0.00298508                0.35558987
              -0.05352748                5.97231545               78.07713844                0.71070861                0.01470417               -0.18029308                0.06413921                0.09114526               -0.00408363                0.04383356
               0.94661956                5.96087718               78.08215413                0.01000001               -0.19828983                0.02127336               -0.00701744                0.50986764               -0.07687267                0.02371519
               1.94250672                5.95856166               78.08578085                0.01000001               -0.32777968               -0.19884409                0.07813962                1.08766601               -0.07128842                0.06717577
               2.94006397                5.95805547               78.08966938                0.01000000               -0.18223658               -0.43884341                0.10478890                1.47890608               -0.01130156                0.10953535
               3.93886199                5.96106427               78.09379770                0.01000000               -0.12922841               -0.46094770                0.10985231                1.93193278                0.01503444                0.09106530
               4.93747940                5.96790620               78.09789023                0.01000000               -0.16725266               -0.36941260                0.11173198                2.36453082                0.01982487                0.04423731
               5.93551694                5.97662786               78.10195339                0.01000000               -0.22789133               -0.21843521                0.10284815                2.58149060                0.01315400                0.02737681
               6.93292157                5.98473868               78.10598192                0.01000000               -0.24359584               -0.11302154                0.09443552                2.55832310               -0.00114652                0.07246049
               7.93064502                5.98899739               78.10977232                0.01000002               -0.18215090               -0.11882537                0.10642375                2.21330054               -0.00237461                0.14361862
               8.92927855                5.98556266               78.11373803                0.01000001               -0.09193741               -0.19115924                0.10984092                1.40896453               -0.01636328                0.16767924
               9.92880627                5.97037937               78.11804749                0.01000000               -0.04722816               -0.12685430                0.10030294                0.72552429               -0.01495073                0.28423445
              -0.04245466                6.97100507               78.07826844                0.99999999               -0.02273351               -0.09359323                0.09802981                0.05574650               -0.01001089                0.00130958
               0.95731800                6.96122908               78.08315304                0.01000001               -0.17146601                0.01268502                0.07485728                0.25768971               -0.02426150               -0.05745748
               1.95411602                6.95591096               78.08764825                0.01086879               -0.20234863               -0.32152624                0.08525582                0.78402377               -0.02963413                0.00537843
               2.95327103                6.95281709               78.09209348                0.01000000               -0.06505412               -0.50918253                0.10543024                1.16204682                0.00596498                0.06158551
               3.95281494                6.95544193               78.09662478                0.01000000               -0.00323516               -0.77368197                0.10618451                1.86347719               -0.00112113                0.08482002
               4.95320633                6.96343763               78.10081431                0.01000001               -0.00998647               -0.48289516                0.09109523                2.38961818               -0.00370946                0.01086995
               5.95261521                6.97404390               78.10548320                0.01000000               -0.07251978               -0.25183959                0.09017874                2.51430258                0.05420051                0.01135310
               6.95175593                6.98332384               78.11015174                0.01000002               -0.09173866               -0.16569972                0.11517617                2.35180204                0.04451542                0.04648770
               7.95078043                6.98799336               78.11472957                0.01000001               -0.06751983               -0.02766586                0.11173378                1.97871613                0.03860634                0.12954423
               8.95040554                6.98517078               78.11911784                0.01000001               -0.07092913                0.06751440                0.12966788                1.12338688               -0.01104859                0.12377665
               9.94936185                6.97197905               78.12315985                0.01000000               -0.10436845                0.24909596                0.15931004                0.49141967               -0.06544464                0.25322661
              -0.03286059                7.97044358               78.07967412                1.00000000               -0.02719557               -0.05138557                0.10671485                0.00748981               -0.00414733                0.01063613
               0.96686746                7.96113088               78.08431760                1.00000000               -0.02701110               -0.01888253                0.09857411                0.01737580               -0.01180086               -0.02488072
               1.96659919                7.95213113               78.08877027                0.01000000               -0.15467610               -0.20516764                0.09861376                0.41270144                0.00192622               -0.03291226
               2.96377394                7.94787182               78.09365365                0.01000001               -0.05441015               -0.49760692                0.10822942                0.77491816                0.03888769                0.03254473
               3.96551099                7.94559064               78.09876060                0.01039971                0.14479257               -1.07402663                0.10622413                1.62594202                0.02272561                0.12248924
               4.96666979                7.95824830               78.10343235                0.01000000                0.02028962               -0.44174949                0.08505845                2.32784542                0.11489609               -0.07485529
               5.96591678                7.97159107               78.10869786                0.01000002               -0.03308174               -0.21002425                0.09705258                2.12170923                0.12642006                0.01521331
               6.96600815                7.98142469               78.11401298                0.01000001                0.12278100               -0.17076416                0.10578626                1.92411710                0.10978810                0.05556648
               7.96837240                7.98844408               78.11962180                0.01000001                0.08762235               -0.08831082                0.10337133                1.56559804               -0.00597234               -0.01122662
               8.96776060                7.98691295               78.12436918                0.01071496               -0.16771394                0.23260381                0.15101804                0.98748111               -0.01620662                0.25575674
               9.96501812                7.97536129               78.12896915                0.01000002               -0.27424773                0.78531243                0.19913610                0.51486209               -0.02300181                0.36532736
              -0.02367946                8.96997736               78.08124675                0.99999998               -0.03425776               -0.04328803                0.11652579                0.00112385                0.00029430                0.01221332
               0.97597797                8.96085143               78.08580193                0.99999999               -0.03457221               -0.03177459                0.11423359               -0.00079607                0.00109089               -0.00401977
               1.97562910                8.95180761               78.09035496                0.99999998               -0.03340368               -0.03339707                0.11252112                0.00208563               -0.00120899               -0.00612139
               2.97530989                8.94286495               78.09483674                0.96338232               -0.03359006               -0.26879274                0.11691958                0.13091227               -0.00222740               -0.02759600
               3.97495730                8.93396140               78.09931574                0.01000000               -0.07735463               -0.60043993                0.11942305                1.50415105                0.10780132               -0.06369829
               4.97376280                8.95460264               78.10600796                0.01000002               -0.15421455               -0.17740681                0.09630496                1.88646604                0.19785377               -0.00696742
               5.97187301                8.96984342               78.11196830                0.01000001               -0.01887661               -0.15442994                0.10150597                1.30987964                0.18313204               -0.00618748
               6.97338527                8.97990856               78.11816729                0.01331913                0.23655623               -0.15528605                0.10751028                1.05671473                0.17986562                0.06178396
               7.97660413                8.98622714               78.12354306                0.01000001                0.49263393               -0.28733924                0.11114286                0.79077862                0.24049347               -0.04395230
               8.98323795                8.98982286               78.13159221                0.99937648                0.30791396                0.12219531                0.14302441                0.95886367                0.19792126                0.21989004
               9.98276241                8.98768530               78.13552947                0.99993405               -0.04755351                0.58721311                0.17714429                0.78081434               -0.00784230                0.17127404
              -0.01458626                9.96957782               78.08280191                1.00000000               -0.03924529               -0.03995353                0.12940038                0.00107562                0.01107254                0.01010014
               0.98502128                9.96049538               78.08735853                0.99999999               -0.03931741               -0.03560488                0.12771022               -0.00139971                0.01466293               -0.00026092
               1.98462739                9.95146319               78.09198437                0.99999999               -0.03914438               -0.03444170                0.12395154               -0.00014196                0.01808045               -0.00302094
               2.98423840                9.94249597               78.09658503                0.99999998               -0.03855353               -0.03689813                0.12292020               -0.00121751                0.01392043               -0.00033788
               3.98385632                9.93358184               78.10110667                0.01827369               -0.78606540               -0.03795592                0.12388534                1.50011167                0.16051600               -0.00459460
               4.96851709                9.95470017               78.10865317                0.01000000               -0.85239280                0.00975220                0.10695480                1.22146051                0.31930982               -0.00545086
               5.96680846                9.96850247               78.11536633                0.01000001                0.11208163               -0.13409449                0.10214283                0.67448531                0.28951570               -0.02853087
               6.97075872                9.97831896               78.12177884                0.01000000                0.37326063               -0.15895924                0.14825060                0.44708621                0.30811837                0.03667442
               7.97427367                9.98269729               78.12772273                0.01000000                0.73604989               -0.35298526                0.13622219                0.31884862                0.23315189                0.03659425
               8.98547972                9.98935685               78.13457116                0.99992010                0.53179244               -0.04660036                0.17141148                0.44459003                0.15289331                0.00729138
               9.98490952                9.98710555               78.13850842                1.00000000               -0.05701953               -0.05797505                0.20553229               -0.01041922                0.00741359               -0.00749544
              -0.11730714               -0.02836884               79.06125553                0.99979383               -0.01672882               -0.01780698                0.09193259               -0.00279873                0.00813746               -0.00893151
               0.88252557               -0.03339820               79.06439185                1.00000000               -0.00913468               -0.03234957                0.07966731                0.00098727                0.01832277               -0.00257817
               1.88251016               -0.03805912               79.06765763                0.46599304                0.09634532               -0.01530448                0.06816293                0.14604162                0.09282210                0.00388887
               2.88445248               -0.03934995               79.07196993                0.37415938                0.16107974                0.02399681               -0.04611808                0.13312816                0.06942153               -0.00465481
               3.88573176               -0.03418858               79.07435676                0.34039419               -0.03280067                0.05896686                0.02045700                0.11146429               -0.10320098               -0.03475648
               4.88379646               -0.02546416               79.07673569                0.49460956               -0.19259241                0.03890754                0.05650945                0.15032632                0.03756817               -0.02322082
               5.88187991               -0.01990230               79.07944456                0.92873548               -0.12668503               -0.00635220                0.06568475                0.10495060                0.00597637               -0.00822507
               6.88126276               -0.01658276               79.08149311                1.00000000               -0.05740281               -0.02842875                0.10785414                0.01739733               -0.02714948               -0.01162542
               7.88073185               -0.01391506               79.08373648                1.00000000               -0.04748992               -0.03026917                0.10713249               -0.00001268               -0.01377979               -0.00220338
               8.88031296               -0.01151133               79.08627813                0.99999999               -0.03713673               -0.03156170                0.10214986               -0.00336352               -0.00355753                0.00037173
               9.87998912               -0.00912400               79.08887661                1.00000000               -0.03238438               -0.03150189                0.09932189               -0.00319068               -0.00354205               -0.00465171
              -0.11230577                0.97145309               79.06342596                1.00000000               -0.03136420               -0.00874849                0.08797238                0.00486128               -0.00889390               -0.00521631
               0.88738058                0.96627831               79.06651237                0.01000000               -0.03738831               -0.04458491                0.07750352                0.03863171               -0.01829929                0.00598734
               1.88694646                0.96178783               79.06949104                0.01000000               -0.17660498                0.01616842                0.06355810                0.16999644               -0.03862385                0.01446511
               2.88384848                0.96089001               79.07255853                0.01000000               -0.35214788                0.09246670                0.08992343                0.48410683               -0.06821893                0.14466937
               3.87990350                0.96640109               79.07648670                0.01070005               -0.28459485                0.04342132                0.06190535                0.70316562                0.23401025                0.05845705
               4.87815659                0.97492492               79.08102470                0.01000000               -0.07073930               -0.12673467               -0.02121749                0.66028575                0.11525441               -0.03330808
               5.87848872                0.98003418               79.08360842                0.01000001                0.01432623               -0.16153921                0.03608546                0.36247679               -0.03281021               -0.01529318
               6.87844311                0.98313296               79.08548700                0.21165934               -0.01463510               -0.00904089                0.11048741                0.02036955               -0.05229949               -0.11140066
               7.87819601                0.98578225               79.08772323                0.99784088               -0.02796561               -0.03313494                0.11388541                0.00608188               -0.01247993               -0.00171247
               8.87788380                0.98817305               79.09032380                0.99999999               -0.03130664               -0.03393519                0.10916485               -0.00309256                0.00503432                0.00366806
               9.87756988                0.99056098               79.09293372                0.99978780               -0.03139183               -0.03412556                0.10627965               -0.00339172                0.00447301               -0.00579612
              -0.10686035                1.97145619               79.06564635                0.58033441               -0.01761843                0.04173614                0.07672433                0.06760904               -0.00223763                0.01966642
               0.89296346                1.96571011               79.06883818                0.01000000               -0.09206292               -0.12501094                0.08080432                0.20218496               -0.02829587                0.02976005
               1.89129839                1.96226424               79.07143787                0.01000001               -0.17210546               -0.01126521                0.05820086                0.49546948               -0.13375012                0.14750352
               2.88952135                1.96249938               79.07592753                0.01000000               -0.27691115                0.07249656                0.11276150                0.91387551               -0.35987353                0.18557553
               3.88576017                1.96667985               79.08121421                0.01000000               -0.30761307               -0.02713827                0.02119572                1.24270672               -0.20804278                0.10449462
               4.88336909                1.97200115               79.08504119                0.01000001               -0.24193782               -0.24454579                0.08882669                1.22414171               -0.06825457                0.00761516
               5.88092141                1.97686691               79.08747989                0.01000001               -0.37235077               -0.19244712                0.08431705                1.02763792               -0.17837587                0.02603481
               6.87592208                1.98323643               79.08730017                0.01109909               -0.25540070               -0.08508312                0.05858212                0.59742572               -0.05957386                0.05833836
               7.87581339                1.98542225               79.09165876                0.01015684               -0.02248469               -0.02738613                0.12518662               -0.03014260                0.10670942               -0.11807908
               8.87547238                1.98780997               79.09442223                0.99999997               -0.03339844               -0.03700321                0.11755364               -0.00097968                0.01848629                0.02287480
               9.87514543                1.99019349               79.09699012                0.99976849               -0.03269563               -0.03746165                0.11335353               -0.00225643                0.00872133                0.00174230
              -0.09946142                2.97228781               79.06824018                0.38156847                0.00776532                0.10050460                0.01996643                0.12590550               -0.00060630                0.05037805
               0.90061623                2.96377809               79.07155711                0.01000000               -0.02359994               -0.27884483                0.09290516                0.47413571                0.04324842                0.11300835
               1.90006658                2.96156253               79.07563645                0.01000000               -0.14529190               -0.13676334                0.11168078                0.98621428                0.04684013                0.27105250
               2.89771039                2.96233994               79.08011751                0.01000000               -0.24053556               -0.05562230                0.09526755                1.24273787                0.07923785                0.20556109
               3.89525587                2.96585833               79.08454861                0.01058031               -0.26290174               -0.11599331                0.09834651                1.45593020                0.05092309                0.04692467
               4.89245236                2.97003400               79.08846562                0.01000000               -0.37248333               -0.13656571                0.08765787                1.53534383                0.01162199               -0.00319981
               5.88780620                2.97618523               79.09148249                0.01000000               -0.53080304               -0.05933825                0.09712420                1.48940786                0.01430697                0.05535684
               6.88183629                2.98143129               79.09422459                0.01000000               -0.73932885               -0.08839915                0.13813849                1.31839754               -0.02867322                0.16342667
               7.87301962                2.98523453               79.09327129                0.01000000               -0.43716667               -0.01633012                0.20691393                0.78026082                0.29193820               -0.04960392
               8.87309296                2.98743299               79.09885233                1.00000000               -0.01309587               -0.03571837                0.12170018               -0.01038995                0.15910874                0.03506975
               9.87275770                2.98981175               79.10122443                0.99999997               -0.03352571               -0.03527322                0.11152635                0.00057104               -0.00015421                0.01196616
              -0.08732280                3.97346628               79.07148606                0.32893973                0.04942589                0.00553441               -0.00896092                0.05050226               -0.01027044                0.07116980
               0.91317146                3.96013321               79.07548012                0.01060204               -0.01081918               -0.26268287                0.07030133                0.69881501                0.00301564                0.19476824
               1.91246082                3.95952898               79.07979147                0.01000000               -0.15455748               -0.17384273                0.09491396                1.31577074                0.05352213                0.21187485
               2.91008031                3.96138693               79.08400765                0.01056633               -0.26380547               -0.13657723                0.10668376                1.47823719                0.07375555                0.16018514
               3.90718471                3.96435998               79.08820942                0.01000000               -0.31656265               -0.17990056                0.10396753                1.65682099                0.07812758                0.08765910
               4.90374906                3.96926984               79.09212803                0.01000000               -0.39362175               -0.10627296                0.10688042                1.84893031                0.06224324                0.04455604
               5.89931227                3.97568015               79.09564358                0.01000000               -0.52541645               -0.06102193                0.11511793                1.94832999                0.04744554                0.03835231
               6.89324073                3.98146844               79.09844614                0.01000000               -0.69476794               -0.00279530                0.11390358                1.86696513                0.05864257               -0.00970254
               7.88541692                3.98509564               79.10104743                0.01108029               -1.12766833                0.08779729                0.10703952                1.78802706                0.06975272                0.20778088
               8.87068736                3.98709560               79.10319268                0.01000002               -0.75087954               -0.11369185                0.11370764                1.57666386               -0.00612095                0.11100903
               9.87039933                3.98948803               79.10550709                0.01000000               -0.02880387               -0.93684678                0.10420114                1.65381007                0.00491713                0.15442408
              -0.07178523                4.97239850               79.07516166                0.38994868                0.03150668               -0.15038478                0.04325056                0.07360647               -0.00437949                0.10891598
               0.92852983                4.95852443               79.07959252                0.01000000               -0.15432491               -0.04323784               -0.00611043                0.71957997               -0.04405671                0.11963672
               1.92512827                4.95808567               79.08342379                0.01000001               -0.30428515               -0.13726564                0.06219295                1.33169878               -0.02864156                0.14644102
               2.92244413                4.95960840               79.08752430                0.01000000               -0.23094428               -0.25478745                0.09508668                1.49949068                0.03422098                0.12171645
               3.92050938                4.96226031               79.09165815                0.01000000               -0.21666675               -0.27459817                0.10533834                1.80108018                0.06384923                0.08359886
               4.91811079                4.96790854               79.09576340                0.01000000               -0.29675954               -0.20447907                0.11313378                2.13040625                0.06152243                0.05351888
               5.91457419                4.97496480               79.09945134                0.01018587               -0.41753458               -0.11655161                0.11751011                2.29656536                0.03641240                0.02799983
               6.90976010                4.98137539               79.10264644                0.01000007               -0.57105922               -0.02947298                0.10750675                2.39671975                0.01783818                0.00353568
               7.90315301                4.98699048               79.10580334                0.01000000               -0.47631236                0.01160083                0.09969518                2.25717552               -0.04734118                0.13514453
               8.90023386                4.98515915               79.10910856                0.01004267               -0.10519777               -0.26539108                0.11001272                1.93361436                0.00463015                0.18454796
               9.90104905                4.97107481               79.11256983                0.01000000                0.08151955               -1.11989409                0.09337855                1.31351444                0.01293613                0.32630162
              -0.05810253                5.97045859               79.07776376                0.75853567               -0.00215803               -0.14252300                0.06737065                0.10691821                0.01262568               -0.00356050
               0.94187589                5.95926845               79.08213371                0.01000001               -0.19433210                0.05098370                0.01489822                0.51633009               -0.00748591                0.04923057
               1.93801083                5.95678367               79.08640934                0.01000001               -0.29902026               -0.18280572                0.05921920                1.06682625               -0.00555973                0.06794069
               2.93589548                5.95629118               79.09061240                0.01000000               -0.15523294               -0.40903636                0.08375580                1.42575271                0.02707939                0.07196056
               3.93490617                5.95886802               79.09484436                0.01000000               -0.11213907               -0.42354696                0.10237778                1.84011659                0.03518505                0.06881608
               4.93365270                5.96518025               79.09901934                0.01019407               -0.15647156               -0.35616688                0.11180857                2.25217045                0.03849937                0.02999040
               5.93177674                5.97334912               79.10298267                0.01032506               -0.22516292               -0.20622741                0.10314033                2.46859420                0.03581748                0.02899028
               6.92914944                5.98087898               79.10692326                0.01000000               -0.25000376               -0.09674056                0.09961130                2.47628957                0.02321698                0.02639407
               7.92677666                5.98532766               79.11090673                0.01000002               -0.19370658               -0.13975587                0.11853257                2.21729232                0.01318970                0.12657910
               8.92527531                5.98178778               79.11500334                0.01000001               -0.09691865               -0.18666811                0.12252325                1.35987699                0.00294927                0.19451792
               9.92483829                5.96709014               79.11895311                0.01000000               -0.04370235               -0.11655619                0.10616919                0.67381113               -0.00928602                0.30522316
              -0.04726660                6.96954804               79.07922948                0.99999999               -0.02020424               -0.07653864                0.09413622                0.02984013               -0.00521475               -0.02091884
               0.95253136                6.95954411               79.08379002                0.01000000               -0.16456686                0.01088179                0.06398645                0.26250488               -0.00369315               -0.01606959
               1.94944206                6.95442956               79.08839030                0.01066812               -0.18282629               -0.31904515                0.07699078                0.79319988                0.00840914                0.00806477
               2.94887483                6.95142767               79.09304200                0.01000000               -0.05097089               -0.46812385                0.08692039                1.13470191                0.01601642                0.04273460
               3.94842264                6.95378938               79.09755267                0.01000000               -0.01008624               -0.66040307                0.08875818                1.76444175                0.00029452                0.03203279
               4.94867311                6.96078521               79.10170234                0.01000007               -0.00876484               -0.51914878                0.09658082                2.31038804               -0.00877174                0.00987990
               5.94824735                6.97084025               79.10637737                0.01000000               -0.06828770               -0.24946137                0.09657530                2.42926231                0.02791572                0.01212532
               6.94730735                6.97944058               79.11135588                0.01000002               -0.08286435               -0.15382350                0.12332637                2.28335696                0.02441873                0.01519476
               7.94659006                6.98419536               79.11600981                0.01000000               -0.08192201               -0.08687958                0.13911658                1.89304445                0.04057976                0.12444221
               8.94566891                6.98142579               79.12072622                0.01000001               -0.13347596                0.10875945                0.14317806                1.12024638                0.01209306                0.23066420
               9.94392054                6.96874369               79.12541531                0.01000000               -0.17483713                0.34687671                0.15624218                0.51280784               -0.03403621                0.28194037
              -0.03749786                7.96892781               79.08076395                1.00000000               -0.02576720               -0.05603597                0.10731905                0.00827021               -0.00491597               -0.00902172
               0.96224447                7.95948609               79.08528775                1.00000000               -0.02554413               -0.01652042                0.09590644                0.01961509               -0.00842044               -0.01582486
               1.96199126                7.95040276               79.08972701                0.01000000               -0.15073820               -0.21693830                0.09449405                0.45541431                0.01066620               -0.02379678
               2.95922971                7.94692871               79.09461398                0.01000000               -0.05768946               -0.51734457                0.10153029                0.85920785                0.04170217                0.00613453
               3.96083747                7.94565996               79.09940406                0.01104349                0.17899428               -1.08391123                0.07976568                1.49551311                0.05150267                0.02619519
               4.96280959                7.95479728               79.10427859                0.01000000                0.04345716               -0.44654863                0.08768294                2.17006145                0.11460846               -0.05821595
               5.96170661                7.96835989               79.10968949                0.01000002               -0.06740597               -0.21713074                0.11109270                2.11370128                0.11298199               -0.00472812
               6.96146147                7.97780251               79.11529359                0.01000000                0.04728625               -0.16384116                0.13841747                1.83581095                0.11511016                0.00759434
               7.96265234                7.98359007               79.12111067                0.01000001                0.08352185               -0.11641116                0.14024190                1.59459291                0.04418968                0.02142151
               8.96313191                7.98396297               79.12646257                0.01000007               -0.10968467                0.26765273                0.19943552                1.19109936                0.06981887                0.37516113
               9.96045865                7.97402768               79.13083172                0.01000002               -0.26732641                0.78713281                0.25750080                0.73925082                0.06275370                0.44502269
              -0.02821775                8.96842732               79.08241002                0.99999999               -0.03335443               -0.04519533                0.11508982                0.00129610                0.00005388               -0.00048187
               0.97144871                8.95921370               79.08693315                0.99999999               -0.03372626               -0.03118916                0.11197612               -0.00067670                0.00101946               -0.00487219
               1.97110773                8.95009079               79.09146015                0.99999999               -0.03234589               -0.03242375                0.10982593                0.00264183                0.00262489               -0.00268208
               2.97080179                8.94108078               79.09600395                0.99853162               -0.03216976               -0.31018652                0.11469221                0.12911692                0.00354465               -0.02129257
               3.97046433                8.93211115               79.10053735                0.01000002               -0.07136948               -0.69531195                0.11768812                1.46810283                0.09825313               -0.03756776
               4.96937440                8.95185423               79.10695184                0.01011704               -0.14740979               -0.14341213                0.10219269                1.80165859                0.17013777               -0.01091305
               5.96751614                8.96649763               79.11307176                0.01000001               -0.02905052               -0.15476075                0.10984580                1.26441291                0.15001289               -0.01210707
               6.96879339                8.97616375               79.11894726                0.01000001                0.24026635               -0.16989016                0.11062009                1.00396248                0.11912255               -0.01423309
               7.97232146                8.98186714               79.12505551                0.01000002                0.51299483               -0.25270653                0.16460038                0.92436083                0.27630255                0.00102581
               8.97905329                8.98677884               79.13303086                0.99967620                0.31273338                0.11730268                0.14453452                1.04662531                0.17768483                0.17313735
               9.97857613                8.98448635               79.13729901                0.99999999               -0.04771562                0.49410487                0.17655660                0.79161632               -0.00779540                0.15259948
              -0.01904469                9.96802391               79.08410187                1.00000000               -0.03878461               -0.04034147                0.12864846                0.00114556                0.00557732                0.00248436
               0.98056747                9.95886231               79.08863391                1.00000000               -0.03891493               -0.03513930                0.12633044               -0.00160540                0.00838883               -0.00132350
               1.98017701                9.94975429               79.09320684                1.00000000               -0.03878896               -0.03365053                0.12173762                0.00006203                0.01234965               -0.00136388
               2.97979169                9.94072498               79.09781192                0.99999998               -0.03754694               -0.03558043                0.12022025               -0.00103897                0.01180000                0.00083738
               3.97942607                9.93175372               79.10236819                0.05517287               -0.76677026               -0.03574319                0.12114979                1.45637708                0.15046387               -0.00064442
               4.96445628                9.95192904               79.10971853                0.01000000               -0.83703613                0.00748029                0.10542160                1.18373572                0.29471115               -0.00487592
               5.96268535                9.96526467               79.11637661                0.01020369                0.08574687               -0.12329579                0.10886673                0.64070511                0.23520160               -0.00587174
               6.96617122                9.97440471               79.12274056                0.01000000                0.39195563               -0.17590433                0.12273515                0.40134585                0.15004400               -0.04260468
               7.97052446                9.97853594               79.12867081                0.01000001                0.76369929               -0.33311978                0.15004617                0.41551548                0.35931786               -0.03190390
               8.98144520                9.98630902               79.13629001                0.99999999                0.51757513               -0.04698242                0.17215613                0.50788352                0.17488067                0.00733850
               9.98087597                9.98390978               79.14055815                0.99999991               -0.05692375               -0.05765705                0.20417847               -0.00994091                0.00746926               -0.00744325
              -0.12029146               -0.03060890               80.06218995                0.99944616               -0.01370151               -0.01735983                0.09371655               -0.00334679                0.00863810               -0.00716241
               0.87957153               -0.03551265               80.06517802                1.00000000               -0.00029028               -0.03228322                0.07707390                0.00470474                0.01328887                0.00315623
               1.87970274               -0.03982274               80.06823937                0.52958221                0.08700767               -0.00982578                0.05292364                0.12520987                0.03197689                0.00413855
               2.88131168               -0.04078388               80.07149958                0.43242286                0.13758047                0.02116706               -0.03152728                0.09215969               -0.00975631                0.00818115
               3.88245435               -0.03682040               80.07437189                0.34277342               -0.00953313                0.04731914               -0.00372300                0.07042103               -0.03403504               -0.01542351
               4.88112102               -0.02940628               80.07730449                0.46588511               -0.15580749                0.03425867                0.05150780                0.08974180                0.01280671               -0.00578918
               5.87933820               -0.02390259               80.08007821                1.00000000               -0.11784088               -0.00844379                0.06852725                0.09813998               -0.01647648                0.00557752
               6.87876420               -0.02065382               80.08248912                1.00000000               -0.05825334               -0.02221831                0.09725241                0.00944264               -0.03078935               -0.00549651
               7.87817313               -0.01795705               80.08481756                1.00000000               -0.05320614               -0.02710515                0.10635100                0.00251029               -0.02552756                0.00001376
               8.87770008               -0.01559239               80.08731035                0.99999999               -0.04107752               -0.03065870                0.10309510               -0.00168331               -0.01339696               -0.00051066
               9.87735158               -0.01327997               80.08990052                1.00000000               -0.03484983               -0.03235810                0.10393957               -0.00223531               -0.00958940               -0.01000455
              -0.11542117                0.96921750               80.06431746                1.00000000               -0.03533288               -0.00888452                0.08992151                0.00437355               -0.00496598               -0.00893206
               0.88422550                0.96416452               80.06728939                0.01000000               -0.04941872               -0.04388538                0.07710181                0.05159092               -0.01137073                0.01500557
               1.88359045                0.96007900               80.07016038                0.01000000               -0.17466969                0.02623247                0.06744878                0.05778168                0.00282600                0.02789821
               2.88073211                0.95942779               80.07356972                0.08292085               -0.30603473                0.05896246                0.09032271               -0.10898612                0.07301457                0.10364319
               3.87746976                0.96365280               80.07725647                0.01085303               -0.25862845                0.01463918                0.07215485                0.28100262                0.13735933               -0.01155456
               4.87555954                0.97093630               80.08100771                0.01000000               -0.07631964               -0.11593354                0.00583807                0.52332828                0.06762975                0.03770935
               5.87594337                0.97601297               80.08388689                0.01000001                0.01631608               -0.13964042                0.03574576                0.34461957                0.01189794                0.02235127
               6.87588586                0.97912400               80.08639031                0.02458779               -0.01379236                0.00076838                0.08276969                0.01322751               -0.01238308               -0.11879860
               7.87566752                0.98177190               80.08884356                0.99999999               -0.02705762               -0.02954873                0.10732138                0.00816775               -0.00619007                0.00215462
               8.87534471                0.98410103               80.09141305                0.99999999               -0.03253540               -0.03258628                0.10824801               -0.00259514                0.00162267                0.00467152
               9.87501681                0.98639645               80.09401141                0.99942645               -0.03278951               -0.03412122                0.10932042               -0.00329636                0.00246880               -0.00830164
              -0.11009801                1.96921341               80.06641548                0.57366723               -0.01601343                0.02524451                0.08063531                0.05023433                0.00071114               -0.01247519
               0.88974185                1.96360964               80.06961438                0.01000000               -0.21534424               -0.10261483                0.07343412                0.20376296               -0.01491122                0.05301914
               1.88559510                1.96070191               80.07250801                0.01000001               -0.70918447                0.01734210                0.20387384                0.45074918               -0.04022548                0.16608429
               2.87555816                1.96039537               80.07762768                0.01000000               -0.45146081                0.05217750                0.06803566                0.82249424               -0.46340304                0.09166454
               3.87656589                1.96347239               80.08038650                0.01000000                0.18346246               -0.06218556               -0.05122590                1.09814395               -0.22429323                0.11808951
               4.87922741                1.96827505               80.08560466                0.01000001                0.07385049               -0.23012852                0.00251480                1.16231820                0.03328084                0.04724302
               5.87804290                1.97330460               80.08813364                0.01078960               -0.29787934               -0.16165140                0.07375094                1.00127899               -0.13800901                0.06983109
               6.87326982                1.97936155               80.08797187                0.01073250               -0.23417180               -0.08068112                0.08967995                0.65789245               -0.00993060                0.03793828
               7.87335946                1.98145197               80.09286864                0.01089767               -0.01231001               -0.14459631                0.11534829                0.26047227                0.13561143               -0.02073546
               8.87302362                1.98375589               80.09560525                0.99180528               -0.03323260               -0.03536435                0.11408448                0.00013835                0.01982444                0.02113995
               9.87269481                1.98603761               80.09816752                0.99653626               -0.03288176               -0.03673855                0.11378044               -0.00209281                0.01132521               -0.00556125
              -0.10320895                2.96972239               80.06854177                0.30562016                0.00212117                0.09123086                0.04844019                0.15184314               -0.00006026               -0.00189044
               0.89681226                2.96211222               80.07236893                0.01000000               -0.04856697               -0.25389673                0.06779789                0.47936045                0.02742359                0.16977680
               1.89581971                2.96042584               80.07692556                0.01000000               -0.12003779               -0.14400819                0.12357740                1.06438979                0.04271151                0.25324629
               2.89441151                2.96047134               80.08103823                0.01000000               -0.21333769               -0.05936279                0.10756985                1.64598557                0.10285531                0.14860886
               3.89155296                2.96240908               80.08549105                0.01068243               -0.27189092               -0.09283414                0.07146155                1.66122279                0.07244063                0.11467871
               4.88897369                2.96633373               80.08913933                0.01000000               -0.33352579               -0.11331253                0.05973509                1.59090859                0.03307720                0.02062781
               5.88488244                2.97277994               80.09231393                0.01000000               -0.40386787               -0.05906419                0.07787299                1.49195104                0.01959724                0.09387346
               6.88089633                2.97751038               80.09515992                0.01000000               -0.41999085               -0.12255560                0.09477493                1.19753222                0.04710579                0.16249164
               7.87648263                2.97887997               80.09636650                0.01000001               -0.50672456               -0.01333517                0.24675462                0.73212903                0.26293201               -0.04107271
               8.87076184                2.98339374               80.09999877                0.89100901               -0.30355545               -0.03660307                0.12027845                0.11224559                0.06560107                0.02277898
               9.87041152                2.98566168               80.10230584                0.99999999               -0.03503240               -0.03642149                0.11570460               -0.00089761               -0.00195398               -0.00668500
              -0.09184081                3.97103803               80.07143366                0.23568073                0.04664201                0.03945787                0.00824992                0.10464414               -0.00294028                0.11645180
               0.90862561                3.95853171               80.07607242                0.01040460                0.01822930               -0.27847298                0.04875458                0.70975209               -0.00976243                0.21121968
               1.90852378                3.95782174               80.08068976                0.01000000               -0.10654921               -0.21135249                0.08841576                1.29465403                0.05034472                0.16809460
               2.90649463                3.95920811               80.08505961                0.01067494               -0.22979167               -0.15239011                0.09490466                1.40140246                0.07082084                0.13623826
               3.90392795                3.96161570               80.08914693                0.01000000               -0.29099516               -0.13555804                0.08645728                1.61563110                0.07903538                0.07937373
               4.90067473                3.96600879               80.09307874                0.01000000               -0.36113366               -0.06643889                0.08247993                1.82252368                0.07512218                0.06569843
               5.89670527                3.97212331               80.09670078                0.01000000               -0.47771434               -0.05732132                0.09752842                1.88411372                0.06697785                0.06828088
               6.89112044                3.97691044               80.09958013                0.01018045               -0.72932983               -0.01662567                0.12140239                1.75646969                0.04305610                0.01078406
               7.88211868                3.98118527               80.10209783                0.01191981               -1.13168054                0.21667455                0.10080897                1.47801075               -0.03574921                0.13518065
               8.86848683                3.98302383               80.10415784                0.01000002               -0.69888505               -0.12597392                0.12366170                1.51481977                0.00052172                0.10931802
               9.86814098                3.98530918               80.10640705                0.01500480               -0.03458535               -0.90327621                0.11731857                1.59900829                0.00446414                0.13607910
              -0.07610342                4.97051155               80.07547346                0.26241585                0.03270162               -0.14308081                0.03167957                0.09441792               -0.01989379                0.17170343
               0.92422359                4.95654276               80.07955688                0.01000000               -0.14300928               -0.04337111                0.01161730                0.74429421               -0.00063055                0.11876549
               1.92103639                4.95619879               80.08401761                0.01000001               -0.27889990               -0.14338846                0.06203624                1.31369175                0.03741481                0.11017762
               2.91864559                4.95742354               80.08837205                0.01000000               -0.19857467               -0.26155646                0.08351894                1.45875207                0.05597578                0.08444540
               3.91706490                4.95969792               80.09264851                0.01000000               -0.18645202               -0.25348162                0.09075177                1.74061103                0.08150372                0.07072076
               4.91491655                4.96500495               80.09682648                0.01000000               -0.27009103               -0.17208616                0.09556235                2.06859704                0.08209368                0.06359649
               5.91166308                4.97163351               80.10060061                0.01080102               -0.39763913               -0.09208359                0.11040693                2.18984996                0.06074666                0.04623416
               6.90696377                4.97717786               80.10373933                0.01080703               -0.58668118               -0.01766565                0.13594975                2.29606808                0.04806646                0.01210620
               7.89992945                4.98321346               80.10684112                0.01000000               -0.50147198                0.00686145                0.12844647                2.22032291                0.02001543                0.09952586
               8.89693433                4.98087426               80.11030077                0.01019526               -0.10542351               -0.25942311                0.10842104                1.85935096                0.06162070                0.17413280
               9.89782098                4.96759615               80.11344433                0.01000000                0.08866510               -1.08354155                0.09927896                1.30119126                0.06872759                0.24887937
              -0.06201487                5.96817641               80.07848586                0.77006472               -0.01608726               -0.14625230                0.07464231                0.16995650                0.01797441                0.00123474
               0.93782426                5.95766428               80.08245209                0.01000001               -0.20341455                0.06054450                0.04916968                0.53186478                0.03559743                0.07749231
               1.93391684                5.95495397               80.08696524                0.01079714               -0.28268602               -0.17220977                0.04797218                1.01542653                0.05717795                0.05107247
               2.93217054                5.95397698               80.09134449                0.01000000               -0.13790460               -0.38766692                0.07808726                1.36877459                0.08354180                0.02726716
               3.93115875                5.95654607               80.09584526                0.01000000               -0.10297309               -0.40875177                0.09677914                1.78428423                0.07656360                0.05007369
               4.93011108                5.96256707               80.10012640                0.01079779               -0.14146914               -0.33144836                0.10914486                2.15126069                0.06387770                0.04009369
               5.92832937                5.97028164               80.10401619                0.01135050               -0.23246108               -0.20269632                0.09619526                2.29234794                0.05842270                0.04428390
               6.92546185                5.97655712               80.10797415                0.01000000               -0.27503142               -0.09602248                0.12720755                2.33444733                0.05249357                0.00395157
               7.92282874                5.98132250               80.11214297                0.01000001               -0.20853491               -0.14675997                0.14854160                2.17852365                0.01620230                0.08764195
               8.92129116                5.97783536               80.11618850                0.01000000               -0.10538618               -0.12747111                0.11658552                1.33117046               -0.02557354                0.22365970
               9.92072101                5.96363834               80.12017088                0.01000000               -0.05701431               -0.09284543                0.07974496                0.65439592               -0.03487399                0.27381880
              -0.05168004                6.96758650               80.08015116                1.00000000               -0.02366318               -0.05469023                0.09074893                0.01713231               -0.00210750               -0.04038021
               0.94808333                6.95775365               80.08443277                0.01000002               -0.16438670                0.00034828                0.07005042                0.25399108                0.01879768                0.00462075
               1.94503222                6.95275459               80.08918806                0.01045213               -0.18271706               -0.31843150                0.09256086                0.77429969                0.02533147                0.02208736
               2.94442898                6.94967020               80.09383189                0.01000000               -0.04358668               -0.44722086                0.07333875                1.07643430                0.03615941                0.01303197
               3.94416049                6.95152289               80.09839995                0.01017703               -0.01113944               -0.67081052                0.10409109                1.72117408                0.03387811               -0.00020476
               4.94420620                6.95837599               80.10274592                0.01078936               -0.03202540               -0.53662980                0.13493682                2.23110743                0.01546641                0.02169060
               5.94351998                6.96757959               80.10741470                0.01000000               -0.07971677               -0.27397636                0.12805868                2.28567405                0.01339477                0.03427507
               6.94261186                6.97525741               80.11261827                0.01010240               -0.06491487               -0.12859656                0.12033841                2.20629982                0.01523257                0.00166746
               7.94222169                6.98027826               80.11751190                0.01000000               -0.06849831               -0.07478446                0.12971161                1.91629514                0.01574922                0.10744050
               8.94124189                6.97832484               80.12198140                0.01000001               -0.14593743                0.21380815                0.11468426                1.18028756               -0.00511180                0.25142767
               9.93930294                6.96573925               80.12628470                0.01000000               -0.19389581                0.43698512                0.11234611                0.58213434               -0.01704217                0.34956264
              -0.04200652                7.96708261               80.08182050                0.99999998               -0.02574944               -0.04783559                0.10246187                0.00663444               -0.00415197               -0.02653808
               0.95773599                7.95767125               80.08623573                0.99999999               -0.02535982               -0.01729116                0.09445295                0.01838173               -0.00398366               -0.00809495
               1.95748629                7.94858534               80.09066015                0.01000000               -0.14025294               -0.22402292                0.09378185                0.44699440                0.02609246               -0.01807816
               2.95493093                7.94503256               80.09568425                0.01000001               -0.03049239               -0.52145160                0.10070161                0.82095629                0.05563273               -0.03690839
               3.95687644                7.94312986               80.10035592                0.01189245                0.18727969               -1.06384918                0.09636383                1.43079449                0.06554557               -0.06002637
               4.95867652                7.95183448               80.10518601                0.01000000                0.01424908               -0.47157730                0.12310338                2.10486006                0.08452329               -0.02264155
               5.95716142                7.96480212               80.11091972                0.01000001               -0.08936737               -0.23327164                0.15335632                2.07542942                0.09252062               -0.01991500
               6.95688918                7.97398519               80.11678133                0.01000000                0.04628964               -0.15402459                0.13588182                1.80984013                0.11030101               -0.00185816
               7.95808721                7.97982681               80.12242664                0.01000001                0.12733737               -0.07953694                0.13153303                1.69756123                0.11321871                0.08206992
               8.95943592                7.98211153               80.12835789                0.01368646               -0.02761646                0.25666614                0.13367533                1.29287431                0.15437503                0.32242983
               9.95753488                7.97237805               80.13411917                0.01000002               -0.19010395                0.76358068                0.14523040                0.76501593                0.18339867                0.34274776
              -0.03272464                8.96662979               80.08354855                0.99999999               -0.03271336               -0.04194009                0.11138576                0.00118925               -0.00033916               -0.01305051
               0.96694823                8.95740783               80.08804145                0.99999999               -0.03322801               -0.03019299                0.10943746               -0.00037762                0.00129012               -0.00561497
               1.96661080                8.94827414               80.09255148                0.99999999               -0.03223172               -0.03214009                0.10868666                0.00217152                0.00615242                0.00165127
               2.96630359                8.93924117               80.09713059                0.99907261               -0.03181649               -0.30678874                0.11238944                0.11769396                0.00731566               -0.02087338
               3.96597447                8.93024590               80.10166950                0.01000002               -0.08362236               -0.66113033                0.11321217                1.38929104                0.09753748               -0.02768339
               4.96463114                8.94894444               80.10805182                0.01028573               -0.15483072               -0.13825959                0.10851186                1.71973104                0.20315242               -0.00690340
               5.96287785                8.96291416               80.11416521                0.01000000               -0.04235873               -0.15133905                0.12163235                1.22807588                0.21208660               -0.05906420
               6.96378397                8.97217692               80.12037969                0.01000001                0.25843608               -0.20524649                0.15010082                1.01747973                0.16966390               -0.00471024
               7.96804658                8.97868752               80.12683506                0.01000002                0.53820874               -0.24990959                0.17648310                1.05523035                0.25111352                0.05973776
               8.97454814                8.98345816               80.13448290                0.99981807                0.30118184                0.04369018                0.14588814                0.99886976                0.14583631                0.13734869
               9.97407021                8.98101086               80.13906061                0.99936691               -0.04779312                0.40301733                0.17579461                0.70465656               -0.00778687                0.06270417
              -0.02353880                9.96624380               80.08537487                1.00000000               -0.03771054               -0.03859878                0.12426517                0.00094260               -0.00037632               -0.00571532
               0.97608409                9.95706739               80.08988513                1.00000000               -0.03824093               -0.03404369                0.12297796               -0.00147641                0.00224779               -0.00253330
               1.97569638                9.94794254               80.09441912                0.99999999               -0.03855258               -0.03315960                0.12007088                0.00002808                0.00609413                0.00084481
               2.97531304                9.93889679               80.09898943                0.99999997               -0.03686979               -0.03443760                0.11701902               -0.00081914                0.00692576                0.00028274
               3.97495898                9.92990726               80.10352966                0.05138382               -0.74550739               -0.03386488                0.11581917                1.40707629                0.14046193                0.00013908
               4.96040289                9.94906928               80.11076160                0.01000000               -0.82342623                0.01248424                0.08873636                1.17057900                0.26534182                0.00867506
               5.95849046                9.96177533               80.11754367                0.01000001                0.05312549               -0.11388206                0.09733917                0.60180947                0.23233410               -0.03623176
               6.96146540                9.96988026               80.12423355                0.01000000                0.47100606               -0.22966581                0.14560669                0.42080764                0.21191472               -0.01122395
               7.96791058                9.97482862               80.13072366                0.01000003                0.78122904               -0.38589050                0.19080403                0.64165387                0.31527897                0.02005824
               8.97708998                9.98298533               80.13801429                0.99931472                0.43060194               -0.04728310                0.17272856                0.53467282                0.14296542                0.00732908
               9.97652262                9.98043839               80.14259199                0.99999991               -0.05673646               -0.05724649                0.20263503               -0.00945287                0.00745635               -0.00743903
              -0.12311052               -0.03276711               81.06312986                1.00000000               -0.01475566               -0.01839703                0.09122697               -0.00291354                0.00581331               -0.00308884
               0.87674193               -0.03755781               81.06593332                0.97024216               -0.00306732               -0.03001220                0.07538893                0.00426923                0.00290012                0.00878154
               1.87682814               -0.04181837               81.06871611                0.45348770                0.06914541               -0.01044639                0.05362248                0.10101182               -0.01483405                0.00477486
               2.87812483               -0.04332661               81.07133938                0.33034526                0.12090077                0.01613870                0.00762374                0.08639348               -0.04178998                0.02093115
               3.87924615               -0.04026621               81.07428230                0.23370466                0.01107189                0.04216015               -0.00175819                0.11366552                0.01025039               -0.01315904
               4.87834627               -0.03298638               81.07776585                0.30983093               -0.14401994                0.03653234                0.04585581                0.09615332                0.05371486               -0.01838197
               5.87636575               -0.02740812               81.08081511                1.00000000               -0.12193231               -0.01661102                0.07830490                0.12239834               -0.02313626                0.01662086
               6.87590763               -0.02449507               81.08343816                1.00000000               -0.04828413               -0.02306946                0.09335936                0.00518247               -0.04314437               -0.00447188
               7.87540007               -0.02196678               81.08586350                0.99999998               -0.04727793               -0.02589568                0.10133424                0.00334610               -0.04127726                0.00240162
               8.87496207               -0.01972695               81.08834003                0.99999999               -0.03915335               -0.03014637                0.10140674               -0.00032121               -0.02693126               -0.00037881
               9.87461700               -0.01754588               81.09095540                0.99999327               -0.03450642               -0.03261766                0.10493140               -0.00133937               -0.01862968               -0.01522480
              -0.11834895                0.96704892               81.06522439                1.00000000               -0.03408003               -0.01252531                0.08950490                0.00264457               -0.00006956               -0.00715136
               0.88131025                0.96214206               81.06805440                0.01000000               -0.04642001               -0.03756199                0.07575613                0.04295161                0.00066491                0.01778234
               1.88072265                0.95807716               81.07084001                0.01000000               -0.15487805                0.03195639                0.06720007                0.01725785                0.04596042                0.12905329
               2.87821269                0.95683478               81.07436499                0.01000000               -0.27549765                0.00953826                0.06949166               -0.18359040                0.13267474                0.00668103
               3.87521270                0.96015539               81.07792980                0.01083778               -0.26669657                0.05366380                0.06293985                0.22976634                0.12107034               -0.08715186
               4.87287876                0.96737894               81.08114146                0.01000000               -0.09343093               -0.10996090                0.02703679                0.51058389                0.04382147                0.01230331
               5.87334408                0.97242577               81.08432333                0.01000001                0.01800130               -0.13776915                0.05536257                0.36617828                0.03936102                0.06545279
               6.87323878                0.97527424               81.08714239                0.01000004               -0.01473043               -0.01396759                0.07704417                0.02146608                0.01018973               -0.09366671
               7.87304947                0.97777426               81.08986966                1.00000000               -0.02451901               -0.02743075                0.09996597                0.00947644                0.00120747                0.00737336
               8.87274840                0.97997159               81.09248876                0.99999999               -0.03134636               -0.03130023                0.10565069               -0.00191943               -0.00153169                0.00351584
               9.87242254                0.98212794               81.09512013                0.99945178               -0.03258607               -0.03331438                0.10968812               -0.00284586               -0.00000479               -0.01577964
              -0.11324392                1.96698238               81.06725905                0.56264758               -0.01833681                0.00914543                0.08687756                0.03245571                0.00126916               -0.02089344
               0.88657271                1.96169095               81.07030686                0.01000000               -0.21377539               -0.07132417                0.06862867                0.16545150                0.10646148                0.05198819
               1.88248057                1.95882075               81.07551534                0.01000001               -0.70989572                0.01842679                0.19182413                0.33510375                0.17728623                0.13697844
               2.87237480                1.95686416               81.07728824                0.01000000               -0.45916266                0.05227024                0.08111528                0.74878155                0.51211354                0.13140933
               3.87329732                1.96080706               81.08018969                0.01000000                0.19563829               -0.03819594                0.06563351                1.06705612                0.42573423                0.09893959
               4.87628757                1.96481440               81.08509149                0.01000001                0.12483493               -0.22032292               -0.00504103                1.12208471                0.23015214                0.09398711
               5.87579402                1.96983650               81.08895491                0.01074975               -0.26495530               -0.14651029                0.05331839                0.96223261               -0.03458324                0.09274864
               6.87098846                1.97522558               81.08909377                0.01047356               -0.24508877               -0.11006838                0.29852089                0.65675823                0.02997840                0.06893374
               7.87089224                1.97748460               81.09396573                0.01024490               -0.02092327               -0.12951846                0.10647816                0.24057079                0.13316229                0.02114971
               8.87056999                1.97964705               81.09670392                0.99795017               -0.03224337               -0.03178083                0.10885252                0.00102320                0.01849697                0.02479314
               9.87024738                1.98178783               81.09926573                0.99999999               -0.03226167               -0.03447130                0.11032245               -0.00182485                0.01031034               -0.00965619
              -0.10711696                2.96723183               81.06920898                0.24604835               -0.01021285                0.09406236                0.08010089                0.17761501               -0.00177179               -0.02333935
               0.89278091                2.96071558               81.07291307                0.01000000               -0.03157633               -0.22606452                0.05309985                0.41806343                0.06192195                0.15820296
               1.89225151                2.95844570               81.07810799                0.01000000               -0.07894488               -0.15109689                0.10474317                0.95822765                0.15173414                0.05783206
               2.89120201                2.95788019               81.08226891                0.01000000               -0.18239642               -0.00431392                0.09244792                1.58052672                0.07773608                0.15123871
               3.88860358                2.95939147               81.08597784                0.01082955               -0.24554981               -0.10085330                0.05389419                1.62706330                0.10581349                0.21523642
               4.88629101                2.96297248               81.08966032                0.01000000               -0.32130170               -0.09588706                0.05901163                1.57570928                0.09557729                0.13746640
               5.88217755                2.96949557               81.09303995                0.01000000               -0.37825845               -0.05387041                0.08371365                1.42284068                0.06921971                0.10051134
               6.87872585                2.97307287               81.09612009                0.01000000               -0.43690664               -0.10604295                0.08304396                1.17023323                0.02235015                0.19009285
               7.87343942                2.97518389               81.09820638                0.01000001               -0.51301050               -0.00799865                0.15576037                0.77475382               -0.00396304                0.04458138
               8.86846564                2.97933597               81.10125790                0.99896611               -0.26674689               -0.03335441                0.11846796                0.10366045                0.03656208                0.03603586
               9.86810448                2.98143852               81.10353852                0.99999999               -0.03611581               -0.03583576                0.11638953               -0.00260527               -0.00051243               -0.00003158
              -0.09665912                3.96886363               81.07165106                0.17436061                0.03792370                0.07742737                0.04450203                0.16895274                0.01310974                0.10487693
               0.90372011                3.95716966               81.07645521                0.01038049                0.05698231               -0.30977551                0.03676179                0.70636714                0.01609898                0.20741824
               1.90448052                3.95579882               81.08155978                0.01000000               -0.03402747               -0.22159731                0.07687317                1.22090575                0.07384783                0.10378123
               2.90303956                3.95677788               81.08590574                0.01083058               -0.18671135               -0.14338793                0.08055853                1.33609620                0.07506592                0.08352529
               3.90074629                3.95879000               81.08993857                0.01000000               -0.26709543               -0.12075341                0.07968491                1.56001103                0.07665749                0.09046989
               4.89769765                3.96289666               81.09377763                0.01000000               -0.32979245               -0.04198359                0.07029291                1.77393240                0.09561771                0.10464900
               5.89415045                3.96875909               81.09759415                0.01000000               -0.44964271               -0.04607518                0.08395958                1.84533954                0.09507217                0.10595704
               6.88870480                3.97310472               81.10087419                0.01081436               -0.70131143                0.00753099                0.13040985                1.71603039                0.03263511                0.10948206
               7.88012422                3.97732463               81.10306361                0.01308037               -1.11581121                0.18759829                0.14702162                1.47138500                0.06603645                0.02671441
               8.86638858                3.97897996               81.10566591                0.01000001               -0.70670169               -0.13624109                0.13081764                1.50719571                0.02726815                0.09084355
               9.86599018                3.98107112               81.10785346                0.05294212               -0.03983929               -0.95749706                0.12677634                1.61071545                0.00791781                0.12246859
              -0.08034996                4.96878037               81.07579525                0.19303668                0.03230250               -0.15290260                0.04419777                0.12315002               -0.02124707                0.19847564
               0.91997306                4.95452007               81.07982487                0.01000000               -0.12943204               -0.06136217                0.03884785                0.78108622                0.01870710                0.12630216
               1.91706140                4.95401375               81.08466452                0.01000001               -0.25201554               -0.15820746                0.06881623                1.31369122                0.08094764                0.05883443
               2.91493275                4.95501243               81.08919468                0.01000000               -0.16881852               -0.27005980                0.08231730                1.43046936                0.08819281                0.04196824
               3.91368503                4.95697640               81.09347318                0.01000000               -0.15660928               -0.23359723                0.07981469                1.70148092                0.09275145                0.07119751
               4.91180057                4.96213281               81.09767464                0.01000000               -0.24043771               -0.14169870                0.07968501                2.03296643                0.08496366                0.07441710
               5.90887627                4.96857406               81.10165948                0.01162691               -0.36598262               -0.06691957                0.09737285                2.10188410                0.10456757                0.06060056
               6.90448092                4.97322349               81.10536543                0.01197525               -0.59421998               -0.05128249                0.16176691                2.18647682                0.13366472                0.06672050
               7.89699187                4.97893586               81.10837227                0.01000000               -0.48089276               -0.04574554                0.17403745                2.10749037                0.14034227               -0.00380979
               8.89486306                4.97661115               81.11127699                0.01353148               -0.04277011               -0.21998122                0.12261092                1.68500384                0.10119663                0.15968430
               9.89613647                4.96228858               81.11455541                0.01000000                0.12734118               -1.06724806                0.10850055                1.07703579                0.12607848                0.14645117
              -0.06567552                5.96580558               81.07925661                0.81480807               -0.02160243               -0.16872887                0.07502688                0.23758314                0.01700859                0.02508876
               0.93410846                5.95594241               81.08311710                0.01000001               -0.20312478                0.06664107                0.07287829                0.53632167                0.03334938                0.08614535
               1.93026199                5.95263467               81.08736879                0.01072377               -0.27110795               -0.14186777                0.05474370                0.94612229                0.07324426                0.00454816
               2.92868630                5.95137669               81.09217414                0.01000000               -0.13032277               -0.38319365                0.08332578                1.34683830                0.13443236               -0.01024310
               3.92765553                5.95411805               81.09677994                0.01000000               -0.09634896               -0.38508903                0.09105402                1.75935702                0.10451956                0.06179291
               4.92675932                5.96006268               81.10120224                0.01162666               -0.12790426               -0.29866992                0.10016943                2.07348794                0.06768628                0.08609418
               5.92509745                5.96742070               81.10490658                0.01266389               -0.23433891               -0.19759186                0.11875687                2.08915043                0.03150720                0.01996864
               6.92207254                5.97207907               81.10946741                0.01000000               -0.31055430               -0.12783696                0.15266382                2.10114517               -0.00137804                0.06055720
               7.91888636                5.97640972               81.11387756                0.01000001               -0.26683053               -0.14376805                0.16780454                2.15256520               -0.00499774                0.01345301
               8.91673593                5.97458034               81.11733505                0.01000000               -0.13551565               -0.11631026                0.11968205                1.26236312               -0.01768197                0.15616403
               9.91617605                5.95972616               81.12054801                0.01000000               -0.05598841               -0.02509615                0.05968314                0.45641387               -0.05328272                0.25664390
              -0.05587197                6.96540580               81.08104446                1.00000000               -0.02576241               -0.04029569                0.08757820                0.00791778               -0.00126352               -0.04556658
               0.94387041                6.95585289               81.08519103                0.01000002               -0.17892311               -0.01134530                0.08012156                0.24936445                0.04269546                0.00737340
               1.94054957                6.95117640               81.09024151                0.01028027               -0.17421373               -0.29784439                0.09381365                0.71491296                0.19038065               -0.16092792
               2.94038613                6.94734856               81.09450878                0.01000000               -0.01816991               -0.42424216                0.08010248                1.00292577                0.09880563                0.00326197
               3.94018617                6.94927462               81.09963449                0.01082148               -0.02092275               -0.64640865                0.12716440                1.69009721                0.11810563                0.00398591
               4.93996768                6.95615941               81.10440107                0.01194592               -0.07716394               -0.55120634                0.16487394                2.12622712                0.06937899                0.10383746
               5.93864289                6.96462223               81.10893854                0.01000000               -0.12264391               -0.31048109                0.15488772                2.06858027                0.07054785               -0.01432941
               6.93751480                6.97066675               81.11376264                0.01019827               -0.05504907               -0.10375687                0.12793120                2.07631484                0.09238186                0.08714661
               7.93754191                6.97606050               81.11860404                0.01000002               -0.03604586               -0.02507051                0.11506277                1.90359908                0.04249439                0.03041546
               8.93679388                6.97428495               81.12301990                0.01000001               -0.12844017                0.16648642                0.11537163                1.17585551               -0.01766001                0.10791784
               9.93497311                6.96178665               81.12766224                0.01000000               -0.18207747                0.41902838                0.11457997                0.57157194                0.02712698                0.26325467
              -0.04641135                7.96499966               81.08281318                0.99999999               -0.02635002               -0.03969303                0.09682530                0.00466594               -0.00187710               -0.03578861
               0.95332515                7.95571551               81.08717681                1.00000000               -0.02620329               -0.02004510                0.09440088                0.01396431                0.00075035               -0.00445636
               1.95306458                7.94667778               81.09160264                0.01000002               -0.13392791               -0.24057777                0.09559707                0.43842048                0.03254719               -0.02490726
               2.95064659                7.94289184               81.09662801                0.01000001               -0.02089809               -0.49952102                0.09082848                0.79780279                0.03212784               -0.03715647
               3.95264662                7.94118988               81.10133133                0.01304170                0.16448336               -1.04454417                0.14065686                1.37271969               -0.01120737                0.00632445
               4.95393626                7.94903856               81.10674065                0.01000000               -0.03424542               -0.50094152                0.18334015                2.04976277               -0.00607874                0.09874365
               5.95196171                7.96121108               81.11275662                0.01000001               -0.08878443               -0.29649137                0.17693737                2.08762411                0.03793643               -0.02632682
               6.95216057                7.97000393               81.11801122                0.01000002                0.06892161               -0.10247111                0.12567149                1.83496249                0.04690838                0.07306171
               7.95334015                7.97590831               81.12374133                0.01000001                0.11831572               -0.06478111                0.12187466                1.68023712                0.01839111                0.06019422
               8.95452688                7.97791007               81.12913607                0.01000002               -0.03680368                0.27922389                0.09928001                1.25745030               -0.05928715                0.14500069
               9.95260407                7.96810672               81.13373633                0.01000002               -0.19228120                0.77404777                0.07757364                0.73425970               -0.13360607                0.16160336
              -0.03721033                8.96461194               81.08463774                0.99999999               -0.03180869               -0.03713546                0.10591314                0.00093613               -0.00019492               -0.02110748
               0.96247158                8.95545199               81.08912190                0.99999998               -0.03240113               -0.02956150                0.10654293               -0.00020363                0.00228138               -0.00554173
               1.96214164                8.94636484               81.09363388                0.99999997               -0.03207449               -0.03209384                0.10808599                0.00180815                0.00977603                0.00555166
               2.96183009                8.93735813               81.09825174                0.99999999               -0.03238951               -0.29394489                0.11312689                0.10959848                0.01112975               -0.01391423
               3.96149385                8.92838374               81.10280159                0.01162523               -0.04441771               -0.65768531                0.11568675                1.32994847                0.09513743               -0.01852182
               4.96094174                8.94614058               81.10912208                0.01360135               -0.10319280               -0.11777902                0.12416365                1.60607586                0.21836756                0.00630536
               5.95943000                8.95869240               81.11550441                0.01000000               -0.07124575               -0.17139720                0.14044708                1.21875599                0.18624419               -0.02687788
               6.95951682                8.96861733               81.12194927                0.01000001                0.19052626               -0.17657094                0.14634031                1.05707145                0.17306061                0.01322694
               7.96324052                8.97476487               81.12858517                0.01000002                0.51138262               -0.23741965                0.16872690                1.04806279                0.28525050                0.06523792
               8.96974447                8.97986942               81.13594863                0.99944739                0.30122308                0.07413820                0.14733725                1.02060184                0.11718954                0.15849465
               9.96926498                8.97726761               81.14081490                0.99994285               -0.04794886                0.42957544                0.17517476                0.70309964               -0.00780126                0.15633993
              -0.02807274                9.96425695               81.08658718                0.99999916               -0.03590930               -0.03549817                0.11713320                0.00049201               -0.00504711               -0.01177797
               0.97156817                9.95512428               81.09109347                1.00000000               -0.03663320               -0.03277133                0.11799549               -0.00139340               -0.00256543               -0.00303337
               1.97119460                9.94603590               81.09560826                1.00000000               -0.03742541               -0.03289384                0.11756495               -0.00027087                0.00101488                0.00287024
               2.97081966                9.93701294               81.10015230                0.99999997               -0.03657276               -0.03451900                0.11673707               -0.00102907                0.00279382               -0.00050296
               3.97046315                9.92803617               81.10468458                0.05510881               -0.75352750               -0.03475641                0.11752903                1.38043068                0.11544366                0.00062751
               4.95574911                9.94668297               81.11149325                0.01000000               -0.83015302                0.05423949                0.11489815                0.96808585                0.19396465                0.01587268
               5.95386009                9.95778313               81.11832339                0.01000000                0.07402047               -0.09092646                0.07439320                0.43248575                0.24677006               -0.03573580
               6.95722952                9.96647251               81.12565269                0.01000000                0.45946093               -0.21448128                0.12481995                0.44010928                0.29209351                0.01099726
               7.96304930                9.97115991               81.13248689                0.01000004                0.76033307               -0.36049588                0.19910489                0.62689384                0.29641068                0.05898573
               8.97243618                9.97939283               81.13974458                0.99990003                0.44101951               -0.04765952                0.17343694                0.54608707                0.12689135                0.00731214
               9.97186969                9.97669823               81.14461086                0.99955193               -0.05664902               -0.05693762                0.20127455               -0.00898861                0.00743350               -0.00745716
              -0.12578212               -0.03485974               82.06401449                1.00000000               -0.01745941               -0.01949810                0.08383657               -0.00199111                0.00404366                0.00077120
               0.87404328               -0.03957918               82.06668580                0.93484123               -0.01089381               -0.02741931                0.07516219                0.00222239               -0.00013908                0.00865300
               1.87400000               -0.04397507               82.06931182                0.38656455                0.04332031               -0.01641104                0.06698817                0.07804267               -0.02747979                0.00394433
               2.87490969               -0.04641648               82.07165206                0.23006043                0.11164426                0.00290238                0.06273841                0.11843741               -0.06670259                0.02464404
               3.87623289               -0.04437857               82.07433672                0.15306712                0.03764091                0.03809425                0.03771280                0.18274654                0.02934297                0.00385254
               4.87566251               -0.03652515               82.07822161                0.19259380               -0.15148592                0.03818851                0.05680499                0.12758984                0.10594339               -0.03235113
               5.87320317               -0.03058662               82.08164431                0.99916340               -0.14047926               -0.02311523                0.08404177                0.17131980               -0.00963315                0.02043050
               6.87285292               -0.02815173               82.08435631                1.00000000               -0.03787272               -0.02532168                0.09040078                0.00230458               -0.04862191               -0.00421665
               7.87244571               -0.02592134               82.08684424                1.00000000               -0.03916844               -0.02615234                0.09553785                0.00267438               -0.05136296                0.00536503
               8.87206955               -0.02389743               82.08933849                1.00000000               -0.03487360               -0.02951270                0.09728235               -0.00022478               -0.03713855               -0.00021669
               9.87174824               -0.02191393               82.09199914                0.99999998               -0.03213124               -0.03155452                0.10125083               -0.00107720               -0.02610466               -0.02060520
              -0.12108259                0.96494528               82.06610756                0.99999999               -0.02942361               -0.01646565                0.08549504                0.00082856                0.00243294               -0.00206795
               0.87862317                0.96014663               82.06880451                0.01000000               -0.03591653               -0.03150404                0.07521393                0.02435242                0.00667393                0.01417049
               1.87819908                0.95586082               82.07150438                0.01000001               -0.11636766                0.00742803                0.06896224                0.08126814                0.05738184                0.13042049
               2.87629582                0.95361255               82.07495955                0.01000000               -0.25421935                0.07680534                0.05816716                0.31789728                0.16527939                0.05640795
               3.87311469                0.95600237               82.07851527                0.01086316               -0.31266933                0.08908553                0.05794064                0.56443120                0.12527060               -0.05612866
               4.87004243                0.96385673               82.08154845                0.01000000               -0.11925164               -0.09194591                0.05838348                0.62912906                0.03954103               -0.00065275
               5.87072966                0.96918222               82.08499415                0.01000001                0.02504470               -0.14852111                0.07607561                0.39420476                0.05513114                0.05843390
               6.87054333                0.97159505               82.08793119                0.01941360               -0.01921769               -0.00428706                0.08332095                0.03202846                0.02146723                0.11566710
               7.87034530                0.97381714               82.09084288                0.99999999               -0.02398625               -0.02702065                0.09673020                0.00896181                0.00686531                0.01280855
               8.87006360                0.97580745               82.09352607                0.99999999               -0.02956664               -0.03099807                0.10210035               -0.00113016               -0.00351062                0.00395910
               9.86975397                0.97777053               82.09620517                1.00000000               -0.03096302               -0.03299903                0.10626393               -0.00223382               -0.00215551               -0.02102200
              -0.11616825                1.96481095               82.06815303                0.55650712               -0.02169658               -0.00408422                0.08957300                0.01948085                0.00155463               -0.01249716
               0.88361479                1.95979074               82.07098695                0.01000001               -0.08361549               -0.05093508                0.07103513                0.09455324                0.12471668                0.03783012
               1.88215944                1.95617349               82.07634449                0.01000001               -0.12443491               -0.01613913                0.03481526                0.33141831                0.30032507                0.12731335
               2.88112609                1.95511963               82.07924999                0.01000000               -0.24410598                0.06330322                0.13028851                0.65151037                0.57514008                0.15130406
               3.87727732                1.95740314               82.08169917                0.01000000               -0.30304283                0.04812812                0.15949128                0.98397133                0.41576690                0.07388727
               4.87506523                1.96163593               82.08550384                0.01000001               -0.19641890               -0.17299090                0.07879768                1.14102560                0.21977976                0.10956553
               5.87334895                1.96644295               82.08920001                0.01071178               -0.31033286               -0.15156485                0.06748212                0.96020026                0.15659854                0.11676432
               6.86885858                1.97176252               82.09394228                0.01036740               -0.24681978               -0.10316177                0.29171093                0.63644382                0.04651100                0.09886325
               7.86841255                1.97353825               82.09499821                0.01000000               -0.03825077               -0.15717120                0.10309641                0.23201736               -0.05711351                0.03710689
               8.86809356                1.97548261               82.09778230                0.99999999               -0.03175745               -0.03274891                0.10693587               -0.00074079                0.01982786                0.02429090
               9.86777740                1.97742609               82.10037397                0.99969451               -0.03161585               -0.03486090                0.10938630               -0.00134949                0.01077088               -0.01761402
              -0.11065256                2.96486360               82.07014379                0.20881057               -0.01957515                0.08691752                0.10016215                0.17549958               -0.00026593               -0.02142012
               0.88915169                2.95912793               82.07343093                0.01000000                0.00755556               -0.20112335                0.05902819                0.30492633                0.10672502                0.12100734
               1.88949855                2.95553804               82.07902042                0.01000000               -0.05276533               -0.14163274                0.07115704                0.70707244                0.19309032                0.02754928
               2.88809638                2.95487861               82.08288719                0.01000000               -0.16103678               -0.05833894                0.07289453                0.99589814                0.11943759                0.08896205
               3.88627782                2.95696493               82.08656893                0.01000001               -0.21366287               -0.07366879                0.07285676                1.29150919                0.14378682                0.18226253
               4.88382313                2.96039691               82.09031956                0.01000000               -0.32353751               -0.07742379                0.07658832                1.45261313                0.10903840                0.18363510
               5.87980707                2.96615093               82.09398820                0.01000000               -0.38231098               -0.04100145                0.09383100                1.36480561                0.07448204                0.13019294
               6.87617691                2.96953181               82.09682080                0.01000000               -0.42707525               -0.09538940                0.10023142                1.09839476                0.02062921                0.07787274
               7.87126556                2.97067372               82.09948170                0.01000000               -0.50079827               -0.09922891                0.14260977                0.79278942                0.03585705                0.06737909
               8.86616094                2.97515247               82.10236813                1.00000000               -0.27127711               -0.03305036                0.11121408                0.12741856                0.02878861                0.03095335
               9.86584002                2.97707331               82.10463363                0.99999997               -0.03209210               -0.03422164                0.10958261               -0.00057489               -0.00092958               -0.01007337
              -0.10118691                3.96654930               82.07232370                0.13389928                0.02257844                0.10059604                0.09157976                0.22514510                0.02178556                0.07210557
               0.89903887                3.95576827               82.07680766                0.01052295                0.08685610               -0.33605073                0.04283263                0.66841563                0.05082231                0.20697888
               1.90055021                3.95334084               82.08222723                0.01000000                0.02891465               -0.19857829                0.06384597                1.09857799                0.11997216                0.06610834
               2.89961716                3.95395285               82.08667079                0.01000001               -0.14805011               -0.14420569                0.07109908                1.30466628                0.08465355                0.07241997
               3.89758921                3.95592976               82.09074063                0.01000000               -0.23428313               -0.13422156                0.07695329                1.51483714                0.08016271                0.10155972
               4.89493150                3.96008745               82.09448460                0.01000001               -0.30395227               -0.06641125                0.08066784                1.71497832                0.09796211                0.12010113
               5.89151016                3.96562293               82.09837997                0.01000000               -0.43139086               -0.03089131                0.08169217                1.80119264                0.10880636                0.09315044
               6.88630368                3.96985474               82.10218832                0.01170000               -0.64312379                0.01936163                0.11577988                1.63390596                0.09037581                0.20140071
               7.87864768                3.97155367               82.10503826                0.01000000               -1.10306735                0.08248004                0.16843939                1.52630260                0.12704358               -0.03144203
               8.86424234                3.97482161               82.10677419                0.01000000               -0.73617313               -0.13768323                0.11366850                1.59010852               -0.01451115                0.10086782
               9.86392422                3.97674166               82.10894258                0.05216185               -0.03181148               -0.96213389                0.11110453                1.58928994                0.00910038                0.11164075
              -0.08458760                4.96687552               82.07635741                0.14625275                0.03160663               -0.15601622                0.07177997                0.14270055               -0.02223281                0.18475557
               0.91572846                4.95240691               82.08033384                0.01000000               -0.10634307               -0.08736233                0.06241518                0.80155767                0.03043955                0.14656434
               1.91328553                4.95156648               82.08539394                0.01000001               -0.20638369               -0.19364489                0.06868053                1.26810325                0.10494601                0.04550986
               2.91160079                4.95199450               82.09001839                0.01000000               -0.14227881               -0.27474166                0.08043863                1.42724454                0.11214936                0.01398702
               3.91043996                4.95428050               82.09424480                0.01000001               -0.15856299               -0.21545703                0.08225728                1.68530153                0.08847443                0.07249941
               4.90842953                4.95906869               82.09842018                0.01000000               -0.21881604               -0.12624647                0.08134550                1.98296351                0.06855034                0.06755146
               5.90606364                4.96553310               82.10254806                0.01274111               -0.27526244               -0.11104849                0.10319283                2.00172652                0.09204153                0.05089968
               6.90292428                4.96991905               82.10697466                0.01346790               -0.46194461               -0.02418401                0.13405684                1.84749208                0.07642684                0.14308077
               7.89682474                4.97232332               82.11032187                0.01000000               -0.50745787               -0.00969456                0.16501176                1.93466094                0.16202518               -0.09569279
               8.89277512                4.97239880               82.11275299                0.01000001               -0.15195177               -0.28029407                0.15434248                1.77660237                0.02456589                0.20575193
               9.89378571                4.95783063               82.11561434                0.01000002                0.10105874               -1.05386339                0.13405406                1.00844388               -0.01113584                0.31262970
              -0.06939569                5.96342897               82.07998639                0.86191559               -0.02252422               -0.18784609                0.07223524                0.28866253                0.01357725                0.03862923
               0.93037907                5.95402103               82.08390966                0.01000001               -0.21398105                0.07172501                0.08158168                0.50253441                0.02415393                0.08546110
               1.92632469                5.94946794               82.08806011                0.01070820               -0.24655178               -0.31321479                0.09615018                1.03367754                0.07663303               -0.00104045
               2.92544803                5.94845802               82.09301101                0.01000000               -0.10518211               -0.33564659                0.08268430                1.37820044                0.13335577               -0.00831440
               3.92422104                5.95162062               82.09766634                0.01000000               -0.10549298               -0.36146421                0.08885069                1.76474270                0.08511390                0.07383128
               4.92333817                5.95756252               82.10212979                0.01273226               -0.17633551               -0.20771838                0.10572298                1.98207673                0.05071940                0.07576858
               5.92069433                5.96340196               82.10639133                0.01000001               -0.34374300               -0.30450711                0.17846922                2.06571323                0.00870063               -0.00160589
               6.91646331                5.96937106               82.11102743                0.01000000               -0.29165946               -0.07312550                0.14324213                1.99137694               -0.01590434                0.13190817
               7.91486114                5.97135978               82.11549906                0.01213090               -0.10981215               -0.06502580                0.11617083                1.84171177                0.00912726                0.01544499
               8.91426707                5.96921572               82.11858214                0.01000002               -0.08158510               -0.18583166                0.12721060                1.16799965                0.03857181                0.06178208
               9.91322944                5.95566439               82.12136454                0.01000000               -0.10376241               -0.00073085                0.13569608                0.48362196                0.01700363                0.30919461
              -0.05999846                6.96311859               82.08190273                1.00000000               -0.02613599               -0.03277086                0.08433098                0.00350069               -0.00096232               -0.04362014
               0.93974018                6.95384141               82.08603520                0.01000001               -0.02397246               -0.01848865                0.08665811                0.03830278                0.04375728                0.00432347
               1.93952209                6.94530218               82.09106434                0.01022237               -0.13640318               -0.23865589                0.03592408                0.69007483                0.19545522               -0.17220375
               2.93701212                6.94528157               82.09543394                0.01000000               -0.14458937               -0.39557741                0.11065700                1.10729025                0.12736605               -0.00620722
               3.93663031                6.94705122               82.10094324                0.01169173               -0.03611955               -0.57656841                0.11434292                1.59756827                0.18699012                0.05377280
               4.93628973                6.95491432               82.10604340                0.01345740               -0.05304681               -0.42370920                0.13532272                1.80916197                0.14187666                0.05785724
               5.93556937                6.95944296               82.11051246                0.01000000               -0.07478671               -0.28461209                0.14397333                1.97487303                0.14262833               -0.02712624
               6.93479399                6.96845654               82.11517690                0.01323559               -0.08775287               -0.10556293                0.13898846                2.09795810                0.16642446                0.16405450
               7.93381431                6.97102280               82.11981316                0.01000002               -0.14817456               -0.01551061                0.12370264                1.63473373                0.07341836                0.01260758
               8.93183050                6.96868217               82.12428884                0.01000000               -0.16267500                0.14335468                0.13096418                1.03906648               -0.01882203                0.08783628
               9.93056081                6.95781602               82.12857630                0.01000000               -0.12696902                0.33965287                0.10880218                0.53502472               -0.00675821                0.33660293
              -0.05077131                7.96277356               82.08375700                0.99999999               -0.02671511               -0.03424719                0.09228270                0.00284897                0.00009019               -0.03902396
               0.94896154                7.95365125               82.08812374                0.99999999               -0.02713293               -0.02305407                0.09486831                0.00893945                0.00405887               -0.00388684
               1.94868603                7.94469482               82.09257209                0.01013425               -0.15583690               -0.04613113                0.09855743                0.25248020                0.03088376               -0.01861130
               2.94584480                7.94054647               82.09750082                0.01000000               -0.10731877               -0.49214839                0.11169212                0.78703947                0.05279894               -0.04179608
               3.94653965                7.94008925               82.10316905                0.01000000                0.06424342               -1.02644956                0.16384305                1.44592205               -0.04227090                0.06966724
               4.94712967                7.94908834               82.10885281                0.01000000                0.00549637               -0.52981873                0.17390345                1.88132065               -0.07470151                0.12699117
               5.94664958                7.95770971               82.11445846                0.01213950               -0.01435179               -0.13165690                0.11865756                1.81888178                0.02595155                0.01047612
               6.94684263                7.96725980               82.11929475                0.01000002                0.03403018               -0.18282745                0.12449469                1.63551385                0.02078608                0.10350191
               7.94733018                7.97104957               82.12486413                0.01000000                0.07062748                0.01119623                0.10472073                1.53804700                0.02224894                0.08409400
               8.94825518                7.97208282               82.13034349                0.01000000               -0.08339681                0.36686871                0.12585169                1.21197925               -0.01414497                0.15885822
               9.94566225                7.96245745               82.13567064                0.01000002               -0.25929323                0.77235588                0.15162445                0.71850450               -0.05737798                0.22500448
              -0.04169687                8.96243365               82.08566681                1.00000000               -0.03054252               -0.03320958                0.09984177                0.00061659                0.00030372               -0.02522942
               0.95799770                8.95338033               82.09017231                0.99999998               -0.03133245               -0.02938373                0.10359729               -0.00019634                0.00339373               -0.00530322
               1.95767648                8.94437956               82.09471320                0.99999999               -0.03196120               -0.03218117                0.10793885                0.00150474                0.01285022                0.00855181
               2.95735848                8.93543860               82.09939312                0.99999999               -0.03348021               -0.27304257                0.11587397                0.12952336                0.01456449               -0.00219481
               3.95700688                8.92652222               82.10398323                0.01000000               -0.05314005               -0.69677097                0.12204915                1.41332981                0.10671048               -0.05054671
               4.95629568                8.94431795               82.11053509                0.01000001               -0.16156643               -0.22219734                0.15755802                1.69006497                0.17666953                0.04778665
               5.95377555                8.95680982               82.11697416                0.01000002               -0.10656316               -0.11435350                0.13871646                1.15494397                0.07517759                0.03561906
               6.95416442                8.96479999               82.12330649                0.01000001                0.29883421               -0.22832166                0.12082289                1.03690264                0.14607082                0.00785919
               7.95975223                8.97124672               82.13020960                0.01239306                0.52488945               -0.14223338                0.11514621                1.18181402                0.28725611                0.12562291
               8.96466220                8.97601955               82.13742965                0.99999997                0.22147031                0.17284217                0.14869242                1.06325362                0.09661154                0.15929466
               9.96418164                8.97326313               82.14256410                0.99802086               -0.04805671                0.51199461                0.17446621                0.78818352               -0.00775618                0.13421275
              -0.03265234                9.96210937               82.08771754                1.00000000               -0.03359569               -0.03242854                0.10859844               -0.00012556               -0.00826982               -0.01533897
               0.96701170                9.95306358               82.09224504                0.99999997               -0.03449025               -0.03167516                0.11224696               -0.00150827               -0.00605147               -0.00303644
               1.96665786                9.94405120               82.09677042                1.00000000               -0.03595529               -0.03283560                0.11490936               -0.00076048               -0.00292323                0.00442376
               2.96629260                9.93508562               82.10132417                0.99999999               -0.03654777               -0.03529795                0.11817168               -0.00145662               -0.00055500               -0.00091399
               3.96592690                9.92615383               82.10588024                0.06051889               -0.78246140               -0.03683917                0.12278551                1.36994115                0.12993991                0.00177681
               4.95064337                9.94464439               82.11305956                0.01000002               -0.83302397                0.03264461                0.14795946                0.89820962                0.25059816                0.03730216
               5.94926642                9.95542264               82.11903153                0.01000000                0.12502049               -0.13871771                0.13839799                0.45153585                0.29725635               -0.00256625
               6.95314378                9.96269336               82.12672995                0.01000000                0.52402430               -0.21066226                0.10924111                0.53704922                0.35907173               -0.01905374
               7.95974691                9.96820490               82.13470576                0.01407081                0.71800321               -0.30418241                0.13107509                0.64178233                0.32784767                0.12231611
               8.96750384                9.97553966               82.14148303                0.99804165                0.35959180               -0.04798839                0.17405339                0.50878601                0.08945205                0.00734688
               9.96693874                9.97269734               82.14661748                0.99894284               -0.05651013               -0.05657909                0.19982715               -0.00852143                0.00747024               -0.00741228
              -0.12837226               -0.03693783               83.06480659                0.99620254               -0.01859270               -0.01931554                0.07432745               -0.00062943                0.00414215                0.00318444
               0.87144181               -0.04162219               83.06743657                0.90690291               -0.01577309               -0.02534919                0.07466215                0.00116997                0.00318436                0.00549690
               1.87131228               -0.04612461               83.07005587                0.37436179                0.01620337               -0.02224828                0.07980555                0.04897030               -0.00731700                0.00334877
               2.87176588               -0.04944871               83.07259415                0.17850342                0.09755923               -0.01862707                0.11530016                0.15306951               -0.05282649                0.01335514
               3.87326346               -0.04854625               83.07503655                0.11099435                0.06958364                0.02166191                0.12228569                0.24465614                0.02018740                0.02483151
               4.87315755               -0.04028709               83.07890195                0.12807861               -0.16125366                0.03707444                0.10576871                0.14566795                0.11978037               -0.02599911
               5.87003839               -0.03369918               83.08249594                0.99854832               -0.17111508               -0.02620685                0.08580554                0.23045235                0.00229586                0.01922186
               6.86973525               -0.03172918               83.08524617                1.00000000               -0.03238800               -0.02692232                0.08823611                0.00053538               -0.04795750               -0.00309087
               7.86939063               -0.02985675               83.08777426                0.99999999               -0.03354280               -0.02667780                0.09105345                0.00126396               -0.05522954                0.00779389
               8.86906440               -0.02810644               83.09028568                1.00000000               -0.03085178               -0.02865956                0.09183010               -0.00051419               -0.04272150                0.00055347
               9.86877359               -0.02637004               83.09298042                1.00000000               -0.02908015               -0.02972808                0.09378111               -0.00159746               -0.03059561               -0.02364082
              -0.12369420                0.96286902               83.06693429                1.00000000               -0.02588978               -0.01829782                0.07942253                0.00011085                0.00219483                0.00339624
               0.87604691                0.95812432               83.06955868                0.01000000               -0.02952787               -0.02783416                0.07647440                0.01088341                0.00645699                0.00902483
               1.87571525                0.95365290               83.07221926                0.01050711               -0.07697556               -0.00122027                0.07685056                0.05762274                0.04630921                0.08976444
               2.87450739                0.95036502               83.07552833                0.01000000               -0.22930160                0.07056603                0.06625338                0.23872533                0.14632832                0.06717560
               3.87112921                0.95167037               83.07908861                0.01106812               -0.36583477                0.13886971                0.06004963                0.59069905                0.14075948                0.01537746
               4.86719070                0.96008365               83.08230913                0.01000000               -0.15326287               -0.07391554                0.09144618                0.71965741                0.06307336                0.01575955
               5.86806396                0.96603875               83.08584484                0.01000001                0.03143471               -0.15615458                0.09138291                0.41835507                0.05627768                0.07213611
               6.86781939                0.96800160               83.08880881                0.10574421               -0.02360271                0.00212065                0.09215048                0.01114721                0.02441518                0.12341158
               7.86759190                0.96987647               83.09180426                1.00000000               -0.02517477               -0.02776642                0.09659767                0.00623482                0.00972541                0.01706324
               8.86731590                0.97160696               83.09453077                0.99999999               -0.02853409               -0.03013763                0.09891087               -0.00086983               -0.00399927                0.00494427
               9.86702122                0.97333268               83.09724541                0.99999999               -0.02946774               -0.03114331                0.10084034               -0.00213599               -0.00314275               -0.02432550
              -0.11888066                1.96269621               83.06905051                0.56028162               -0.02437509               -0.01181294                0.08868914                0.01237279                0.00169409                0.00321097
               0.88087559                1.95782113               83.07172756                0.01000001               -0.04476520               -0.04046517                0.07799419                0.05733163                0.09008206                0.02441342
               1.88022404                1.95385098               83.07621165                0.01000001               -0.11763356               -0.02694788                0.01651168                0.25416443                0.18084114                0.13279752
               2.87852292                1.95196261               83.07989401                0.01000000               -0.24326166                0.09368065                0.06353717                0.59575125                0.10810428                0.11478023
               3.87535881                1.95423114               83.08337951                0.01000000               -0.26703007                0.11624459                0.12631683                0.95948626                0.12820303                0.09402267
               4.87318232                1.95823460               83.08666744                0.01000001               -0.24356314               -0.12096143                0.11146596                1.14041962                0.12768861                0.11619162
               5.87048754                1.96317773               83.09030455                0.01074612               -0.35309204               -0.15596430                0.11074168                0.95903143                0.14199824                0.11588442
               6.86612048                1.96831324               83.09492799                0.01042990               -0.22887904               -0.08086568                0.08195992                0.61178633                0.02853039                0.10193947
               7.86590996                1.96958792               83.09602765                0.01039625               -0.02648456               -0.16925246                0.10444299                0.19974489               -0.05449206                0.06590071
               8.86559079                1.97129081               83.09884264                1.00000000               -0.03152591               -0.03219099                0.10580329               -0.00036223                0.02085403                0.02547089
               9.86527945                1.97300709               83.10145345                1.00000000               -0.03113435               -0.03321181                0.10629584               -0.00168861                0.01100881               -0.02186756
              -0.11369657                2.96263276               83.07121222                0.19481135               -0.02646555                0.06979498                0.10982249                0.15269268                0.00232934                0.00368366
               0.88603877                2.95731502               83.07409363                0.01000000                0.01768160               -0.17074029                0.07555202                0.22193153                0.12423526                0.08720875
               1.88665706                2.95311395               83.07953113                0.01000000                0.00017424               -0.15517573                0.05189696                0.58582033                0.19611106                0.09851905
               2.88604226                2.95223863               83.08372680                0.01000000               -0.13050553               -0.04337648                0.07426750                0.92888126                0.15017303                0.10662376
               3.88404695                2.95399526               83.08743498                0.01000001               -0.24948738               -0.05429120                0.09066870                1.23013630                0.12480089                0.11370502
               4.88105251                2.95766442               83.09119209                0.01000000               -0.34405008               -0.05182678                0.09352816                1.38797183                0.10469777                0.14419880
               5.87716595                2.96291946               83.09491657                0.01000001               -0.37037890               -0.05577437                0.09826593                1.34275824                0.09101514                0.10154195
               6.87364493                2.96638429               83.09812472                0.01000000               -0.42783583               -0.06671821                0.12176641                1.06527478                0.04453634                0.06766697
               7.86860923                2.96649142               83.10105857                0.01000000               -0.48777266               -0.18661489                0.14991470                0.83740551                0.01562872                0.12496312
               8.86388948                2.97096314               83.10348218                1.00000000               -0.25271771               -0.03391731                0.11312847                0.13901353                0.00730688                0.03259654
               9.86355488                2.97266844               83.10573017                0.99999996               -0.03346017               -0.03419348                0.11036200               -0.00167158               -0.00247067               -0.01397177
              -0.10519133                3.96409211               83.07348266                0.10893109                0.00243606                0.10900177                0.13993802                0.27887622                0.01533543                0.05601591
               0.89483303                3.95440632               83.07731186                0.01085910                0.11040819               -0.34828323                0.06146651                0.60809551                0.07999297                0.20773041
               1.89701684                3.95074747               83.08283670                0.01000000                0.06930991               -0.20114414                0.06173522                0.97537290                0.15061389                0.08849712
               2.89621923                3.95109508               83.08732772                0.01000001               -0.12405500               -0.16433422                0.07113974                1.23402389                0.10298684                0.08356032
               3.89453574                3.95314532               83.09147764                0.01000000               -0.21008391               -0.12472914                0.07994055                1.45543859                0.09478641                0.10383511
               4.89201755                3.95719806               83.09539099                0.01000001               -0.29564453               -0.09128909                0.09851319                1.63663611                0.08382206                0.10044787
               5.88862285                3.96206224               83.09922799                0.01000000               -0.40817659               -0.06693849                0.10023900                1.73887399                0.08796884                0.07745984
               6.88385402                3.96697887               83.10318979                0.01293657               -0.52718148                0.04308574                0.09323547                1.41920460                0.09021171                0.14098219
               7.87807922                3.96585562               83.10643240                0.01000000               -1.08299934                0.00348939                0.14221967                1.47392076                0.02068314                0.11152035
               8.86219404                3.97061246               83.10793928                0.01000000               -0.81219000               -0.10224486                0.12028393                1.63200169               -0.02094941                0.12011307
               9.86183542                3.97232322               83.11007555                0.06143194               -0.03586187               -0.82746155                0.11610453                1.50288447                0.00781118                0.12929522
              -0.08874747                4.96481279               83.07723085                0.11837276                0.02927995               -0.15296326                0.11244440                0.15069737               -0.01279100                0.14428602
               0.91154533                4.95034935               83.08107317                0.01000000               -0.08883823               -0.12280260                0.08667977                0.79815297                0.03937919                0.17312795
               1.90947576                4.94909106               83.08603813                0.01000001               -0.16102244               -0.19020029                0.07265127                1.21395257                0.11814488                0.08766715
               2.90832488                4.94895194               83.09080345                0.01000000               -0.12115150               -0.26501122                0.07922484                1.39687853                0.10982765                0.05004149
               3.90705273                4.95150068               83.09511833                0.01000001               -0.17282843               -0.21245391                0.09425925                1.62949945                0.07387315                0.06867787
               4.90486831                4.95583864               83.09930155                0.01000000               -0.24450593               -0.16216170                0.10537686                1.85555887                0.07718728                0.07485068
               5.90216262                4.96158069               83.10372334                0.01000000               -0.33163339               -0.13190255                0.12249306                1.95791694                0.04271466                0.06424320
               6.89823564                4.96724600               83.10804657                0.01000000               -0.38542796               -0.02319341                0.09481611                1.68866088               -0.09952030                0.13093071
               7.89445406                4.96656121               83.11167250                0.01000000               -0.40868683                0.06858559                0.10342465                1.75536107               -0.06712227                0.10173895
               8.89006191                4.96891825               83.11436384                0.01000001               -0.21315089               -0.31661655                0.15396064                1.95029276               -0.02549732                0.21340659
               9.89019104                4.95611921               83.11723649                0.01101897                0.01291323               -0.96875627                0.15032758                1.17589136               -0.05200239                0.38528507
              -0.07325050                5.96103285               83.08070131                0.90820396               -0.02316748               -0.20250038                0.07131512                0.32130775                0.01079859                0.03461491
               0.92651782                5.95195027               83.08474874                0.01000001               -0.20280989                0.06879622                0.08512236                0.49746136                0.03521969                0.07986451
               1.92269330                5.94694346               83.08929179                0.01076187               -0.23853170               -0.29353602                0.09674208                0.97143759                0.06818343                0.01256870
               2.92174719                5.94579485               83.09382783                0.01000001               -0.12271354               -0.31086721                0.09181539                1.33412286                0.06621671                0.05063709
               3.92023903                5.94889624               83.09855696                0.01000000               -0.13492363               -0.33266592                0.09745463                1.72118767                0.06778649                0.05608535
               4.91904872                5.95395483               83.10331670                0.01000000               -0.19326009               -0.26225550                0.12073677                1.94478131                0.06781770                0.01735294
               5.91637383                5.95942419               83.10847596                0.01000000               -0.32009933               -0.27840635                0.15731217                2.13797633                0.08091761                0.06206228
               6.91264673                5.96651500               83.11233226                0.01000000               -0.24298164               -0.07827457                0.12678719                2.05550425                0.13496600                0.06217458
               7.91151419                5.96722733               83.11620098                0.01000001               -0.05024215                0.01931830                0.08377722                1.66047040                0.07283018                0.12380114
               8.91164189                5.96428013               83.11987926                0.01000001               -0.02814393               -0.23189647                0.13707353                1.16565835                0.00010915                0.18153189
               9.91095131                5.95294810               83.12326193                0.01000000               -0.06905709               -0.09532986                0.18718062                0.67039603                0.02458565                0.31149328
              -0.06415616                6.96076278               83.08273108                1.00000000               -0.02598921               -0.02888763                0.08153549                0.00162333               -0.00076820               -0.03963723
               0.93558394                6.95172528               83.08692419                0.01000001               -0.03919497               -0.02248073                0.08979479                0.02654895               -0.00831071                0.00045463
               1.93505994                6.94322034               83.09095999                0.01027336               -0.12646943               -0.21433877                0.09031452                0.63106014                0.05798628                0.02069365
               2.93305456                6.94273460               83.09672192                0.01000000               -0.08717121               -0.38490583                0.10272010                1.04927161                0.13671224                0.00155841
               3.93331651                6.94484736               83.10192135                0.01292389                0.00907177               -0.46765085                0.09165514                1.40345569                0.12060232                0.05372374
               4.93323599                6.95059353               83.10710753                0.01000000               -0.04772728               -0.34340684                0.09213348                1.66346549                0.13323684               -0.12138785
               5.93236197                6.95601257               83.11181801                0.01000000               -0.08467020               -0.22326439                0.12499978                2.03759775                0.07427267                0.11130031
               6.93154259                6.96568051               83.11654241                0.01000001               -0.12318137               -0.12853159                0.13465194                2.02294484                0.04317244                0.03319942
               7.92989834                6.96694757               83.12107810                0.01017879               -0.19441398               -0.00167922                0.13939340                1.49109996                0.03959680                0.14432579
               8.92765431                6.96428032               83.12563919                0.01000000               -0.18176581                0.18331451                0.13802379                0.95303173                0.06506936                0.22830774
               9.92626302                6.95421261               83.12983828                0.01000000               -0.13912839                0.28354558                0.12924468                0.48577493                0.01507175                0.31922070
              -0.05514302                7.96045510               83.08465884                0.99999999               -0.02657331               -0.03079855                0.08820977                0.00160164                0.00160593               -0.03965014
               0.94459124                7.95150066               83.08907418                1.00000000               -0.02758974               -0.02503275                0.09490061                0.00553549                0.00617650               -0.00476815
               1.94430518                7.94265669               83.09357379                0.01000000               -0.17428195               -0.04414009                0.10164428                0.23569883                0.04903548                0.03599758
               2.94110560                7.93809674               83.09886186                0.01000000               -0.19279855               -0.46218560                0.13660089                0.83416666                0.10628966               -0.03448300
               3.94044921                7.93954323               83.10460819                0.01000000                0.00236072               -1.00928733                0.14162614                1.40797708                0.10458145               -0.03808874
               4.94115282                7.94708669               83.11021872                0.01000000                0.07947972               -0.38519827                0.10113577                1.68319446                0.10097077               -0.08858300
               5.94203880                7.95495890               83.11512977                0.01000001                0.05089019               -0.05904276                0.08106984                1.63289290                0.11700780                0.06585110
               6.94217062                7.96394437               83.12050112                0.01005181                0.03487910               -0.21705947                0.13650935                1.49475247                0.13590482                0.02471590
               7.94273639                7.96719375               83.12583574                0.01000000                0.06334284                0.02440689                0.13092555                1.44831010                0.17138450                0.16451783
               8.94343748                7.96794642               83.13165311                0.01000001               -0.09670830                0.38177343                0.13984370                1.15465802                0.10286001                0.29099690
               9.94080222                7.95861901               83.13676882                0.01000002               -0.26352587                0.73962063                0.15209308                0.69615531                0.07934026                0.39697045
              -0.04621526                8.96014681               83.08663457                1.00000000               -0.02916802               -0.03031854                0.09374614                0.00027504                0.00081930               -0.02736178
               0.95349306                8.95122462               83.09119385                0.99999998               -0.03034545               -0.02912882                0.10072880               -0.00031285                0.00416881               -0.00528363
               1.95317784                8.94233754               83.09579266                1.00000000               -0.03208579               -0.03233743                0.10810660                0.00090466                0.01551029                0.01057424
               2.95285135                8.93349089               83.10056922                1.00000000               -0.03458686               -0.24820826                0.11867851                0.14586063                0.01834231               -0.01262315
               3.95248610                8.92466161               83.10524257                0.01000000               -0.06835723               -0.76327676                0.12786951                1.51380120                0.12972269               -0.05871931
               4.95148420                8.94288957               83.11227324                0.01000001               -0.21619773               -0.23533083                0.15900785                1.83135352                0.18487177               -0.01471786
               5.94816214                8.95483171               83.11827874                0.01000001               -0.11407065               -0.06709214                0.13414486                1.12728887                0.15375906                0.00038450
               6.94920279                8.96133932               83.12436573                0.01000000                0.33501750               -0.23499172                0.13007222                0.95850543                0.19621685                0.05279839
               7.95486249                8.96743571               83.13088810                0.01077639                0.50597067               -0.12899084                0.10600031                1.13466283                0.17321044                0.07551300
               8.95932220                8.97191579               83.13892247                0.99999998                0.19892278                0.17432936                0.14995815                1.02226709                0.12496649                0.15595483
               9.95884095                8.96900503               83.14430423                0.99999999               -0.04812549                0.49121126                0.17367203                0.75632286               -0.00776155                0.15382630
              -0.03729314                9.95984873               83.08875914                1.00000000               -0.03125986               -0.02980879                0.09981655               -0.00085324               -0.01047457               -0.01749632
               0.96239426                9.95091808               83.09333841                0.99983341               -0.03249234               -0.03065416                0.10657304               -0.00182016               -0.00879620               -0.00297855
               1.96205701                9.94200994               83.09790644                1.00000000               -0.03477570               -0.03276044                0.11256129               -0.00135821               -0.00586940                0.00547189
               2.96169874                9.93313257               83.10251573                1.00000000               -0.03652275               -0.03583171                0.11914771               -0.00187288               -0.00251726               -0.00106324
               3.96132655                9.92427769               83.10714029                0.09109607               -0.70444772               -0.03839235                0.12687284                1.34642076                0.13213260                0.00317240
               4.94760979                9.94238007               83.11445244                0.01081856               -0.75958634               -0.05094923                0.15186578                1.07952691                0.33727589               -0.03599766
               5.94613483                9.95361706               83.12109135                0.01000000                0.05634720               -0.12146541                0.19640880                0.64049149                0.28985542                0.01587688
               6.94873673                9.95924454               83.12783752                0.01000000                0.43591749               -0.20947829                0.13960584                0.50323774                0.25270494                0.03032351
               7.95485318                9.96461393               83.13510839                0.01028192                0.67883852               -0.28217802                0.09609675                0.60849177                0.23252447                0.02838672
               8.96231350                9.97143301               83.14322565                0.99999999                0.34485087               -0.04827787                0.17458326                0.49059511                0.14408058                0.00732822
               9.96175019                9.96844323               83.14860740                0.99816538               -0.05633086               -0.05617921                0.19829718               -0.00805274                0.00744795               -0.00742161
              -0.13095924               -0.03905145               84.06550104                0.96921210               -0.01830722               -0.01792672                0.06718665                0.00097370                0.00539819                0.00474061
               0.86885769               -0.04371347               84.06817904                0.88674363               -0.01723413               -0.02504005                0.07478071                0.00179392                0.00878886                0.00265531
               1.86869608               -0.04823487               84.07090793                0.40763155                0.00073916               -0.02647967                0.08884196                0.03073953                0.02671973                0.00273632
               2.86887247               -0.05201774               84.07395806                0.17147181                0.08163765               -0.03260635                0.13715104                0.16049692                0.01553013                0.00026922
               3.87032883               -0.05198605               84.07678244                0.09955296                0.08631265               -0.00469871                0.19955780                0.28993620                0.03429431                0.01096657
               4.87059873               -0.04385950               84.08033698                0.11186027               -0.17119846                0.02659371                0.17553851                0.14919704                0.03923021                0.00637249
               5.86690486               -0.03689999               84.08336042                0.99939652               -0.19916342               -0.02836738                0.08762723                0.27110019               -0.02127774                0.01663370
               6.86661546               -0.03533884               84.08612103                1.00000000               -0.03016229               -0.02797012                0.08707856               -0.00059909               -0.04479809               -0.00153201
               7.86630162               -0.03382547               84.08866531                1.00000000               -0.03032475               -0.02695202                0.08730590               -0.00026116               -0.05533033                0.00966890
               8.86600896               -0.03237654               84.09117509                0.99998666               -0.02773873               -0.02740945                0.08584347               -0.00121219               -0.04483163                0.00118242
               9.86574684               -0.03091673               84.09387477                1.00000000               -0.02621197               -0.02722914                0.08469909               -0.00252051               -0.03261137               -0.02535025
              -0.12628748                0.96076928               84.06769601                1.00000000               -0.02451782               -0.01756580                0.07397186                0.00022344                0.00093263                0.00830013
               0.87346734                0.95603613               84.07033400                0.01000001               -0.02784540               -0.02712362                0.07893265                0.00643251                0.00477413                0.00495587
               1.87315561                0.95150033               84.07304140                0.01005555               -0.05571533               -0.01237789                0.08716618                0.02669022                0.03423060                0.07453872
               2.87235303                0.94765620               84.07628462                0.01000000               -0.20032669                0.06172524                0.08491000                0.18572332                0.09371839                0.08791819
               3.86914908                0.94796696               84.07971626                0.01000000               -0.39026848                0.14616395                0.07419047                0.57446806                0.13242338                0.07400826
               4.86454766                0.95640643               84.08337737                0.01000000               -0.18967725               -0.05318446                0.12859744                0.74723104                0.09657355                0.06421299
               5.86535553                0.96281634               84.08682180                0.01000000                0.02622726               -0.17055472                0.10275925                0.44992646                0.04769707                0.07114558
               6.86507221                0.96438146               84.08977420                0.21498481               -0.02688370               -0.00878793                0.10011532                0.00896468                0.02254290                0.10531475
               7.86481786                0.96590501               84.09277483                1.00000000               -0.02648703               -0.02862871                0.09761708                0.00371720                0.00962220                0.01975530
               8.86454247                0.96734937               84.09550428                0.99999998               -0.02780154               -0.02914212                0.09586859               -0.00090741               -0.00427983                0.00570505
               9.86426183                0.96881098               84.09822198                0.99999999               -0.02806415               -0.02896466                0.09444755               -0.00238323               -0.00348424               -0.02641192
              -0.12148846                1.96059723               84.06992682                0.58073530               -0.02562443               -0.01320786                0.08612904                0.01061713                0.00129520                0.02074607
               0.87825529                1.95574406               84.07254683                0.01012930               -0.04508589               -0.03741659                0.08457573                0.03852405                0.07567627                0.01595623
               1.87760982                1.95151757               84.07667472                0.01000001               -0.10674896               -0.03084814                0.05842944                0.20523503                0.13841232                0.12307199
               2.87612031                1.94921676               84.08052073                0.01000000               -0.22709304                0.09605894                0.06570034                0.51313120                0.12609650                0.15513139
               3.87306796                1.95093722               84.08422551                0.01000000               -0.27131720                0.15869755                0.08289472                0.90097568                0.13715669                0.13585665
               4.87069397                1.95507681               84.08773316                0.01000001               -0.25697969               -0.09245458                0.10570175                1.13197579                0.11997498                0.14652506
               5.86792836                1.95968892               84.09141484                0.01000001               -0.34939431               -0.17790071                0.11272691                0.93739022                0.14347782                0.10869605
               6.86370608                1.96448541               84.09558148                0.01076425               -0.22601527               -0.08790540                0.07199524                0.58832279                0.04146305                0.08730727
               7.86340806                1.96560195               84.09708707                0.01000000               -0.03106207               -0.15683866                0.10791044                0.19790180               -0.03289490                0.08264818
               8.86308484                1.96704062               84.09989836                0.99999999               -0.03160539               -0.03208033                0.10579937               -0.00024812                0.02141013                0.02650548
               9.86277595                1.96850398               84.10249989                1.00000000               -0.03088905               -0.03196036                0.10321155               -0.00202450                0.01119008               -0.02513246
              -0.11636879                2.96050512               84.07234024                0.20876215               -0.03137274                0.05268803                0.11350941                0.12575937                0.00394295                0.04894434
               0.88331748                2.95528780               84.07494197                0.01000000                0.00781963               -0.14003576                0.09197418                0.17038170                0.12608093                0.06032060
               1.88378760                2.95088337               84.08005836                0.01000000               -0.00607407               -0.14568917                0.05893632                0.51131937                0.19396626                0.11748060
               2.88319600                2.94957738               84.08437254                0.01000000               -0.12395282               -0.03346768                0.06901017                0.85865989                0.13403978                0.12528929
               3.88130855                2.95114091               84.08838230                0.01000001               -0.23802579               -0.03070570                0.09103103                1.16668387                0.11023629                0.13245399
               4.87843549                2.95455734               84.09219012                0.01000000               -0.33069051               -0.05449303                0.10184151                1.31405147                0.11365075                0.13414377
               5.87469474                2.95925832               84.09595352                0.01000001               -0.37549292               -0.06617814                0.10592981                1.28041950                0.10702239                0.08049652
               6.87092563                2.96262336               84.09925613                0.01000000               -0.42370287               -0.08664374                0.11799804                1.03536716                0.04843392                0.04593805
               7.86622068                2.96276823               84.10248000                0.01059263               -0.46450745               -0.12159013                0.12464433                0.74941007                0.03647612                0.16691863
               8.86163548                2.96670776               84.10463070                1.00000000               -0.24630319               -0.03492055                0.11676378                0.12494446               -0.00486347                0.03378713
               9.86129462                2.96817178               84.10684087                0.99999993               -0.03408634               -0.03413657                0.11137236               -0.00200142               -0.00262008               -0.01737126
              -0.10853862                3.96165099               84.07512246                0.10454059               -0.01766949                0.10187285                0.17075780                0.32127074               -0.00302646                0.07888802
               0.89128468                3.95294334               84.07803699                0.01000000                0.10426256               -0.34276003                0.08409756                0.56720355                0.10974483                0.18492737
               1.89354663                3.94860379               84.08346193                0.01000000                0.08756434               -0.20093188                0.06875383                0.88673092                0.17728353                0.14080536
               2.89303597                3.94854741               84.08809358                0.01000001               -0.10624800               -0.15410772                0.07828706                1.16202326                0.13324737                0.10914029
               3.89142167                3.95032311               84.09233944                0.01000000               -0.20891924               -0.12830871                0.09373843                1.37751518                0.11019756                0.11314241
               4.88885758                3.95398695               84.09645486                0.01000000               -0.29754640               -0.09586741                0.11117210                1.54875104                0.09718978                0.10133837
               5.88547074                3.95836535               84.10038475                0.01000000               -0.39770346               -0.08441626                0.11857253                1.61218801                0.07528307                0.10532395
               6.88090351                3.96275253               84.10405303                0.01000000               -0.55794432                0.03859173                0.09491767                1.34319385                0.07656079                0.03308987
               7.87431185                3.96317015               84.10788266                0.01000000               -1.03616625                0.09106406                0.10871212                1.32670155               -0.17460249                0.23697354
               8.86018019                3.96634221               84.10917987                0.01000001               -0.72519798               -0.09904040                0.12757630                1.48584029               -0.02848852                0.12811581
               9.85980789                3.96782125               84.11126467                0.19857173               -0.03722956               -0.79109080                0.12074974                1.43319101                0.00919458                0.13277064
              -0.09252807                4.96254258               84.07860630                0.11509048                0.02368339               -0.15149764                0.15327821                0.15220403                0.00467809                0.06774656
               0.90770876                4.94843260               84.08206744                0.01000000               -0.07768872               -0.15880250                0.11676644                0.77652232                0.06741540                0.19009573
               1.90591815                4.94686473               84.08684696                0.01000001               -0.14958092               -0.19031673                0.08372604                1.15626297                0.13497595                0.12089936
               2.90471714                4.94649522               84.09160289                0.01000000               -0.12494191               -0.24975597                0.08639973                1.30906172                0.11236264                0.09644427
               3.90341932                4.94857474               84.09612999                0.01000000               -0.16744398               -0.21919033                0.10565948                1.54055051                0.08890926                0.08466073
               4.90136826                4.95263999               84.10052771                0.01000000               -0.26232012               -0.19416694                0.12645374                1.74566005                0.09677662                0.08696705
               5.89817291                4.95757000               84.10499793                0.01000001               -0.41917776               -0.09084120                0.12527188                1.92907924                0.06266155                0.10303101
               6.89298471                4.96339519               84.10887099                0.01000000               -0.45039398               -0.03169132                0.10044198                1.87768084                0.03577001                0.02660160
               7.88916503                4.96458952               84.11239037                0.01000000               -0.31417607                0.06300275                0.08715906                1.78953257               -0.03744523                0.22477044
               8.88670119                4.96472695               84.11583220                0.01000003               -0.10823387               -0.23855997                0.12269839                1.73942743               -0.01270012                0.18153351
               9.88700036                4.95234996               84.11862090                0.01076757                0.02991686               -0.92643915                0.13096187                1.11969693               -0.03482772                0.31034879
              -0.07727457                5.95862104               84.08141270                0.95582565               -0.02324470               -0.20871291                0.07092467                0.32102611                0.00835915                0.00516088
               0.92249298                5.94976729               84.08561211                0.01000000               -0.20580812                0.05462338                0.08670936                0.49063507                0.01728361                0.06593284
               1.91860926                5.94479745               84.08999495                0.01000001               -0.24928905               -0.27153400                0.10031268                0.93754710                0.05675761                0.09381809
               2.91750720                5.94355229               84.09484732                0.01000001               -0.12606791               -0.31082567                0.10026807                1.26048581                0.05768214                0.07252558
               3.91608791                5.94593930               84.09961543                0.01000000               -0.13658382               -0.32501413                0.10960001                1.58943702                0.09217043                0.04543569
               4.91477552                5.95010361               84.10454453                0.01000001               -0.13953885               -0.35277260                0.11969623                1.91493847                0.11441104                0.02406771
               5.91329713                5.95654853               84.10953757                0.01000000               -0.16689538               -0.12774210                0.09867325                2.07310607                0.11209313                0.07817177
               6.91143761                5.96211870               84.11356317                0.01000000               -0.22631932               -0.12217624                0.11745295                2.06471588                0.11197701                0.03400437
               7.90877074                5.96443021               84.11717460                0.01000001               -0.21146595               -0.01574850                0.12507509                1.78983716                0.07089190                0.18349689
               8.90720830                5.96157101               84.12132361                0.01000001               -0.09074607               -0.16262359                0.14058326                1.12663890                0.00571675                0.22982292
               9.90695582                5.94929247               84.12510815                0.01000000               -0.02524745               -0.08282096                0.15467074                0.54533098               -0.00925120                0.26036075
              -0.06840005                6.95836832               84.08353344                1.00000000               -0.02548946               -0.02719895                0.07892311                0.00090921               -0.00037837               -0.03499175
               0.93134505                6.94952507               84.08783110                0.01000001               -0.03579252               -0.02405276                0.09067398                0.03714300                0.03714623               -0.00275440
               1.93088410                6.94143405               84.09287063                0.01056265               -0.12800224               -0.21076719                0.10898542                0.60117193                0.04998272                0.03072455
               2.92878501                6.94027871               84.09748834                0.01000000               -0.11136784               -0.37713927                0.11230091                1.00346971                0.06629517                0.01801313
               3.92865674                6.94207445               84.10277634                0.01000000                0.01363999               -0.49665252                0.08795206                1.32461728                0.03662806                0.02646551
               4.92905781                6.94558454               84.10788607                0.01000000               -0.05184011               -0.39763208                0.08827596                1.83963453                0.03716029               -0.01499690
               5.92761994                6.95501516               84.11301245                0.01000000               -0.13302281               -0.19912618                0.11311794                2.03886691                0.05638347                0.07360420
               6.92639735                6.96095167               84.11786993                0.01000001               -0.10552327               -0.10939531                0.13458063                1.83382625                0.02874159                0.00768033
               7.92550947                6.96427455               84.12260103                0.01000001               -0.10128226                0.00498601                0.14872573                1.56789783                0.03510361                0.17821039
               8.92437171                6.96147448               84.12704931                0.01000003               -0.15227048                0.15242303                0.14996301                0.92950021                0.05871985                0.26557560
               9.92246406                6.95069354               84.13116119                0.01000000               -0.19076433                0.33192243                0.16265802                0.42499620                0.03547018                0.32526799
              -0.05956987                7.95807706               84.08552120                1.00000000               -0.02600157               -0.02911073                0.08447206                0.00096837                0.00304603               -0.03936918
               0.94017011                7.94928624               84.09002176                1.00000000               -0.02755339               -0.02573214                0.09446477                0.00414920                0.00789480               -0.00580266
               1.93987906                7.94058211               84.09460497                0.01000001               -0.16169608               -0.05878300                0.10444556                0.22252431                0.06393642               -0.00797336
               2.93693619                7.93600951               84.10023284                0.01061069               -0.13023214               -0.43732228                0.12767579                0.74572762                0.17036131               -0.00951443
               3.93727442                7.93600625               84.10600158                0.01000000                0.08456593               -0.96293537                0.10946058                1.26910137                0.22983335               -0.22157081
               4.93862751                7.94215097               84.11087553                0.01000000                0.07164631               -0.28973360                0.07586742                1.72294491                0.21342171               -0.07166580
               5.93870734                7.95256601               84.11607986                0.01000001                0.01136205               -0.20796159                0.11635082                1.74590677                0.19111653                0.03425873
               6.93885475                7.95993080               84.12202494                0.01000001                0.04492697               -0.12160554                0.14995540                1.55229803                0.18564661                0.02565151
               7.93960588                7.96452993               84.12748264                0.01000003                0.02622777               -0.03951030                0.16919776                1.39194472                0.15079869                0.14402430
               8.93937931                7.96461947               84.13314037                0.01149071               -0.12941275                0.30458094                0.14783262                1.03873435                0.12200050                0.28621912
               9.93701763                7.95593091               84.13871250                0.01000002               -0.23616777                0.69037708                0.14025906                0.67108658                0.13129279                0.37162857
              -0.05079904                8.95778611               84.08754174                0.99966797               -0.02779733               -0.02833845                0.08772781               -0.00009340                0.00128156               -0.02897507
               0.94892299                8.94901042               84.09218689                0.99999998               -0.02948248               -0.02856803                0.09787762               -0.00046746                0.00481335               -0.00549795
               1.94861131                8.94025839               84.09687534                1.00000000               -0.03237878               -0.03245169                0.10837718                0.00029655                0.01748077                0.01212817
               2.94827541                8.93153226               84.10176669                0.99999999               -0.03570032               -0.24190862                0.12148626                0.13147871                0.02104734               -0.02132249
               3.94789731                8.92281575               84.10654062                0.01006522               -0.06592309               -0.67922002                0.13323807                1.38080150                0.13368744               -0.06129342
               4.94695695                8.93978987               84.11371525                0.01000003               -0.15695333               -0.12924634                0.12747995                1.64252458                0.19910160               -0.05426172
               5.94475824                8.95085592               84.11965705                0.01000001               -0.07387800               -0.12255311                0.13883437                1.08503987                0.21996558               -0.01807226
               6.94547939                8.95851955               84.12590794                0.01000003                0.19507275               -0.17872680                0.15758725                0.89772538                0.23984421                0.06049316
               7.94865970                8.96348434               84.13232961                0.01000000                0.41330062               -0.20989396                0.19293937                0.92249627                0.24098909                0.09783634
               8.95374540                8.96756610               84.14042881                0.99999999                0.23016049                0.12302033                0.15131141                0.92619417                0.11687159                0.14478396
               9.95326291                8.96450108               84.14603754                0.99996064               -0.04824996                0.40058252                0.17300326                0.65882697               -0.00777080                0.13119057
              -0.04202037                9.95751029               84.08971387                1.00000000               -0.02911521               -0.02758163                0.09127395               -0.00167466               -0.01231642               -0.01927270
               0.95768848                9.94871488               84.09437651                0.99999999               -0.03082409               -0.02955456                0.10116851               -0.00231186               -0.01111014               -0.00309024
               1.95736315                9.93993307               84.09902165                0.99999999               -0.03400356               -0.03253164                0.11034184               -0.00199341               -0.00889679                0.00623993
               2.95700841                9.93117133               84.10370713                0.99999998               -0.03651559               -0.03609278                0.11934651               -0.00226155               -0.00541091               -0.00146833
               3.95663284                9.92242185               84.10841770                0.19281359               -0.67852940               -0.03938922                0.12943405                1.29328845                0.14377968                0.00419827
               4.94343782                9.93956604               84.11609688                0.01147929               -0.74771918               -0.02238300                0.15250254                1.03274145                0.29802176               -0.05514600
               5.94167846                9.95011494               84.12295971                0.01000000                0.03715105               -0.07409799                0.16418128                0.53153263                0.22966523               -0.01933857
               6.94418084                9.95635626               84.12952206                0.01000000                0.36654034               -0.21632917                0.17039940                0.38100010                0.24366462                0.04183472
               7.94900926                9.96033205               84.13662769                0.01018269                0.63528023               -0.31522928                0.22684132                0.57113735                0.31282674                0.09578284
               8.95688645                9.96707988               84.14497469                0.99999995                0.36574709               -0.04862236                0.17523597                0.49463008                0.14423419                0.00731716
               9.95632420                9.96394256               84.15058342                0.99995665               -0.05622428               -0.05585167                0.19692779               -0.00760130                0.00743207               -0.00743594
              -0.13362030               -0.04123296               85.06615032                0.94698178               -0.01690032               -0.01577976                0.06304500                0.00227342                0.00533477                0.00313376
               0.86621070               -0.04587900               85.06893218                0.87053988               -0.01560248               -0.02653512                0.07528824                0.00343809                0.01343063               -0.00120919
               1.86606765               -0.05033681               85.07183271                0.46810925               -0.00043595               -0.02862992                0.09438505                0.02728622                0.05409869                0.00190376
               2.86620198               -0.05409645               85.07533717                0.20097402                0.07513897               -0.03428386                0.12932350                0.15760437                0.09464013               -0.00301935
               3.86757043               -0.05419456               85.07902771                0.11722767                0.05810979               -0.00979705                0.19659708                0.30425108                0.07971114               -0.01755257
               4.86736418               -0.04624043               85.08241272                0.14937947               -0.18708214                0.02121618                0.17545989                0.16050945               -0.10218162                0.04065768
               5.86382879               -0.04028927               85.08424849                1.00000000               -0.19148890               -0.03034853                0.09083968                0.23794082               -0.07412637                0.01323205
               6.86353440               -0.03906617               85.08698774                1.00000000               -0.02994124               -0.02863926                0.08635398               -0.00137478               -0.04074560                0.00081944
               7.86322996               -0.03788242               85.08952038                0.99999998               -0.02880434               -0.02677635                0.08358964               -0.00132076               -0.05351570                0.01113523
               8.86295831               -0.03674118               85.09200254                0.99999999               -0.02539759               -0.02610240                0.07963860               -0.00196834               -0.04496956                0.00150057
               9.86272201               -0.03557147               85.09467440                1.00000000               -0.02362986               -0.02492078                0.07556803               -0.00361559               -0.03314784               -0.02630477
              -0.12895152                0.95860924               85.06841373                0.97370969               -0.02514709               -0.01500630                0.07113694                0.00091633               -0.00072772                0.01050644
               0.87079700                0.95385565               85.07113733                0.01000001               -0.02996190               -0.02943565                0.08195571                0.00990811                0.00280487                0.00058565
               1.87044924                0.94937689               85.07396258                0.01000000               -0.05450533               -0.01838668                0.09526969                0.03279025                0.02319798                0.06538348
               2.86970690                0.94556071               85.07722653                0.01027618               -0.18821535                0.05368827                0.09914518                0.18113343                0.04533386                0.10289351
               3.86668493                0.94570747               85.08057242                0.01000000               -0.38451364                0.12383981                0.10429681                0.58650524                0.09816124                0.13723462
               4.86201663                0.95397174               85.08488108                0.01000000               -0.20319316               -0.07036129                0.17230215                0.73640410                0.11317561                0.10874226
               5.86262107                0.95940724               85.08790003                0.01000000                0.01502978               -0.17453977                0.11206539                0.41778453                0.02265749                0.06159836
               6.86231722                0.96064744               85.09081112                0.33076091               -0.02834013               -0.01781891                0.10594763                0.00928482                0.01823396                0.08709122
               7.86205426                0.96184982               85.09375661                1.00000000               -0.02670332               -0.02909324                0.09823564                0.00277871                0.00765829                0.02119520
               8.86178315                0.96299779               85.09644814                0.99999998               -0.02690602               -0.02821563                0.09291418               -0.00113190               -0.00459606                0.00608796
               9.86151614                0.96417932               85.09913436                1.00000000               -0.02670100               -0.02714883                0.08843753               -0.00293807               -0.00353823               -0.02806122
              -0.12409478                1.95846691               85.07077309                0.61557524               -0.02640020               -0.00966213                0.08542223                0.01305418                0.00056590                0.03724669
               0.87564121                1.95353229               85.07341908                0.01000001               -0.04434120               -0.04121856                0.09075000                0.04368998                0.06560352                0.01035673
               1.87501839                1.94929545               85.07738024                0.01000001               -0.10735718               -0.03502686                0.08095447                0.20508052                0.12259186                0.11834978
               2.87349407                1.94697732               85.08120802                0.01000000               -0.20644392                0.08054251                0.07530818                0.48394957                0.11211143                0.18269809
               3.87088951                1.94828223               85.08503741                0.01024503               -0.25507931                0.14114710                0.08922382                0.85620958                0.13263161                0.19926396
               4.86839248                1.95235235               85.08878147                0.01000001               -0.26903688               -0.11730698                0.11454131                1.08376881                0.13421103                0.15074989
               5.86550878                1.95621993               85.09255909                0.01000000               -0.35574842               -0.19238760                0.12107921                0.89222125                0.13547980                0.12000814
               6.86127751                1.96057745               85.09636789                0.01154296               -0.22867940               -0.09079707                0.08612028                0.55428501                0.03936261                0.08850533
               7.86093519                1.96153572               85.09818586                0.01000000               -0.03356715               -0.14078080                0.11137753                0.20134837               -0.01510192                0.07680489
               8.86060617                1.96269450               85.10095863                1.00000000               -0.03174958               -0.03202078                0.10622813               -0.00009952                0.02159366                0.02733305
               9.86030020                1.96388555               85.10351769                0.99999998               -0.03059766               -0.03115426                0.10046425               -0.00259640                0.01128473               -0.02815190
              -0.11882119                2.95841600               85.07348241                0.25126619               -0.03365501                0.04684486                0.11235167                0.11222165                0.00480884                0.09603852
               0.88084226                2.95303128               85.07593312                0.01025013               -0.00364983               -0.12764380                0.10370971                0.16538012                0.12049229                0.04055393
               1.88110582                2.94867635               85.08070986                0.01000000               -0.02215762               -0.12602410                0.07511091                0.48139061                0.19747370                0.11650138
               2.88039911                2.94717156               85.08510700                0.01000000               -0.13358629               -0.04648928                0.08256146                0.81833298                0.15464264                0.15559858
               3.87843409                2.94853041               85.08925560                0.01000001               -0.23224029               -0.03108728                0.09504801                1.09714646                0.13179607                0.16001209
               4.87575430                2.95162560               85.09322892                0.01000000               -0.30968518               -0.07325550                0.10992828                1.22763173                0.12339124                0.15132290
               5.87224039                2.95555949               85.09703517                0.01000000               -0.38335854               -0.05478066                0.11808619                1.21137320                0.10071083                0.10215790
               6.86808713                2.95883150               85.10048468                0.01000000               -0.41381011               -0.12758210                0.11970054                1.00422652                0.03979591                0.07337090
               7.86396418                2.95903420               85.10355146                0.01100757               -0.43279013               -0.04254978                0.09975954                0.60255080                0.05435144                0.12609358
               8.85943133                2.96235738               85.10581745                0.99999998               -0.24410311               -0.03606136                0.12107515                0.10790552                0.00405776                0.03535158
               9.85908212                2.96355623               85.10795762                0.99999997               -0.03492091               -0.03434680                0.11196102               -0.00263840               -0.00296308               -0.02078961
              -0.11108091                3.95940381               85.07689781                0.12574088               -0.02306295                0.07307449                0.16011038                0.31981046               -0.01358032                0.11979886
               0.88868846                3.95097941               85.07899382                0.01000000                0.07934119               -0.32275635                0.10726299                0.55909362                0.14561250                0.14679404
               1.89050592                3.94677497               85.08421178                0.01024101                0.06591045               -0.18501610                0.08367941                0.83010670                0.21063075                0.14460631
               2.89000667                3.94604753               85.08889346                0.01000001               -0.10637539               -0.15222358                0.08944445                1.08877586                0.15497096                0.13576609
               3.88837841                3.94766049               85.09335240                0.01000000               -0.20453167               -0.13062538                0.10637543                1.31558571                0.13444658                0.13653954
               4.88591604                3.95088724               85.09761443                0.01000000               -0.29240358               -0.10686404                0.11749271                1.48227142                0.11791205                0.13068847
               5.88253034                3.95512432               85.10159944                0.01052748               -0.40143538               -0.05354990                0.12967884                1.49853802                0.08619317                0.11790723
               6.87788733                3.95802581               85.10508814                0.01000000               -0.65350051               -0.02818017                0.12356544                1.45159368                0.06558340                0.05906529
               7.86946033                3.96068472               85.10860664                0.01000000               -0.98225399                0.13652332                0.09118150                1.33636094               -0.05520223                0.13096750
               8.85824225                3.96197328               85.11049081                0.01000000               -0.58053076               -0.09760977                0.13562202                1.33299679                0.00620376                0.10709498
               9.85784971                3.96319861               85.11249055                0.21661138               -0.03925397               -0.75367645                0.12458219                1.36428230                0.01027449                0.12487752
              -0.09557618                4.95987749               85.08029641                0.14936378                0.02291506               -0.15974388                0.15007462                0.14980445                0.03031192               -0.03597995
               0.90465297                4.94657615               85.08340850                0.01000000               -0.08919972               -0.17370706                0.15128178                0.73456588                0.08948990                0.18444846
               1.90263983                4.94497603               85.08771265                0.01000001               -0.16819305               -0.19894054                0.10083345                1.08191338                0.13172737                0.15245501
               2.90128911                4.94412709               85.09253144                0.01000000               -0.13668654               -0.23438091                0.09963774                1.21077762                0.13496524                0.11360030
               3.89990610                4.94591790               85.09723152                0.01000000               -0.16766040               -0.22509420                0.11335540                1.46840216                0.12398046                0.10440148
               4.89793590                4.94948832               85.10183063                0.01002630               -0.24167619               -0.19047074                0.11841742                1.70346715                0.13140632                0.11564687
               5.89507257                4.95448849               85.10622877                0.01000000               -0.31886505               -0.10756098                0.11684549                1.79231453                0.12716419                0.08695454
               6.89155860                4.95826790               85.11005541                0.01000001               -0.41643164                0.00851659                0.12488896                1.83190445                0.14614580                0.03480529
               7.88674394                4.96176467               85.11341568                0.01000000               -0.39906141                0.00009425                0.12633539                1.89242750                0.12241157                0.09614709
               8.88357737                4.96040518               85.11681780                0.01000001               -0.14134246               -0.21569000                0.11323684                1.61492277                0.04624241                0.17280967
               9.88391709                4.94848270               85.11985573                0.01000001                0.03397167               -0.87917976                0.12727084                1.07512697                0.01339743                0.29134714
              -0.08148214                5.95620893               85.08211980                0.98686619               -0.02366194               -0.19615204                0.07269239                0.27048984                0.00628110               -0.03955641
               0.91828124                5.94750527               85.08648293                0.01000000               -0.19623089                0.03421971                0.08920016                0.44619670                0.02759839                0.03756761
               1.91459324                5.94279616               85.09129805                0.01000000               -0.25004435               -0.28756081                0.11391323                0.88085818                0.07254345                0.07138351
               2.91328035                5.94135991               85.09583319                0.01000000               -0.11040070               -0.32088750                0.11680485                1.17740387                0.07365094                0.08446000
               3.91238523                5.94315860               85.10074896                0.01053821               -0.09327801               -0.34636883                0.12292602                1.47315787                0.10856258                0.05113150
               4.91141479                5.94707782               85.10571062                0.01000000               -0.13940898               -0.27628623                0.11498821                1.78108362                0.10049577                0.07728980
               5.90959705                5.95297310               85.11044942                0.01000000               -0.20827755               -0.17730622                0.09541593                1.97757604                0.10003545                0.05673333
               6.90724924                5.95819614               85.11468132                0.01000000               -0.22127277               -0.04477762                0.12048032                1.93418746                0.06845301                0.00836946
               7.90517159                5.96068661               85.11870248                0.01000000               -0.17132853               -0.07804656                0.15171442                1.70702125                0.03532829                0.10019191
               8.90382267                5.95765948               85.12269093                0.01000000               -0.09871950               -0.13150553                0.14054176                1.08097903                0.03037851                0.17512792
               9.90319720                5.94561502               85.12635534                0.01000000               -0.06254685               -0.06845397                0.13473283                0.53713324                0.00607859                0.26746247
              -0.07275905                6.95595445               85.08430954                1.00000000               -0.02512686               -0.02747601                0.07720592                0.00055590                0.00050862               -0.03032305
               0.92698968                6.94726054               85.08873767                0.01000001               -0.04193000               -0.02382271                0.09094806                0.03272451               -0.00084209               -0.00467110
               1.92640235                6.93922481               85.09313970                0.01128996               -0.12574654               -0.21518258                0.17017952                0.56141913                0.07732201                0.00557390
               2.92447475                6.93770934               85.09896793                0.01000000               -0.13755013               -0.38659096                0.12014910                0.98007925                0.11547880                0.01924974
               3.92365134                6.93899052               85.10368039                0.01000000               -0.03658322               -0.59055400                0.11858703                1.41356036                0.04011341                0.01676305
               4.92374308                6.94396259               85.10887305                0.01000001               -0.00727849               -0.36268118                0.11387071                1.79400086                0.05116359                0.05468759
               5.92350577                6.95094237               85.11408037                0.01000000               -0.06071198               -0.19868109                0.11889521                1.92622135                0.06014485                0.00243434
               6.92252884                6.95737234               85.11923403                0.01000000               -0.10423697               -0.08883735                0.12760252                1.82464505                0.04180565                0.01007757
               7.92142103                6.96020374               85.12405261                0.01000001               -0.11301501               -0.01704769                0.13278726                1.49340343                0.03423970                0.10585868
               8.92026854                6.95777507               85.12863845                0.01112553               -0.13361824                0.13159144                0.14584426                0.88674245                0.02596213                0.17010139
               9.91874867                6.94711363               85.13309144                0.01000000               -0.15198730                0.27801050                0.17405261                0.38818584                0.05047865                0.25486850
              -0.06408322                7.95565941               85.08634828                0.99999998               -0.02514206               -0.02899025                0.08096243                0.00089662                0.00461106               -0.03900651
               0.93566536                7.94702881               85.09096347                0.99969358               -0.02719798               -0.02503144                0.09378465                0.00495765                0.00976024               -0.00608989
               1.93537283                7.93849251               85.09566270                0.01093766               -0.12745691               -0.05306917                0.10716717                0.20722892                0.06661689                0.03267270
               2.93311623                7.93362809               85.10141537                0.01103015               -0.04848203               -0.40595954                0.11374371                0.59936368                0.14806493               -0.00427369
               3.93440318                7.93134752               85.10679741                0.01000001                0.11133709               -0.89854509                0.08261789                1.28780292                0.17766986               -0.12555501
               4.93534297                7.93982420               85.11173607                0.01000000                0.01542690               -0.36898026                0.11579287                1.81293384                0.18017319               -0.03102321
               5.93471172                7.94899948               85.11745678                0.01000000               -0.04310990               -0.16759721                0.14229608                1.67290930                0.14394877               -0.00262164
               6.93448077                7.95641940               85.12350022                0.01000001               -0.00373942               -0.11601400                0.13228374                1.50722273                0.13315337                0.02783061
               7.93463693                7.96034565               85.12921970                0.01000002                0.00834309                0.00218265                0.16982680                1.38061394                0.12232052                0.17370988
               8.93464763                7.96029130               85.13460976                0.01000001               -0.11765632                0.26010357                0.17576613                0.92563684                0.05615480                0.18535928
               9.93228381                7.95117523               85.13957400                0.01000000               -0.23638240                0.63221461                0.12257588                0.52436234                0.00724245                0.23537335
              -0.05547993                8.95537464               85.08838913                0.99999999               -0.02643406               -0.02702029                0.08165236               -0.00054921                0.00175197               -0.03084922
               0.94425573                8.94675991               85.09315140                0.99999998               -0.02862145               -0.02758859                0.09498308               -0.00061511                0.00544993               -0.00579280
               1.94394764                8.93816343               85.09796021                0.99999995               -0.03243631               -0.03252009                0.10866983                0.00029321                0.01963213                0.01355323
               2.94360701                8.92959015               85.10299895                0.99874381               -0.03681744               -0.22028763                0.12546640                0.09672204                0.02438559               -0.01739610
               3.94321130                8.92101962               85.10790733                0.01000000               -0.06285997               -0.53700101                0.14083364                1.22010239                0.11648915               -0.02849085
               4.94234981                8.93658299               85.11482284                0.01000001               -0.14212664               -0.16551534                0.10805232                1.51280244                0.15301930               -0.03036837
               5.94036876                8.94759042               85.12105542                0.01000000               -0.05113434               -0.11872480                0.14065997                1.05301503                0.16141103                0.00576074
               6.94132712                8.95505206               85.12751747                0.01043678                0.23963217               -0.17832062                0.14770757                0.90591206                0.21469626                0.02113725
               7.94516141                8.96024739               85.13474688                0.01407195                0.33122914               -0.12061155                0.18801558                0.94726138                0.26585597                0.18430797
               8.94795170                8.96297714               85.14194870                0.99999999                0.11533308                0.10981406                0.15265829                0.80526759                0.06165877                0.13551692
               9.94746807                8.95975792               85.14776429                1.00000000               -0.04836352                0.40137635                0.17234528                0.59795598               -0.00776545                0.16266555
              -0.04686474                9.95511901               85.09058462                1.00000000               -0.02709811               -0.02556364                0.08277616               -0.00267809               -0.01422717               -0.02113973
               0.95286427                9.94647704               85.09536178                1.00000000               -0.02934015               -0.02828721                0.09582832               -0.00299071               -0.01355912               -0.00331247
               1.95254845                9.93784211               85.10011328                1.00000000               -0.03349004               -0.03213215                0.10790852               -0.00265419               -0.01230079                0.00681387
               2.95219447                9.92922234               85.10490266                0.99999997               -0.03680279               -0.03678092                0.11959451               -0.00298349               -0.00883244               -0.00205107
               3.95181240                9.92060750               85.10972897                0.23122450               -0.65831283               -0.04121189                0.13263456                1.22468774                0.13980896                0.00542439
               4.93902822                9.93651389               85.11750249                0.01000000               -0.72547255               -0.00690924                0.13575970                0.96871482                0.28344877               -0.02735875
               5.93730295                9.94662498               85.12437498                0.01000000                0.04569122               -0.09654420                0.13524695                0.51037288                0.21747507               -0.01268084
               6.93994204                9.95285298               85.13124550                0.01000000                0.41770689               -0.21990782                0.17432712                0.42691426                0.28604703                0.01433955
               7.94565708                9.95793342               85.13964522                0.01000001                0.56502073               -0.23139691                0.16918515                0.53129778                0.32837925                0.18667169
               8.95124246                9.96248759               85.14673037                1.00000000                0.25121455               -0.04895557                0.17589701                0.39254205                0.07079781                0.00732059
               9.95068137                9.95920276               85.15254595                1.00000000               -0.05610816               -0.05551618                0.19558426               -0.00715229                0.00743331               -0.00743249
              -0.13641626               -0.04351558               86.06676194                0.93131835               -0.01398210               -0.01277755                0.06032195                0.00346348                0.00503682                0.00068777
               0.86344392               -0.04814796               86.06968481                0.85545357               -0.01053358               -0.02910926                0.07488639                0.00601827                0.01761781               -0.00447405
               1.86337307               -0.05245655               86.07279563                0.53815930                0.00631782               -0.02829830                0.09560970                0.03028609                0.06815051                0.00031809
               2.86357027               -0.05585685               86.07654453                0.25757834                0.07372196               -0.02999305                0.11109140                0.15946139                0.12711790               -0.00006142
               3.86484751               -0.05542652               86.08071438                0.17049122               -0.01179782                0.01284764                0.13207448                0.25471330                0.07642187               -0.01329897
               4.86333432               -0.04798308               86.08384618                0.26021582               -0.20000955                0.01955996                0.11699477                0.18932959               -0.16761171                0.08339514
               5.86084731               -0.04393843               86.08517721                0.99999999               -0.14028291               -0.03238669                0.09592268                0.15382683               -0.09133360                0.00902439
               6.86052866               -0.04296920               86.08784811                1.00000000               -0.03154064               -0.02876624                0.08549927               -0.00167451               -0.03736480                0.00401381
               7.86021650               -0.04207523               86.09033711                0.99999999               -0.02865555               -0.02613481                0.07960041               -0.00167528               -0.05110413                0.01233069
               8.85995555               -0.04123771               86.09276786                0.99999999               -0.02381627               -0.02472433                0.07359165               -0.00265147               -0.04417157                0.00154429
               9.85974018               -0.04036274               86.09538613                1.00000000               -0.02153716               -0.02307839                0.06757029               -0.00465913               -0.03306663               -0.02702449
              -0.13174925                0.95635664               86.06911875                0.93519669               -0.02761664               -0.01054671                0.07099949                0.00278825               -0.00260648                0.01174671
               0.86797458                0.95156095               86.07197312                0.01098904               -0.03601870               -0.03483146                0.08491764                0.02100644                0.00037056               -0.00238431
               1.86753037                0.94726047               86.07494679                0.01000000               -0.06623530               -0.02030823                0.09999974                0.05909585                0.01139186                0.06159988
               2.86664987                0.94384322               86.07826753                0.01013954               -0.20363114                0.04235525                0.10767948                0.22882913                0.02329948                0.10702463
               3.86345775                0.94470195               86.08180220                0.01000000               -0.35831542                0.08329250                0.13481437                0.58344668                0.09195388                0.16630630
               4.85948357                0.95221252               86.08682342                0.01000000               -0.17895525               -0.11364777                0.17231000                0.67789701                0.11222843                0.08908375
               5.85987865                0.95573770               86.08906311                0.01023690                0.00483731               -0.15538133                0.11878051                0.33674197               -0.01999301                0.05185432
               6.85958031                0.95674314               86.09189316                0.44680636               -0.02723202               -0.02244245                0.10847933                0.01318122                0.01295282                0.07273261
               7.85933400                0.95766342               86.09473955                1.00000000               -0.02537603               -0.02907880                0.09761312                0.00353450                0.00504815                0.02187552
               8.85907279                0.95851504               86.09736257                0.99999999               -0.02576943               -0.02721605                0.08987906               -0.00138051               -0.00483944                0.00634638
               9.85881862                0.95940647               86.09999073                0.99987234               -0.02541755               -0.02597858                0.08341148               -0.00368954               -0.00344520               -0.02975990
              -0.12676911                1.95627348               86.07163526                0.66173495               -0.02706705               -0.00277320                0.08710485                0.01695474               -0.00108310                0.04906162
               0.87296022                1.95115541               86.07436183                0.01000001               -0.04790863               -0.05184056                0.09733989                0.06945537                0.05943800                0.00536539
               1.87227271                1.94713729               86.07829381                0.01034787               -0.11274220               -0.04393077                0.09774478                0.24338287                0.12112664                0.10954557
               2.87070537                1.94499025               86.08202689                0.01000000               -0.20627903                0.05803416                0.09404219                0.50976428                0.10609183                0.19100309
               3.86814713                1.94623933               86.08600998                0.01000001               -0.24244320                0.06621010                0.11275501                0.85592604                0.12749409                0.22195704
               4.86585651                1.94974397               86.09002398                0.01000001               -0.25477958               -0.17308400                0.13149882                1.01773963                0.13226359                0.11754620
               5.86305154                1.95295394               86.09383643                0.01044511               -0.34949728               -0.17382879                0.12990200                0.82062636                0.11824796                0.11741116
               6.85886656                1.95658195               86.09730389                0.01294688               -0.22681282               -0.06863047                0.09791996                0.50070965                0.03541931                0.08159724
               7.85851528                1.95734320               86.09931462                0.01000001               -0.03408355               -0.13970475                0.11313062                0.21384745               -0.00263645                0.05928429
               8.85818489                1.95821797               86.10202292                0.99999996               -0.03158778               -0.03162143                0.10648292                0.00060856                0.02167881                0.02904830
               9.85788353                1.95911768               86.10450917                0.99999999               -0.03013616               -0.03116766                0.09819775               -0.00320793                0.01118726               -0.03146003
              -0.12117402                2.95630118               86.07458727                0.31448889               -0.03260999                0.04797452                0.10552809                0.11063993                0.00527129                0.11748834
               0.87849988                2.95052414               86.07701617                0.01012714               -0.01313962               -0.13757859                0.11127032                0.20017134                0.11345223                0.02980624
               1.87856319                2.94638185               86.08156058                0.01000000               -0.03783802               -0.13220827                0.09498315                0.50333231                0.19189603                0.10891684
               2.87774312                2.94500390               86.08602377                0.01032072               -0.13703166               -0.05759789                0.09855002                0.79668471                0.16571162                0.17297579
               3.87582256                2.94602616               86.09028326                0.01000001               -0.23096892               -0.05806733                0.11088429                1.04947217                0.15437157                0.17623193
               4.87312374                2.94875084               86.09438869                0.01000000               -0.31846820               -0.08724809                0.12289402                1.16736247                0.14512562                0.15442622
               5.86945319                2.95226113               86.09831525                0.01000000               -0.39592450               -0.07120266                0.13358990                1.16445185                0.11011124                0.11176060
               6.86520525                2.95537053               86.10165014                0.01049525               -0.37391267               -0.11094205                0.12437881                0.94748140                0.06334612                0.06140704
               7.86197494                2.95486933               86.10447519                0.01000000               -0.39473882               -0.07089587                0.10803190                0.59009730                0.07941132                0.07806712
               8.85731048                2.95788262               86.10705220                1.00000000               -0.25099582               -0.03671043                0.12540457                0.10746261                0.02451772                0.03887337
               9.85695502                2.95878312               86.10908009                0.99999999               -0.03554543               -0.03484956                0.11164334               -0.00343134               -0.00353561               -0.02462861
              -0.11300224                3.95723297               86.07832467                0.17716443               -0.01147987                0.01499072                0.12001050                0.26848732               -0.00620972                0.12282814
               0.88688296                3.94840384               86.08018225                0.01000000                0.04309165               -0.29458397                0.12788389                0.54212954                0.16394086                0.13013236
               1.88785960                3.94449312               86.08513552                0.01000002                0.00559003               -0.17771440                0.10753786                0.81505125                0.22164239                0.13703370
               2.88699476                3.94383830               86.08988247                0.01000001               -0.12349811               -0.15882006                0.10719246                1.03696602                0.16773880                0.15525238
               3.88538963                3.94507798               86.09446695                0.01005164               -0.20129896               -0.13799719                0.11791950                1.24689481                0.15034688                0.15214583
               4.88296878                3.94799901               86.09880471                0.01000000               -0.28343692               -0.09470526                0.11967574                1.41636504                0.15104220                0.11772106
               5.87972089                3.95152989               86.10297833                0.01000001               -0.38803986               -0.09010094                0.12922941                1.47011630                0.14684946                0.11327582
               6.87520799                3.95436311               86.10652434                0.01000000               -0.59578759               -0.04362038                0.13582233                1.39554270                0.15650276                0.03619799
               7.86780514                3.95592528               86.10970629                0.01000001               -0.93938169                0.07736448                0.12665803                1.29982908                0.13154941                0.03933961
               8.85642035                3.95748376               86.11189231                0.01000002               -0.58956238               -0.09497956                0.14308778                1.31854651                0.02932573                0.09640776
               9.85601389                3.95842069               86.11375631                0.27386697               -0.04064588               -0.72355060                0.12623723                1.30556553                0.01214545                0.11697523
              -0.09814601                4.95660099               86.08160779                0.24601100                0.02283299               -0.17080942                0.11121028                0.15949899                0.06744912               -0.10467390
               0.90208232                4.94463246               86.08509307                0.01000000               -0.12121165               -0.16071848                0.15821325                0.66051599                0.07707645                0.16229154
               1.89942976                4.94282757               86.08886363                0.01000001               -0.20923691               -0.18475261                0.12033704                1.00226573                0.10545085                0.13569819
               2.89789758                4.94182750               86.09359565                0.01000000               -0.14150091               -0.25166477                0.11596895                1.14865932                0.14061618                0.14017552
               3.89659974                4.94326621               86.09839709                0.01000000               -0.14492247               -0.22824605                0.11777844                1.40106655                0.11516278                0.13655222
               4.89499913                4.94685674               86.10289606                0.01080605               -0.20541622               -0.16960113                0.10751778                1.56545411                0.10553088                0.09347166
               5.89249142                4.95045911               86.10733483                0.01000001               -0.31392080               -0.08491425                0.11392120                1.71238156                0.08770472                0.08442628
               6.88872072                4.95449812               86.11136877                0.01113381               -0.38202721               -0.06278156                0.13410792                1.76515722                0.09429715                0.00346432
               7.88485087                4.95641662               86.11491707                0.01000002               -0.37673625               -0.00640828                0.14804067                1.75737284                0.09032928                0.02686941
               8.88118599                4.95598302               86.11809694                0.01000000               -0.18292051               -0.21154176                0.14686948                1.58190655                0.06204410                0.14637554
               9.88119246                4.94431211               86.12116631                0.01000003                0.00064685               -0.85073467                0.15972403                1.01964145                0.04580065                0.26825955
              -0.08587519                5.95381678               86.08286655                0.99643643               -0.02581006               -0.15338010                0.07977101                0.18226185                0.00432548               -0.06307912
               0.91386671                5.94518947               86.08739611                0.01017336               -0.17074700                0.01593191                0.09564977                0.36985079                0.01935592               -0.00495847
               1.91070987                5.94079807               86.09227322                0.01045795               -0.21687009               -0.28233484                0.11421210                0.81930243                0.08618632                0.14829938
               2.90952930                5.93880500               86.09718341                0.01000000               -0.11640711               -0.33729892                0.13698653                1.11856511                0.10278242                0.08172734
               3.90838173                5.94051306               86.10207395                0.01000001               -0.12221675               -0.34524733                0.12907158                1.43780701                0.10437422                0.11816727
               4.90708497                5.94460698               86.10684429                0.01000001               -0.10272901               -0.31019464                0.11777158                1.70002588                0.09626467                0.04849445
               5.90632714                5.94983161               86.11144589                0.01281562               -0.12656742               -0.12013126                0.10132795                1.72354673                0.08941811                0.05880123
               6.90455362                5.95310748               86.11597278                0.01000002               -0.24297248               -0.10819057                0.13244169                1.72530042                0.08909851               -0.03951738
               7.90146770                5.95579711               86.12020889                0.01000003               -0.21953120               -0.02710615                0.14542430                1.60422082                0.06833701                0.05476981
               8.90016300                5.95325292               86.12413444                0.01000007               -0.08595686               -0.15126734                0.15430945                1.01375067                0.06946207                0.08056490
               9.89974856                5.94140600               86.12780281                0.01000000               -0.04144392               -0.08699267                0.16692467                0.48406728                0.03079353                0.25927006
              -0.07724615                6.95353339               86.08507755                1.00000000               -0.02558046               -0.02997190                0.07748231                0.00012845                0.00177684               -0.02748369
               0.92249805                6.94495110               86.08965006                0.01000000               -0.02767886               -0.02193781                0.09211515                0.04158334                0.10383961               -0.00599458
               1.92220028                6.93718087               86.09627422                0.01260864               -0.09720770               -0.21915054                0.23844585                0.50900287                0.10160608               -0.01851026
               2.92055390                6.93508152               86.09989132                0.01049558               -0.13231906               -0.34559889                0.11590314                0.92069389                0.02164176                0.05127122
               3.91955390                6.93636127               86.10514808                0.01000000               -0.04363952               -0.56224249                0.13684375                1.38483577                0.02411166                0.10749855
               4.91968110                6.94065285               86.11016349                0.01110554               -0.05460194               -0.45131379                0.15022606                1.80909217                0.00960093                0.02362731
               5.91846186                6.94805648               86.11539036                0.01000002               -0.12099436               -0.21465445                0.13719217                1.75882413                0.00006688                0.03264301
               6.91726122                6.95233431               86.12042198                0.01000003               -0.08360066               -0.04517582                0.10513398                1.65096461               -0.00650903               -0.03161206
               7.91678984                6.95587450               86.12525677                0.01000000               -0.07045489                0.07563695                0.11321861                1.50492151               -0.02945117                0.08395383
               8.91585212                6.95295768               86.12996620                0.01030429               -0.11110958                0.08817395                0.14642826                0.83414299               -0.02849070                0.09015919
               9.91456765                6.94257225               86.13464224                0.01000000               -0.12844685                0.22797659                0.16712863                0.33572939                0.00384157                0.22244537
              -0.06870804                7.95321734               86.08714045                0.99999999               -0.02410696               -0.03003038                0.07731053                0.00121712                0.00635645               -0.03939406
               0.93105089                7.94475071               86.09189745                1.00000000               -0.02662314               -0.02274197                0.09294477                0.00802882                0.01219512               -0.00541218
               1.93075950                7.93641506               86.09674832                0.01000001               -0.11440524               -0.05509953                0.11001605                0.20492217                0.06230977               -0.06717703
               2.92876279                7.93189302               86.10250771                0.01000000               -0.01261913               -0.36922346                0.10619895                0.55576262                0.06993011                0.06602482
               3.93050712                7.92926821               86.10765393                0.01328862                0.14044039               -0.85234494                0.13091987                1.12684928                0.07053226                0.05085840
               4.93157159                7.93558071               86.11319139                0.01000002               -0.03424754               -0.36183834                0.15488521                1.67292262                0.11524580               -0.06337363
               5.92982217                7.94553852               86.11892578                0.01000003               -0.09083468               -0.20017698                0.15259271                1.67266120                0.08118280                0.03823792
               6.92975490                7.95220396               86.12467062                0.01000000                0.05602958               -0.05686446                0.11008609                1.52959880                0.09479973               -0.04472932
               7.93094276                7.95730985               86.13087918                0.01399768                0.01965996                0.04352436                0.11702151                1.27840917                0.12802746                0.12986266
               8.93014810                7.95501640               86.13665569                0.01000001               -0.18543816                0.25990762                0.13549389                0.73823658                0.01022363                0.15285892
               9.92723399                7.94596553               86.14116402                0.01000000               -0.29141068                0.61050934                0.19308763                0.44035150               -0.07804847                0.27122475
              -0.06028854                8.95293278               86.08917478                0.99999999               -0.02505474               -0.02604194                0.07538065               -0.00121197                0.00228451               -0.03316624
               0.93946091                8.94449626               86.09408655                0.99999998               -0.02775236               -0.02614266                0.09202856               -0.00080758                0.00628206               -0.00597158
               1.93915641                8.93607888               86.09904873                0.99999995               -0.03224571               -0.03259290                0.10915616                0.00087782                0.02262337                0.01507633
               2.93881600                8.92769705               86.10427602                1.00000000               -0.03766085               -0.22850695                0.13015811                0.08443868                0.02915429               -0.00484322
               3.93840319                8.91931437               86.10935730                0.01000002               -0.09733732               -0.51905678                0.14904708                1.10205480                0.09216019                0.00846636
               4.93686925                8.93341608               86.11587629                0.01000000               -0.15556835               -0.09605743                0.13546002                1.38138845                0.11128040                0.00158193
               5.93529183                8.94405294               86.12247025                0.01000000               -0.03936966               -0.11581508                0.14431562                1.01218607                0.07902306                0.04378801
               6.93608186                8.95119702               86.12886209                0.01000000                0.21268798               -0.15084827                0.13961943                0.87843422                0.08181765               -0.03050545
               7.93954559                8.95674498               86.13608992                0.01146060                0.29396577               -0.15205189                0.10100157                0.80540180                0.12024258                0.02258062
               8.94196117                8.95815583               86.14348197                0.99999999                0.09654170                0.13232776                0.15398802                0.66455108                0.06182575                0.09843384
               9.94147642                8.95478244               86.14948445                1.00000000               -0.04847518                0.41325286                0.17168667                0.54304642               -0.00776347                0.15772559
              -0.05185923                9.95269651               86.09136939                1.00000000               -0.02521291               -0.02362742                0.07419376               -0.00393337               -0.01636411               -0.02330637
               0.94788864                9.94422786               86.09629307                1.00000000               -0.02822559               -0.02683955                0.09048808               -0.00389222               -0.01643180               -0.00366442
               1.94757626                9.93576320               86.10117982                0.99999996               -0.03362841               -0.03156777                0.10542800               -0.00326413               -0.01672145                0.00729760
               2.94721607                9.92732288               86.10609902                0.99999999               -0.03735369               -0.03741690                0.11915731               -0.00379872               -0.01361227               -0.00279162
               3.94682918                9.91888707               86.11107039                0.32709040               -0.63776436               -0.04272920                0.13448360                1.15943289                0.12706304                0.00755898
               4.93446079                9.93365956               86.11881207                0.01032478               -0.72721192                0.02434809                0.14399553                0.97591056                0.24875898                0.03958033
               5.93228495                9.94322222               86.12566465                0.01000000                0.00853802               -0.08307291                0.14959425                0.47568371                0.21331309                0.00117533
               6.93463155                9.94918700               86.13300860                0.01000000                0.39035179               -0.20100229                0.15999674                0.40729887                0.18646989                0.01491391
               7.94009198                9.95426882               86.14001139                0.01048504                0.53850595               -0.24761685                0.14898245                0.47843754                0.18947824               -0.05490796
               8.94540167                9.95766296               86.14849263                0.99999999                0.23748591               -0.04928731                0.17655643                0.34213792                0.13126174                0.00732324
               9.94484170                9.95423059               86.15449511                0.99999999               -0.05599648               -0.05518514                0.19425424               -0.00670883                0.00743324               -0.00743407
              -0.13936529               -0.04593283               87.06735676                0.91974369               -0.01053442               -0.00963185                0.06009998                0.00406349                0.00555810               -0.00115473
               0.86052936               -0.05054510               87.07042991                0.84032765               -0.00318850               -0.03239633                0.07425003                0.00970495                0.02089765               -0.00567242
               1.86057094               -0.05463276               87.07374490                0.60544555                0.01481156               -0.02565305                0.09238078                0.03124502                0.06956513               -0.00127759
               2.86082559               -0.05754366               87.07755900                0.32604636                0.06131436               -0.02374917                0.09402457                0.14901824                0.11217586                0.00434905
               3.86179722               -0.05663618               87.08166920                0.25150530               -0.06382433                0.03741655                0.08073334                0.16792287                0.04129901                0.00537280
               4.85954911               -0.05052700               87.08475262                0.44262525               -0.18985173                0.01026035                0.08226796                0.18289685               -0.12771316                0.06351590
               5.85800019               -0.04788058               87.08616694                1.00000000               -0.09609487               -0.03343032                0.10078174                0.08767842               -0.08117437                0.00433785
               6.85762721               -0.04707599               87.08869773                1.00000000               -0.03560297               -0.02777011                0.08400439               -0.00074170               -0.03771394                0.00728940
               7.85728813               -0.04644069               87.09111238                0.99924812               -0.03006753               -0.02494985                0.07551284               -0.00141765               -0.04974628                0.01317681
               8.85702586               -0.04589971               87.09347438                0.99999999               -0.02319910               -0.02306304                0.06802070               -0.00309191               -0.04366305                0.00126841
               9.85682415               -0.04532117               87.09602581                0.99814999               -0.02017114               -0.02177540                0.06126268               -0.00546873               -0.03325510               -0.02811827
              -0.13471239                0.95397085               87.06983372                0.89992236               -0.03112372               -0.00437728                0.07218148                0.00579327               -0.00391754                0.01195915
               0.86497638                0.94913093               87.07283569                0.01726032               -0.04524748               -0.04291769                0.08658747                0.03909577               -0.00106459               -0.00256871
               1.86438267                0.94511071               87.07596258                0.01000000               -0.08294480               -0.02473321                0.10220443                0.11464207                0.00412107                0.05942779
               2.86331748                0.94221885               87.07938012                0.01000001               -0.22072736                0.02923992                0.11317158                0.28507131                0.02819930                0.10446732
               3.85996812                0.94373799               87.08326871                0.01000000               -0.31586020                0.04382407                0.14180438                0.55009213                0.11381350                0.14236763
               4.85700028                0.94957561               87.08832728                0.01000000               -0.14083254               -0.11675016                0.12453869                0.58546646                0.10484000                0.03049647
               5.85715147                0.95178511               87.09027564                0.01000000               -0.00502176               -0.14016993                0.11907446                0.28321731               -0.03602610                0.04385360
               6.85689984                0.95264631               87.09298071                0.56347273               -0.02328258               -0.02357994                0.10708286                0.02026014                0.00834619                0.06221677
               7.85668582                0.95330982               87.09570887                1.00000000               -0.02323305               -0.02867768                0.09544386                0.00493188                0.00266212                0.02191145
               8.85643518                0.95386966               87.09824572                0.99999999               -0.02474500               -0.02572250                0.08659211               -0.00147021               -0.00515881                0.00684915
               9.85619092                0.95446108               87.10080259                0.99999999               -0.02442658               -0.02559217                0.07955267               -0.00449314               -0.00340771               -0.03188694
              -0.12956959                1.95397963               87.07251519                0.70966909               -0.02589868                0.00527518                0.08720951                0.01863318               -0.00304652                0.05183652
               0.87017142                1.94859654               87.07536587                0.01000000               -0.03272724               -0.06619737                0.10155266                0.10272826                0.05463189                0.00300825
               1.86977586                1.94487257               87.07933513                0.01000001               -0.11358431               -0.05488629                0.07733376                0.29990309                0.09832575                0.08570818
               2.86789974                1.94304114               87.08308886                0.01000001               -0.21667806                0.02783285                0.11975199                0.55204547                0.10533812                0.18286203
               3.86544230                1.94424030               87.08729251                0.01000003               -0.23442130               -0.00699536                0.13072434                0.86426741                0.14049015                0.19557066
               4.86321131                1.94713800               87.09141145                0.01000001               -0.24242372               -0.18211085                0.13544131                0.93501351                0.13321579                0.08008887
               5.86059383                1.94931602               87.09515713                0.01000000               -0.33518009               -0.15661567                0.12467167                0.76720528                0.10023356                0.10488607
               6.85650771                1.95245241               87.09832629                0.01000001               -0.22152033               -0.09035619                0.10263107                0.49820076                0.03153627                0.07868791
               7.85616342                1.95298576               87.10044847                0.01000001               -0.03312572               -0.15529695                0.11183999                0.22989785                0.00668640                0.05508951
               8.85584519                1.95358584               87.10308829                1.00000000               -0.03059894               -0.03021003                0.10604354                0.00314117                0.02245829                0.03234773
               9.85555144                1.95416699               87.10548164                0.99999999               -0.02937506               -0.03222779                0.09645063               -0.00364958                0.01105970               -0.03624767
              -0.12357356                2.95407636               87.07559297                0.38227165               -0.02884488                0.04301110                0.09531108                0.10552953                0.00589694                0.10764219
               0.87613800                2.94780699               87.07815852                0.01000001               -0.02451551               -0.15456956                0.11564558                0.24608163                0.10407790                0.03260523
               1.87593613                2.94401298               87.08260952                0.01000001               -0.05736681               -0.13299903                0.11678015                0.52155974                0.18034328                0.10454164
               2.87499066                2.94277550               87.08707801                0.01000000               -0.13897663               -0.07302168                0.11167117                0.78576919                0.16087425                0.16711926
               3.87315660                2.94359808               87.09147328                0.01000001               -0.21829124               -0.08253651                0.12258952                1.00893421                0.15289853                0.17578189
               4.87062483                2.94593339               87.09568680                0.01000000               -0.29877214               -0.12018567                0.13243845                1.11344552                0.15149905                0.13105019
               5.86718116                2.94865280               87.09970696                0.01000000               -0.37153601               -0.04728867                0.12960939                1.10298344                0.13480419                0.09484473
               6.86319411                2.95083919               87.10297226                0.01000000               -0.35154039               -0.17106335                0.12892355                0.96663970                0.17490694               -0.03595970
               7.86015035                2.95020388               87.10571210                0.01000001               -0.39386674               -0.09780665                0.13768117                0.64930932                0.07439439                0.08277198
               8.85531678                2.95326545               87.10832554                0.99999999               -0.25973636               -0.03645700                0.12974969                0.12730929                0.03352275                0.04485436
               9.85495562                2.95381652               87.11019049                0.99999999               -0.03611560               -0.03575429                0.11051803               -0.00423489               -0.00472920               -0.03131565
              -0.11492026                3.95483985               87.07929802                0.25431408                0.00766900               -0.04171113                0.08556335                0.18532064                0.00578693                0.09211596
               0.88515643                3.94550515               87.08155149                0.01000000                0.00794009               -0.25994348                0.13695426                0.50867051                0.14921756                0.13648441
               1.88523854                3.94221259               87.08636254                0.01000003               -0.05632058               -0.17303435                0.12592148                0.81928430                0.20049199                0.14249236
               2.88403002                3.94158070               87.09103731                0.01000001               -0.13877213               -0.15729234                0.12004721                0.99771490                0.17005433                0.15273186
               3.88246310                3.94258957               87.09571079                0.01061323               -0.18022584               -0.12780705                0.12581909                1.14529597                0.15391305                0.15647644
               4.88042550                3.94473429               87.10000795                0.01047994               -0.23577002               -0.13076092                0.12535335                1.31323075                0.16650545                0.08869957
               5.87774770                3.94837024               87.10418403                0.01322942               -0.30680386               -0.04716758                0.11559047                1.27348322                0.17388739                0.04986662
               6.87428943                3.94903115               87.10780459                0.01027676               -0.55121787               -0.09752206                0.13350173                1.26637879                0.17314102               -0.02189461
               7.86672334                3.95102963               87.11113980                0.01000000               -0.97553440                0.07977878                0.16111344                1.27487771                0.11323522                0.06630537
               8.85477874                3.95285670               87.11335256                0.01000000               -0.61793631               -0.10874473                0.15015597                1.28372550                0.04388782                0.10232194
               9.85436462                3.95345190               87.11501529                0.19980910               -0.04141212               -0.70075595                0.12568761                1.24645675                0.01523960                0.13459476
              -0.10119775                4.95324213               87.08252062                0.41593159                0.01364117               -0.16811298                0.08276673                0.15987304                0.06303541               -0.09407204
               0.89893866                4.94260812               87.08657276                0.01000000               -0.12779897               -0.13280202                0.12542922                0.57077076                0.02858402                0.13929119
               1.89624627                4.94055229               87.09011939                0.01000001               -0.21853428               -0.19305137                0.12748575                0.91563300                0.07173673                0.13557643
               2.89456798                4.93962966               87.09485082                0.01000000               -0.16686669               -0.24409599                0.12978284                1.09974468                0.12378031                0.14926987
               3.89290894                4.94104194               87.09958709                0.01047881               -0.17295979               -0.19093057                0.12486430                1.30186251                0.08494255                0.16009709
               4.89110878                4.94331817               87.10398098                0.01000000               -0.22774867               -0.19769988                0.12694328                1.51050740                0.04424183                0.03876342
               5.88835396                4.94770945               87.10850720                0.01149218               -0.26232364               -0.11383222                0.12474011                1.50399006                0.01667235                0.05615116
               6.88586231                4.94888875               87.11273757                0.01000000               -0.32658032               -0.03392842                0.12003288                1.50343960                0.04624149               -0.03765725
               7.88182236                4.95179945               87.11637650                0.01000007               -0.36466448                0.02063375                0.13571467                1.69275672               -0.00745685                0.08186071
               8.87856902                4.95109056               87.11975519                0.01002708               -0.15640031               -0.27275915                0.17424103                1.54206019                0.03683839                0.13073416
               9.87869435                4.93980140               87.12305021                0.01000000                0.01253330               -0.80637047                0.22336104                0.97667026                0.04280760                0.30659067
              -0.09045476                5.95147759               87.08371523                1.00000000               -0.02835505               -0.10556319                0.08915531                0.10361356                0.00237885               -0.06376034
               0.90926169                5.94284911               87.08839592                0.01000000               -0.15077866                0.00155988                0.10198240                0.29025611                0.02678655               -0.03108043
               1.90652966                5.93835157               87.09358229                0.01000000               -0.18632099               -0.30863936                0.12809285                0.78983016                0.08790186                0.15724879
               2.90553527                5.93669878               87.09857292                0.01000000               -0.08589145               -0.31095939                0.13038309                1.09425712                0.08675761                0.11375573
               3.90481183                5.93877096               87.10333039                0.01323667               -0.07835617               -0.27407149                0.11857265                1.25169927                0.04462207                0.15409841
               4.90396814                5.94078029               87.10806605                0.01151560               -0.12774545               -0.26150651                0.12862744                1.49533401                0.06007906                0.01078255
               5.90225693                5.94609360               87.11247598                0.01000000               -0.18499649               -0.17970561                0.12437708                1.62334695                0.00590789                0.00090617
               6.90026821                5.94835258               87.11733015                0.01067908               -0.19401309               -0.04232433                0.11818303                1.60093207               -0.02315361               -0.00125774
               7.89837666                5.95144230               87.12161096                0.01380854               -0.13251100               -0.02934641                0.11364658                1.42571881                0.04281819                0.04978634
               8.89761799                5.94740151               87.12577712                0.01000001               -0.09501616               -0.20167765                0.14944060                0.88132152                0.05160575                0.05460273
               9.89647634                5.93732449               87.12969384                0.01000000               -0.11416526               -0.08000386                0.22588121                0.53125076                0.00119407                0.25021845
              -0.08186853                6.95113087               87.08585919                0.99980413               -0.02616680               -0.03516442                0.07846582                0.00007826                0.00271613               -0.02916942
               0.91786981                6.94263931               87.09057998                0.11604103                0.00308638               -0.01825163                0.09394926                0.01441739                0.13311063               -0.00679906
               1.91819320                6.93437951               87.09790862                0.01000001               -0.09180433               -0.19885559                0.11413670                0.51251230                0.09092168               -0.01955676
               2.91603372                6.93341047               87.10128600                0.01000000               -0.21658940               -0.30674456                0.13751023                0.96274740               -0.10440987                0.13454943
               3.91386141                6.93556051               87.10641727                0.01029152               -0.11704485               -0.53077451                0.13784550                1.24979467               -0.01635818                0.15571930
               4.91369282                6.93808804               87.11187757                0.01000000               -0.03064011               -0.39681843                0.13915110                1.54813591               -0.03868897                0.04968535
               5.91324861                6.94411534               87.11682421                0.01067727               -0.05802888               -0.17046312                0.12398345                1.62767213               -0.02224744               -0.02330475
               6.91253225                6.94804226               87.12133671                0.01133479               -0.09804067               -0.06339371                0.11337034                1.56261706                0.00699227                0.00282589
               7.91128780                6.95121252               87.12631698                0.01000003               -0.11094927                0.03337281                0.10928906                1.29252464               -0.01761458                0.00875481
               8.91031326                6.94705701               87.13156701                0.01000001               -0.09071945                0.12155959                0.13071648                0.69690360               -0.03295788                0.04677371
               9.90947341                6.93820132               87.13643401                0.01000003               -0.08398500                0.22165139                0.17351123                0.37592363               -0.03547392                0.26605189
              -0.07347009                7.95077430               87.08789449                1.00000000               -0.02285162               -0.03242488                0.07340815                0.00151573                0.00798954               -0.04130622
               0.92630140                7.94248408               87.09282237                1.00000000               -0.02605789               -0.01972276                0.09232436                0.01188861                0.01512481               -0.00389308
               1.92600876                7.93437445               87.09786303                0.01000002               -0.13460935               -0.01730268                0.11315078                0.20486243                0.05189019               -0.08990224
               2.92360921                7.93056389               87.10353935                0.01000001               -0.04393005               -0.37542424                0.12898321                0.58144134                0.06785430                0.05398760
               3.92513015                7.92815547               87.10941580                0.01000000                0.13834127               -0.88940092                0.16197860                1.09364223               -0.00430205                0.10072162
               4.92637604                7.93284392               87.11483377                0.01000007               -0.01370027               -0.35470498                0.14956775                1.61492504               -0.03000737                0.07210142
               5.92485615                7.94268434               87.12050864                0.01361382               -0.09763348               -0.11940092                0.12419758                1.49777988                0.02038904                0.00822862
               6.92442337                7.94708470               87.12570195                0.01000003                0.01781305               -0.09691471                0.10788137                1.31184911               -0.00350195               -0.03560298
               7.92521241                7.95210976               87.13156013                0.01043223                0.00719499                0.01771328                0.09510307                1.22032874               -0.05012687               -0.05093792
               8.92456727                7.94983270               87.13731964                0.01000001               -0.17531148                0.30259349                0.11382303                0.75640949               -0.01534984                0.16947123
               9.92170618                7.94175752               87.14343575                0.01000001               -0.28610856                0.56900089                0.19274359                0.48420352                0.03043521                0.29658347
              -0.06525777                8.95048237               87.08989674                0.99999999               -0.02348065               -0.02553199                0.06894235               -0.00221624                0.00260754               -0.03572814
               0.93450743                8.94224486               87.09499197                0.99999999               -0.02657967               -0.02466846                0.08895922               -0.00125525                0.00730645               -0.00592775
               1.93421064                8.93403345               87.10014333                0.99999996               -0.03129491               -0.03242846                0.10961060                0.00282239                0.02702194                0.01669591
               2.93388153                8.92590198               87.10560211                0.99999998               -0.03782046               -0.25216842                0.13543297                0.10807427                0.03644512                0.01584317
               3.93345423                8.91777249               87.11088828                0.01000000               -0.12095340               -0.54114898                0.15777908                1.08012034                0.09447511                0.00949855
               4.93146246                8.93099394               87.11753204                0.01020420               -0.22454017               -0.07049884                0.17345223                1.34939657                0.14673780                0.04989027
               5.92896343                8.94172732               87.12394174                0.01000001               -0.10593267               -0.12123194                0.13993972                0.88132743                0.05064412                0.02980430
               6.92934381                8.94610397               87.13030986                0.01000001                0.19914739               -0.11132352                0.11746297                0.73703989                0.02057607               -0.05610908
               7.93294637                8.95156679               87.13676691                0.01209256                0.32249422               -0.15587224                0.10041709                0.78775612                0.10695922               -0.00433236
               8.93579369                8.95310888               87.14502846                0.99999999                0.11807395                0.13900161                0.15530494                0.64156316                0.09694812                0.13144705
               9.93530785                8.94958134               87.15119802                0.99712415               -0.04858376                0.36376182                0.17102728                0.50319183               -0.00776146                0.11869839
              -0.05703938                9.95026366               87.09206850                0.99960078               -0.02354038               -0.02187123                0.06581623               -0.00545671               -0.01898554               -0.02574630
               0.94272521                9.94199071               87.09717154                0.99999999               -0.02762681               -0.02541496                0.08529272               -0.00511018               -0.02001596               -0.00410769
               1.94240808                9.93372588               87.10222184                1.00000000               -0.03467776               -0.03075689                0.10288386               -0.00376526               -0.02281158                0.00768201
               2.94203166                9.92552052               87.10728581                0.99999997               -0.03837382               -0.03814606                0.11804887               -0.00465662               -0.02098076               -0.00401740
               3.94164060                9.91733249               87.11241864                0.42920115               -0.63112573               -0.04399990                0.13480548                1.11430844                0.12353257                0.01093232
               4.92940914                9.93143394               87.12038240                0.01000000               -0.71339648                0.04400024                0.20706905                0.94102854                0.26040629                0.04461561
               5.92737267                9.94025970               87.12736686                0.01000000               -0.00422251               -0.14676190                0.21076289                0.51213925                0.20830418                0.00552928
               6.92932469                9.94485823               87.13444544                0.01000000                0.32949744               -0.12457318                0.15065754                0.43471937                0.23064479               -0.04188889
               7.93396262                9.94899231               87.14262486                0.01000002                0.50296429               -0.25744755                0.17762597                0.48934996                0.17262524                0.04656447
               8.93938398                9.95261274               87.15026150                0.99745304                0.24312329               -0.04961398                0.17721541                0.36105077                0.08068011                0.00732510
               9.93882509                9.94903275               87.15643104                1.00000000               -0.05588899               -0.05485864                0.19293883               -0.00627469                0.00743652               -0.00743154
              -0.14245140               -0.04849259               88.06796394                0.90685976               -0.00748732               -0.00700163                0.06225247                0.00394781                0.00715110               -0.00188834
               0.85747373               -0.05307296               88.07116981                0.82151330                0.00433397               -0.03534275                0.07385503                0.01382679                0.02298337               -0.00465865
               1.85763528               -0.05691745               88.07464325                0.66568720                0.02078817               -0.02237559                0.08709382                0.02635022                0.06313724               -0.00165561
               2.85788949               -0.05941212               88.07842502                0.39085408                0.04222933               -0.01851818                0.08297343                0.12179263                0.08327881                0.00716717
               3.85847987               -0.05851808               88.08232905                0.32142269               -0.08035897                0.04440773                0.06458300                0.10820038                0.02151184                0.00841683
               4.85628231               -0.05386209               88.08549154                0.64011027               -0.16005764                0.00257107                0.06946141                0.15156266               -0.07134694                0.03165836
               5.85527871               -0.05206907               88.08719285                1.00000000               -0.07266873               -0.03063444                0.09950632                0.04623475               -0.06927997                0.00019310
               6.85482894               -0.05138937               88.08952820                1.00000000               -0.04168944               -0.02517231                0.08180388                0.00172750               -0.04459194                0.00984450
               7.85444493               -0.05100466               88.09184736                1.00000000               -0.03300364               -0.02297785                0.07170562               -0.00055211               -0.05168705                0.01340679
               8.85416886               -0.05075503               88.09412827                0.99778908               -0.02363540               -0.02068542                0.06307559               -0.00299828               -0.04526870                0.00043725
               9.85397222               -0.05047868               88.09661138                0.99616727               -0.01966470               -0.02084224                0.05675466               -0.00591510               -0.03501251               -0.03020106
              -0.13783155                0.95143739               88.07056238                0.86304548               -0.03440262                0.00217720                0.07352889                0.00962077               -0.00344239                0.01103790
               0.86182443                0.94657361               88.07370487                0.01896798               -0.05500462               -0.05171472                0.08640577                0.05902896                0.00088890                0.00057366
               1.86106836                0.94285879               88.07699088                0.01000000               -0.09583475               -0.04390215                0.10252636                0.13550253                0.00697071                0.02610328
               2.85990773                0.94040270               88.08053096                0.01000000               -0.21407511                0.01808642                0.11290824                0.30162370                0.04580729                0.09995867
               3.85678686                0.94192600               88.08463828                0.01031032               -0.26671492                0.02321224                0.12457641                0.49576986                0.13962337                0.09241159
               4.85457343                0.94616362               88.08931419                0.01000000               -0.11410791               -0.10758385                0.08873963                0.50362395                0.09782946                0.00419053
               5.85450470                0.94762459               88.09144460                0.01000000               -0.01297127               -0.11552953                0.10992452                0.25289731               -0.02284016                0.03590298
               6.85431401                0.94835891               88.09403481                0.68580336               -0.01912332               -0.02232371                0.10213995                0.02589899                0.00598470                0.05363110
               7.85412223                0.94876556               88.09664842                1.00000000               -0.02190577               -0.02767923                0.09139637                0.00606516                0.00015691                0.02074773
               8.85387589                0.94903812               88.09909441                0.99999996               -0.02427576               -0.02299382                0.08274829               -0.00103196               -0.00623695                0.00736963
               9.85363672                0.94931290               88.10158178                1.00000000               -0.02391739               -0.02582425                0.07647829               -0.00523219               -0.00393988               -0.03518187
              -0.13253141                1.95155095               88.07337945                0.74906876               -0.02356778                0.01168967                0.08529297                0.01639733               -0.00378054                0.04714802
               0.86723291                1.94589274               88.07639289                0.01000000               -0.04761726               -0.07914935                0.10270563                0.11970071                0.01992828                0.00750624
               1.86651624                1.94220451               88.07984049                0.01000000               -0.11890742               -0.07067544                0.10324936                0.36195390                0.09126232                0.09805230
               2.86485476                1.94094961               88.08442193                0.01000001               -0.19409472               -0.00024323                0.12143194                0.59653883                0.13822131                0.15810464
               3.86263435                1.94194617               88.08862447                0.01000001               -0.20992790               -0.04012451                0.12991450                0.82607469                0.14162745                0.14169933
               4.86065620                1.94398623               88.09273281                0.01000000               -0.22464877               -0.16941322                0.12671470                0.85103918                0.12689908                0.05207106
               5.85814137                1.94562034               88.09632986                0.01194309               -0.32251299               -0.12467338                0.12228456                0.72685214                0.08548369                0.08278360
               6.85420594                1.94816416               88.09935651                0.01000000               -0.21271763               -0.15929339                0.09880256                0.56028322                0.03372305                0.07181745
               7.85388702                1.94844176               88.10155142                0.01000000               -0.03025257               -0.14660592                0.10661664                0.23041226                0.01513353                0.06483206
               8.85360089                1.94878510               88.10414379                0.99999996               -0.02845022               -0.02613453                0.10407801                0.00948644                0.02436104                0.03894220
               9.85331801                1.94900484               88.10643819                1.00000000               -0.02828765               -0.03448730                0.09459706               -0.00333431                0.01107102               -0.04277561
              -0.12618718                2.95167119               88.07649349                0.44509153               -0.02479342                0.02983468                0.08757751                0.08884205                0.00610044                0.08448069
               0.87356489                2.94499062               88.07932908                0.01000000               -0.02811262               -0.15867282                0.11595569                0.26719940                0.09590842                0.04626671
               1.87325057                2.94144528               88.08389618                0.01000001               -0.07340205               -0.11857019                0.11911415                0.56372941                0.15907800                0.13931357
               2.87209685                2.94039783               88.08825719                0.01000001               -0.14894194               -0.09147468                0.12293228                0.79355294                0.14387546                0.14590677
               3.87027173                2.94112351               88.09273505                0.01000000               -0.20884033               -0.09262300                0.12697956                0.96202168                0.14405266                0.14304461
               4.86792004                2.94277535               88.09703746                0.01085768               -0.27039578               -0.12537078                0.13872799                1.05885328                0.12814427                0.09324468
               5.86486382                2.94513112               88.10090743                0.01183343               -0.26108924               -0.09466764                0.13236397                0.98291587                0.10341250                0.05434928
               6.86269826                2.94517304               88.10422861                0.01000000               -0.33771385               -0.20021248                0.14490087                0.91057115                0.14462312                0.01446285
               7.85810954                2.94583344               88.10722881                0.01000000               -0.45978569               -0.09273835                0.14496264                0.69886207                0.06432114                0.13668869
               8.85350254                2.94851543               88.10964719                1.00000000               -0.24894931               -0.03422743                0.13417983                0.13057163                0.03345226                0.05695770
               9.85313055                2.94862315               88.11129045                0.99999998               -0.03719895               -0.03759836                0.10987478               -0.00546724               -0.00701229               -0.04058769
              -0.11739344                3.95214765               88.08003594                0.32647287                0.01962420               -0.06844203                0.07156775                0.11704289                0.00845146                0.06386754
               0.88280280                3.94271929               88.08292133                0.01030613               -0.01114707               -0.22083838                0.12822901                0.45878962                0.10657487                0.14977369
               1.88238362                3.93983310               88.08765395                0.01000001               -0.08776025               -0.15629691                0.12833728                0.78683476                0.15037115                0.14376454
               2.88104759                3.93912012               88.09228341                0.01000000               -0.14431771               -0.15602730                0.12652347                0.95346257                0.14194855                0.14380799
               3.87949726                3.94009371               88.09698333                0.01170973               -0.16109693               -0.11374746                0.12594111                1.06276975                0.12533277                0.12703427
               4.87782566                3.94147881               88.10131178                0.01278307               -0.20476298               -0.16007276                0.13874414                1.13385493                0.09926748                0.08102931
               5.87540200                3.94372699               88.10529014                0.01000000               -0.30553076               -0.09204695                0.12894230                1.09427772                0.08143995               -0.01633099
               6.87171504                3.94415991               88.10919437                0.01000000               -0.54400651               -0.04768142                0.14589153                1.09689975                0.03731880                0.04039663
               7.86452187                3.94658699               88.11292856                0.01000001               -0.91462124                0.08746128                0.17447355                1.17576049                0.01579246                0.06940104
               8.85342262                3.94810055               88.11489543                0.01000002               -0.57643259               -0.11711382                0.15882695                1.17061925                0.05172157                0.11739390
               9.85299322                3.94825287               88.11627007                0.55094160               -0.04293954               -0.64288880                0.12566867                1.13163377                0.02061090                0.18379912
              -0.10498960                4.95030235               88.08326313                0.61343430                0.00448223               -0.14723206                0.06871724                0.13737257                0.03448761               -0.04866776
               0.89505523                4.94057385               88.08760166                0.01000000               -0.12119846               -0.10793185                0.09160644                0.48747880               -0.00017515                0.12184434
               1.89258644                4.93831935               88.09141335                0.01000000               -0.20748657               -0.18396419                0.12627562                0.83053614                0.04398744                0.13399573
               2.89090550                4.93727729               88.09619130                0.01085976               -0.17090032               -0.22375885                0.13835625                1.04989872                0.08903808                0.13026410
               3.88916843                4.93884856               88.10089438                0.01277602               -0.19708190               -0.16644294                0.13882653                1.12901906                0.07734121                0.09729265
               4.88696386                4.93957390               88.10543493                0.01000000               -0.25500753               -0.22763819                0.15000563                1.28784614                0.05121847                0.05143953
               5.88406828                4.94329018               88.10982964                0.01000000               -0.25938035               -0.10971350                0.13056153                1.32123595                0.06164327               -0.03624813
               6.88177625                4.94421941               88.11376942                0.01000001               -0.31920846                0.01616394                0.11532147                1.37665093                0.02757956                0.00146905
               7.87768411                4.94758267               88.11763137                0.01000001               -0.32636004                0.01326808                0.11644260                1.56544797               -0.01912827                0.02820164
               8.87524905                4.94617315               88.12158176                0.01000001               -0.11127612               -0.27836957                0.16756761                1.39361639                0.01058214                0.13478878
               9.87545859                4.93576538               88.12563353                0.01000000                0.02095371               -0.76131535                0.32284033                0.90651135               -0.04452705                0.38837183
              -0.09518901                5.94920301               88.08464965                0.99999999               -0.02756171               -0.07658059                0.09226926                0.05357388                0.00072393               -0.05821584
               0.90453538                5.94056065               88.08943576                0.01000000               -0.12600445               -0.00925937                0.10110596                0.25032073                0.03354797               -0.02686777
               1.90229090                5.93615382               88.09483507                0.01193018               -0.15095102               -0.29051747                0.12455891                0.74052726                0.07577616                0.13915040
               2.90151636                5.93464494               88.09979108                0.01182573               -0.12549351               -0.22356043                0.13265743                0.98312926                0.04090465                0.09565496
               3.89978103                5.93676485               88.10444540                0.01000000               -0.11876994               -0.27291611                0.12968584                1.08739214               -0.02157526                0.07393808
               4.89914096                5.93692605               88.10941684                0.01000000               -0.12999128               -0.23475326                0.13116232                1.31521986               -0.04067863                0.06734232
               5.89718121                5.94153272               88.11393343                0.01000001               -0.20926934               -0.18662234                0.14166511                1.60233140               -0.06756838               -0.05596091
               6.89495557                5.94448319               88.11833644                0.01000000               -0.16520583               -0.01001906                0.11447617                1.57258354               -0.10461683                0.00658626
               7.89387709                5.94685235               88.12248182                0.01000001               -0.09216662               -0.07411224                0.11548460                1.32865520               -0.11001820                0.02077478
               8.89311224                5.94253316               88.12712326                0.01000001               -0.09690472               -0.19112602                0.14318996                0.80005467               -0.11492732                0.16145743
               9.89193900                5.93302656               88.13232043                0.01000001               -0.11732404               -0.08070003                0.19935789                0.48261991               -0.05520878                0.24381619
              -0.08663340                6.94877073               88.08664687                1.00000000               -0.02557673               -0.04246696                0.07765268                0.00104334                0.00319660               -0.03695572
               0.91311083                6.94038867               88.09152904                0.28551869               -0.00269533               -0.01498952                0.09643811                0.02938694                0.11228159               -0.00494395
               1.91331269                6.93250900               88.09855695                0.01000000               -0.15768890               -0.18857561                0.06360717                0.56034149                0.05986972                0.02140021
               2.90995705                6.93280608               88.10264153                0.01000000               -0.23387649               -0.29941373                0.15104625                0.89659901               -0.06082334                0.10459588
               3.90863516                6.93339024               88.10790499                0.01000000               -0.07283341               -0.49766074                0.14973058                1.07091853                0.03370226                0.02102441
               4.90850038                6.93487883               88.11294651                0.01000001               -0.00386946               -0.27788931                0.11207964                1.34525767               -0.01841508                0.05054537
               5.90855777                6.93955773               88.11787003                0.01000000               -0.02960476               -0.14735778                0.11627784                1.56603821               -0.02635704               -0.09194892
               6.90790829                6.94401903               88.12268939                0.01000001               -0.11752641               -0.09822211                0.14291365                1.51102457               -0.03380105               -0.02815308
               7.90620724                6.94610043               88.12744255                0.01000001               -0.14161773               -0.05055937                0.14173250                1.13885181               -0.00847582                0.01355857
               8.90507593                6.94235063               88.13258053                0.01000000               -0.10415345                0.12056103                0.12850804                0.64520965                0.02683496                0.19320007
               9.90412417                6.93415138               88.13811247                0.01000000               -0.09517592                0.20533146                0.16253041                0.36364789                0.01878098                0.21830346
              -0.07840400                7.94835367               88.08860861                1.00000000               -0.02111428               -0.03632629                0.06932395                0.00104675                0.00906921               -0.04540620
               0.92138485                7.94026086               88.09374394                1.00000000               -0.02578378               -0.01800710                0.09196912                0.01391310                0.01765798               -0.00246602
               1.92108032                7.93238231               88.09901133                0.01000002               -0.14088789               -0.02275073                0.11550855                0.20849151                0.06303145               -0.06284507
               2.91856710                7.92865666               88.10508738                0.01000000               -0.09768342               -0.42693098                0.14946950                0.66361134                0.11284391                0.01426176
               3.91912665                7.92681163               88.11089351                0.01000001                0.06557588               -0.84443680                0.16646022                1.12196010                0.00110612                0.02229700
               4.91987861                7.93136826               88.11618274                0.01000001                0.01175618               -0.30067889                0.12022755                1.50120477               -0.06279078                0.06245791
               5.91936178                7.93858556               88.12140973                0.01000001               -0.06226214               -0.08834648                0.11672327                1.30597979               -0.02203316               -0.12834027
               6.91863337                7.94251874               88.12682824                0.01000001               -0.05196240               -0.13438430                0.14252767                1.15077565               -0.00505213               -0.03243889
               7.91832253                7.94584116               88.13278124                0.01000001               -0.03339449               -0.02534117                0.14134855                1.15922808               -0.01590211               -0.02709006
               8.91796548                7.94494438               88.13893215                0.01000000               -0.13560311                0.27461399                0.16549837                0.78425594               -0.00105334                0.23370030
               9.91561046                7.93713319               88.14501889                0.01041693               -0.23550151                0.50048738                0.17437229                0.46177624                0.04757846                0.31151256
              -0.07042685                8.94804421               88.09055363                0.99786786               -0.02126966               -0.02578015                0.06283136               -0.00361978                0.00218886               -0.03882991
               0.92936045                8.94002852               88.09586573                1.00000000               -0.02432174               -0.02371495                0.08527403               -0.00200497                0.00792389               -0.00642914
               1.92908671                8.93205398               88.10124094                0.99999996               -0.02802504               -0.03112441                0.10867981                0.00821911                0.03360628                0.01757899
               2.92879995                8.92426746               88.10698468                1.00000000               -0.03619758               -0.23907635                0.14060016                0.12400413                0.04857870                0.01667550
               3.92836276                8.91650150               88.11251288                0.01000002               -0.10247019               -0.53833194                0.16744138                1.08371907                0.10385128                0.03642433
               4.92675055                8.92886526               88.11934534                0.01000001               -0.24179374               -0.12585585                0.18107846                1.30656894                0.14500023                0.03789222
               5.92352689                8.93779080               88.12526905                0.01000000               -0.15411742               -0.10515099                0.14811973                0.77461545                0.13867238               -0.12784944
               6.92366820                8.94133134               88.13121135                0.01000001                0.17196421               -0.12203375                0.12534378                0.65779344                0.14126015               -0.00403344
               7.92696617                8.94559360               88.13809826                0.01068848                0.29004132               -0.11784802                0.14429405                0.79587339                0.14559420               -0.02962511
               8.92946903                8.94784291               88.14658807                0.99999999                0.10079495                0.11995071                0.15660802                0.69055675                0.10098362                0.11799546
               9.92898207                8.94416112               88.15290499                1.00000000               -0.04869551                0.32413691                0.17036788                0.48386545               -0.00776025                0.11411150
              -0.06244503                9.94783806               88.09268572                0.99678789               -0.02199877               -0.02061449                0.05835861               -0.00696855               -0.02249676               -0.02855170
               0.93733498                9.93978656               88.09799893                1.00000000               -0.02746011               -0.02419655                0.08025204               -0.00645951               -0.02487142               -0.00495380
               1.93700577                9.93175982               88.10323750                1.00000000               -0.03676609               -0.02941641                0.09988271               -0.00366591               -0.03070636                0.00776732
               2.93659966                9.92387514               88.10845999                0.99999998               -0.04012637               -0.03923233                0.11708868               -0.00577052               -0.03084461               -0.00611067
               3.93620324                9.91604499               88.11376650                0.66530719               -0.59394854               -0.04565074                0.13515076                1.03284810                0.16636656                0.01646981
               4.92472069                9.92885115               88.12295345                0.01143458               -0.69076216               -0.00141080                0.34058935                0.81889147                0.32407575               -0.02118950
               5.92238800                9.93648254               88.12987990                0.01000001               -0.03671233               -0.13082614                0.19956659                0.44745684                0.20719633               -0.05201018
               6.92398644                9.94007807               88.13602176                0.01000001                0.26702166               -0.12532755                0.16623156                0.38190721                0.14863913                0.01105070
               7.92772843                9.94348420               88.14356391                0.01058744                0.46113262               -0.21093981                0.11900957                0.43949176                0.17865270                0.00520833
               8.93320909                9.94734339               88.15203694                1.00000000                0.24614600               -0.04995201                0.17786919                0.38059303                0.11513676                0.00733823
               9.93265135                9.94361593               88.15835388                1.00000000               -0.05577452               -0.05451946                0.19164838               -0.00581840                0.00742298               -0.00745052
              -0.14563401               -0.05116748               89.06860181                0.87646722               -0.00562739               -0.00564240                0.06792035                0.00268866                0.00993107               -0.00104763
               0.85430972               -0.05570839               89.07190701                0.79263353                0.01062349               -0.03722787                0.07421566                0.01591124                0.02443810               -0.00149970
               1.85457846               -0.05936113               89.07548678                0.72378993                0.02478268               -0.02033337                0.08249203                0.01656298                0.05637203               -0.00055642
               2.85480537               -0.06161219               89.07921847                0.45039320                0.02912414               -0.01667037                0.07854036                0.09182579                0.06333181                0.00636887
               3.85516095               -0.06108632               89.08296086                0.35722513               -0.07735043                0.03771127                0.06682007                0.08529344                0.01817745                0.00312547
               4.85325836               -0.05753913               89.08614184                0.80185848               -0.12915070               -0.00427213                0.06343346                0.12452295               -0.03917870                0.02022546
               5.85257793               -0.05638023               89.08815707                1.00000000               -0.05887544               -0.02536119                0.09013904                0.02195098               -0.06381133               -0.00187937
               6.85208086               -0.05589233               89.09033380                0.99997638               -0.04618114               -0.02170484                0.07881765                0.00376358               -0.05621673                0.01114735
               7.85165431               -0.05577467               89.09254650                1.00000000               -0.03621945               -0.02046137                0.06861534                0.00095936               -0.05889444                0.01260675
               8.85135647               -0.05582324               89.09473589                0.99515139               -0.02483122               -0.01752315                0.05900827               -0.00250474               -0.05038023               -0.00122472
               9.85115768               -0.05586600               89.09716090                0.98699749               -0.01987819               -0.02033678                0.05358946               -0.00630710               -0.03897375               -0.03408606
              -0.14106620                0.94877610               89.07130429                0.81848837               -0.03681377                0.00794767                0.07538153                0.01241966               -0.00066562                0.00997008
               0.85856566                0.94391933               89.07456380                0.19552419               -0.06189042               -0.05845749                0.08490541                0.07293349                0.00748076                0.00764345
               1.85769599                0.94043553               89.07801310                0.01000000               -0.09897182               -0.03552775                0.09944250                0.16476933                0.01998589                0.04162217
               2.85658622                0.93822111               89.08163829                0.01000000               -0.18593174                0.00445897                0.10482473                0.29650358                0.06179451                0.08064484
               3.85397735                0.93929080               89.08576023                0.01000000               -0.22178366                0.00319176                0.10338142                0.45000329                0.15242459                0.05909618
               4.85215055                0.94241815               89.09010208                0.01000000               -0.10016562               -0.10023570                0.07664498                0.44304507                0.09195162                0.00835356
               5.85197404                0.94336616               89.09247413                0.01000000               -0.01674178               -0.10554585                0.09622421                0.22871723               -0.00444907                0.04317575
               6.85181571                0.94389062               89.09502350                0.79740010               -0.01723421               -0.02063519                0.09460270                0.02671544                0.00499629                0.04372442
               7.85162936                0.94402071               89.09753680                1.00000000               -0.02193156               -0.02616571                0.08572157                0.00677039               -0.00385080                0.01771219
               8.85137708                0.94400153               89.09990068                1.00000000               -0.02459928               -0.01824318                0.07841513               -0.00004494               -0.00885419                0.00710068
               9.85113737                0.94393063               89.10233216                0.99998392               -0.02397112               -0.02655992                0.07344583               -0.00576943               -0.00529143               -0.04037916
              -0.13567207                1.94899148               89.07422105                0.78612007               -0.02189763                0.01666934                0.08329070                0.01027214               -0.00277370                0.04139925
               0.86410895                1.94312246               89.07741999                0.01000000               -0.03779321               -0.08577266                0.10038795                0.15123248                0.03562681                0.02059206
               1.86357207                1.93992831               89.08140012                0.01000001               -0.11143859               -0.07248714                0.10862531                0.39240653                0.08758424                0.09895606
               2.86188018                1.93847699               89.08551750                0.01046215               -0.18040449               -0.01944767                0.10798284                0.57461412                0.12240532                0.13526681
               3.85996398                1.93897752               89.08989080                0.01000001               -0.19181401               -0.05953417                0.11870842                0.76295980                0.14858003                0.10271826
               4.85804390                1.94045615               89.09394574                0.01000000               -0.21420864               -0.15994172                0.12310117                0.76980641                0.12604619                0.05539718
               5.85567980                1.94150886               89.09760282                0.01000001               -0.30416452               -0.12933260                0.12017368                0.66615122                0.07559595                0.07659663
               6.85196061                1.94369496               89.10030234                0.01133537               -0.20004972               -0.13000197                0.09059978                0.50713221                0.02688408                0.08744456
               7.85167881                1.94370201               89.10258081                0.01000001               -0.02574811               -0.12301004                0.09878762                0.22528830                0.02500012                0.07027567
               8.85144565                1.94381190               89.10516985                1.00000000               -0.02473622               -0.01742780                0.09893126                0.02239443                0.02715355                0.04798417
               9.85118408                1.94360280               89.10737358                1.00000000               -0.02615647               -0.03788747                0.09109457               -0.00133490                0.01002019               -0.05163079
              -0.12912272                2.94910949               89.07734452                0.50512368               -0.02238082                0.01780430                0.08471646                0.06694123                0.00444606                0.06568422
               0.87065347                2.94220387               89.08047764                0.01000000               -0.03438497               -0.14472037                0.11019147                0.27186351                0.07572772                0.06089386
               1.87018958                2.93898579               89.08499181                0.01047899               -0.08120866               -0.11787973                0.11066239                0.54700522                0.13465826                0.12568383
               2.86902930                2.93783216               89.08953665                0.01000001               -0.14660954               -0.09771211                0.12590685                0.73868755                0.13044429                0.13112214
               3.86725739                2.93810011               89.09401287                0.01000000               -0.20069788               -0.10032923                0.12901947                0.86822833                0.13501209                0.10234651
               4.86501534                2.93921931               89.09846136                0.01000001               -0.25995675               -0.12493751                0.13747076                0.93697699                0.12546983                0.08120387
               5.86205825                2.94077951               89.10235424                0.01000000               -0.26250704               -0.11937173                0.14886418                0.89426855                0.11745242                0.01539016
               6.85976520                2.94129058               89.10587028                0.01000000               -0.30200315               -0.16983482                0.15224116                0.81088880                0.06510760                0.10095485
               7.85601819                2.94156051               89.10861135                0.01067667               -0.39205089               -0.08434605                0.13584743                0.60108589                0.10635609                0.12680832
               8.85192418                2.94365297               89.11100914                1.00000000               -0.22446666               -0.02709416                0.13480187                0.13191896                0.04243098                0.07943873
               9.85152886                2.94317288               89.11238798                1.00000000               -0.03953238               -0.04089996                0.10980782               -0.00583470               -0.00906853               -0.05208976
              -0.12052202                3.94934756               89.08072938                0.36774860                0.01919397               -0.07272107                0.07219762                0.08493203                0.00427087                0.04885714
               0.87966992                3.94022805               89.08411607                0.01000000               -0.02970458               -0.18366481                0.11132705                0.41773114                0.07063042                0.15713712
               1.87888389                3.93757072               89.08892928                0.01000001               -0.10651536               -0.14673544                0.12266834                0.73207476                0.10924949                0.15033469
               2.87753961                3.93652275               89.09356778                0.01000000               -0.14712492               -0.15524416                0.12987026                0.86193125                0.10190182                0.13481548
               3.87594139                3.93697094               89.09822962                0.01000000               -0.17177825               -0.12871978                0.12981722                0.96946989                0.09250942                0.09215640
               4.87410405                3.93795740               89.10278283                0.01000000               -0.22237411               -0.14887045                0.14295277                1.01665189                0.04749034                0.08517380
               5.87149391                3.93912142               89.10676288                0.01028399               -0.33533316               -0.12191615                0.15085695                1.07674709                0.01458055                0.00257974
               6.86739738                3.94029827               89.11072242                0.01000000               -0.50778853               -0.07572567                0.15674458                1.08703201               -0.01163931                0.05493986
               7.86133813                3.94201509               89.11462927                0.01000001               -0.74628622                0.06248520                0.16344498                1.02905059                0.01960888               -0.00102006
               8.85247166                3.94327001               89.11652910                0.01156405               -0.46552848               -0.10472298                0.17121873                0.98120113                0.08026529                0.11842345
               9.85202757                3.94278480               89.11752867                0.99943378               -0.04440926               -0.58272070                0.13179738                0.86004901                0.02762340                0.29413964
              -0.10918505                4.94765506               89.08389496                0.77802944               -0.00300097               -0.12090164                0.06118965                0.11302746                0.02068417               -0.01876918
               0.89078494                4.93853058               89.08840489                0.01000000               -0.11392876               -0.09218402                0.07786394                0.42366624                0.00061264                0.10892285
               1.88853637                4.93605108               89.09264490                0.01000000               -0.19586155               -0.17898738                0.12347331                0.75013400                0.04568558                0.13040043
               2.88686771                4.93472727               89.09761795                0.01000001               -0.16621183               -0.21805480                0.13815849                0.93390274                0.07705361                0.12746899
               3.88521214                4.93552572               89.10236362                0.01000000               -0.18349075               -0.18659098                0.14273787                1.01639036                0.08274861                0.04700228
               4.88319789                4.93624190               89.10698110                0.01000001               -0.19799018               -0.16709239                0.14242053                1.11889813                0.06213637                0.06485259
               5.88125233                4.93834119               89.11111843                0.01261555               -0.22928616               -0.10937141                0.14137631                1.20131106                0.05795673               -0.02287308
               6.87861217                4.93977607               89.11504400                0.01000001               -0.38124364               -0.03669656                0.15429099                1.33495694                0.01275304               -0.01098605
               7.87362746                4.94281022               89.11870535                0.01000007               -0.39168372                0.00157590                0.13959219                1.39168953               -0.09138338               -0.03535402
               8.87077849                4.94155851               89.12310655                0.01033440               -0.19636018               -0.18190602                0.34863671                1.08587150               -0.44987788                0.30177744
               9.86970026                4.93151847               89.12950701                0.01000000               -0.10782386               -0.65314612                0.08381044                0.64350800               -0.40567392                0.85726872
              -0.10001250                5.94692953               89.08556061                0.99999999               -0.02402768               -0.06111342                0.08576338                0.02628961               -0.00050400               -0.05535478
               0.89974722                5.93838437               89.09041804                0.01000000               -0.11488155               -0.01491593                0.09365969                0.22409312                0.04253014               -0.00962783
               1.89768987                5.93399097               89.09607347                0.01000001               -0.15020970               -0.27099155                0.11420586                0.67595141                0.06960005                0.11770290
               2.89674303                5.93216166               89.10122607                0.01000000               -0.14676518               -0.22605944                0.14337380                0.89248267                0.00005401                0.11419036
               3.89475457                5.93323912               89.10592411                0.01028284               -0.15382449               -0.29964112                0.15153590                1.07361223               -0.01112979                0.01017680
               4.89366654                5.93461556               89.11068930                0.01265511               -0.13843016               -0.19544282                0.14004005                1.19282356               -0.03177856                0.05905354
               5.89198596                5.93693399               89.11530929                0.01000001               -0.20195253               -0.17705641                0.14566288                1.33375188               -0.04730014               -0.03825828
               6.88962749                5.93956434               89.11961967                0.01000000               -0.22982411               -0.03943383                0.14830656                1.43920726               -0.08565068               -0.02257411
               7.88738948                5.94204661               89.12392066                0.01000000               -0.20733267               -0.08129711                0.18113660                1.38336219               -0.16997743                0.08563982
               8.88548084                5.93963189               89.12864092                0.01000000               -0.12058357               -0.12231992                0.14965689                0.85384118               -0.18224409                0.29236015
               9.88497781                5.92972188               89.13368100                0.01000000               -0.05030267               -0.08247672                0.18122611                0.46324363               -0.11622264                0.18885595
              -0.09156894                6.94643280               89.08741224                0.99999999               -0.02257033               -0.04850567                0.07469941                0.00260375                0.00577943               -0.04913354
               0.90820536                6.93823226               89.09250874                0.51337736               -0.00764746               -0.01431503                0.09716755                0.03515339                0.08773309               -0.00050154
               1.90827811                6.93063125               89.09918076                0.01096082               -0.13680713               -0.17787060                0.05831419                0.51049503                0.07479955                0.01811297
               2.90546922                6.93020609               89.10430692                0.01000000               -0.20238160               -0.28278418                0.15213022                0.80712647                0.03089022                0.04977162
               3.90423048                6.92953290               89.10941188                0.01000000               -0.10548653               -0.46227961                0.15774618                1.07146536                0.03438658               -0.02590552
               4.90335948                6.93233305               89.11411916                0.01000001               -0.06259460               -0.34606532                0.14910925                1.31023080               -0.02829010                0.01166056
               5.90297859                6.93480006               89.11914977                0.01000000               -0.05378945               -0.21077414                0.14777152                1.42191827               -0.03622665               -0.08591062
               6.90228370                6.93898739               89.12419498                0.01000000               -0.08757202               -0.08251844                0.15924802                1.48537722               -0.04957868               -0.04473930
               7.90122715                6.94118428               89.12915163                0.01000000               -0.10518243               -0.05671801                0.17157333                1.27628522               -0.03322685                0.05658502
               8.90018005                6.93911211               89.13413717                0.01000001               -0.12209995                0.04336357                0.18315282                0.77561874                0.00145908                0.22192211
               9.89878515                6.92986894               89.13968462                0.01000000               -0.13948986                0.17366809                0.17487864                0.35100525                0.02547810                0.24641762
              -0.08355935                7.94595942               89.08928097                1.00000000               -0.01888138               -0.04020639                0.06589330                0.00040226                0.00969164               -0.05196484
               0.91625184                7.93809807               89.09466175                1.00000000               -0.02573530               -0.01854866                0.08993376                0.01236877                0.01816582               -0.00425566
               1.91592594                7.93043356               89.10017320                0.01126962               -0.11339604               -0.02361914                0.11229245                0.19468045                0.06563786               -0.03504685
               2.91398391                7.92650597               89.10652874                0.01069201               -0.09345159               -0.36716042                0.14115328                0.58359580                0.11087736                0.06316138
               3.91405691                7.92399352               89.11274501                0.01000001                0.03100392               -0.69524555                0.17738549                1.00641985               -0.01767203               -0.00201275
               4.91460399                7.92769425               89.11723833                0.01000007               -0.01434636               -0.36759848                0.14074256                1.34858992               -0.04481171               -0.10099578
               5.91376998                7.93271851               89.12284310                0.01000000               -0.08265887               -0.20499496                0.18564453                1.35559957                0.05857641               -0.17637096
               6.91295082                7.93791397               89.12855250                0.01000000               -0.04897613               -0.10788021                0.17625097                1.26249196                0.03755905               -0.05051686
               7.91279046                7.94091225               89.13438710                0.01000000               -0.03211325               -0.04963297                0.17430177                1.09197910                0.04267674                0.03106624
               8.91230855                7.94049916               89.14062960                0.01157708               -0.11530961                0.16259418                0.16125965                0.75547884                0.05447261                0.22413443
               9.91048427                7.93319524               89.14692320                0.01000001               -0.18242811                0.43298214                0.14726353                0.45629102                0.09384645                0.29273596
              -0.07583820                8.94562867               89.09115337                0.99450369               -0.01832127               -0.02654812                0.05804497               -0.00455757                0.00000851               -0.04293025
               0.92397859                8.93786129               89.09669745                0.99999998               -0.01989933               -0.02364090                0.08078408               -0.00228153                0.00670915               -0.00887854
               1.92376382                8.93015887               89.10231693                1.00000000               -0.01987116               -0.02727169                0.10394608                0.02042666                0.04139260                0.01678073
               2.92358117                8.92286288               89.10841411                1.00000000               -0.02966083               -0.20291428                0.14141581                0.11854808                0.06982556                0.02601344
               3.92317060                8.91562798               89.11423710                0.02040560               -0.09874357               -0.44194391                0.18066268                0.92678823                0.11316926                0.06147846
               4.92160630                8.92498108               89.12115361                0.01093959               -0.16498695               -0.19501621                0.37255088                1.01227176                0.27149858               -0.41765140
               5.91987086                8.93070016               89.12690413                0.01000001               -0.11332504               -0.13603645                0.15875917                0.82635104                0.25537925               -0.19035661
               6.91933979                8.93682979               89.13281674                0.01000001                0.03053368               -0.12277655                0.19813041                0.75770535                0.16762370               -0.01386822
               7.92048153                8.94019162               89.13965280                0.01000000                0.18334185               -0.13735367                0.17647553                0.71321209                0.14971047                0.00732398
               8.92300663                8.94236400               89.14816062                0.99999999                0.10186372                0.06813032                0.15784580                0.64625769                0.09553111                0.10135054
               9.92251881                8.93852858               89.15460538                0.99795085               -0.04878229                0.23953599                0.16976210                0.40922760               -0.00775972                0.09336316
              -0.06811574                9.94542845               89.09323567                0.98585876               -0.02082590               -0.02002149                0.05286927               -0.00807437               -0.02726082               -0.03230036
               0.93167600                9.93762525               89.09877659                1.00000000               -0.02756889               -0.02360362                0.07559579               -0.00727503               -0.03156307               -0.00628638
               1.93133289                9.92988813               89.10421950                1.00000000               -0.03951219               -0.02707440                0.09531376               -0.00197126               -0.04084203                0.00679176
               2.93088576                9.92244769               89.10962758                1.00000000               -0.04292046               -0.04151904                0.11636117               -0.00621467               -0.04250017               -0.00801030
               3.93047448                9.91515464               89.11512166                0.98788033               -0.55542530               -0.04733400                0.14166754                0.79769955                0.28913980                0.02313253
               4.91977725                9.92379393               89.12719419                0.01113975               -0.60130899               -0.11871519                0.13139132                0.55925270                0.79079996               -0.35660170
               5.91844830                9.92999778               89.13135820                0.01000003               -0.05818944               -0.07023774                0.19700320                0.44096912                0.13747866               -0.11430038
               6.91861347                9.93545844               89.13777007                0.01186633                0.15360982               -0.13713490                0.18913882                0.33573687                0.17338584                0.03026165
               7.92152049                9.93816518               89.14500506                0.01000000                0.41416386               -0.20264388                0.16741676                0.42406243                0.20416619                0.02406227
               8.92689674                9.94186177               89.15381888                0.99843643                0.24095833               -0.05022275                0.17859752                0.38005036                0.12574947                0.00728066
               9.92633966                9.93798596               89.16026401                1.00000000               -0.05570835               -0.05426153                0.19025684               -0.00549562                0.00750554               -0.00734664
              -0.14886318               -0.05391851               90.06932235                0.85019204               -0.00593005               -0.00639335                0.07628712                0.00012669                0.00998963               -0.00210780
               0.85107752               -0.05841654               90.07265412                0.73792839                0.01572216               -0.03699556                0.07556930                0.01563473                0.02385396                0.00259188
               1.85145127               -0.06198123               90.07629309                0.77915548                0.03022619               -0.02408739                0.08003601                0.00884106                0.05376912                0.00160752
               2.85168205               -0.06412438               90.07999583                0.50808648                0.02343867               -0.01590571                0.07720401                0.06779039                0.05608022                0.00443791
               3.85192004               -0.06405432               90.08366545                0.36707131               -0.06897577                0.02323025                0.07682990                0.08246885                0.01476878                0.00213532
               4.85030253               -0.06137805               90.08676021                0.91495521               -0.10547564               -0.00951646                0.06163184                0.10528099               -0.02701385                0.01820327
               5.84981053               -0.06074078               90.08899563                0.99999999               -0.04936777               -0.02168711                0.07832639                0.00998766               -0.06240674               -0.00199861
               6.84931517               -0.06054582               90.09110455                1.00000000               -0.04727868               -0.01893207                0.07512270                0.00399226               -0.06766926                0.01116823
               7.84886495               -0.06073312               90.09321967                0.99986840               -0.03841585               -0.01813835                0.06609816                0.00214395               -0.07005334                0.01047538
               8.84854686               -0.06110911               90.09530844                0.99143743               -0.02611144               -0.01447124                0.05639307               -0.00283078               -0.05859568               -0.00326246
               9.84834272               -0.06150292               90.09768317                0.97081784               -0.02041338               -0.02044521                0.05123435               -0.00685804               -0.04464369               -0.03848597
              -0.14436388                0.94601756               90.07207001                0.75214503               -0.03708914                0.01286095                0.07806545                0.01351521                0.00321328                0.00726160
               0.85526523                0.94121350               90.07540297                0.38275676               -0.06212634               -0.05963533                0.08193704                0.07245932                0.01572416                0.01572697
               1.85439360                0.93777789               90.07897973                0.01028098               -0.09343693               -0.04069206                0.09126900                0.16111032                0.03486265                0.01315438
               2.85339649                0.93571656               90.08262745                0.01000000               -0.15110172               -0.00595188                0.09455527                0.27651177                0.07042845                0.07089306
               3.85137156                0.93617798               90.08670591                0.01027308               -0.18489608               -0.00988941                0.09486483                0.40339449                0.14883014                0.04757435
               4.84969857                0.93852679               90.09084709                0.01000001               -0.09386356               -0.09435309                0.07542411                0.40134693                0.08699214                0.02617553
               5.84949429                0.93904235               90.09336908                0.01000001               -0.01736511               -0.09935299                0.08614166                0.21121178                0.00586230                0.05013792
               6.84935127                0.93926486               90.09592687                0.87537957               -0.01631260               -0.01939506                0.08719047                0.02468039                0.00293366                0.03408882
               7.84916804                0.93908550               90.09836286                0.99999999               -0.02239105               -0.02470821                0.08028283                0.00679412               -0.00968305                0.01348165
               8.84890345                0.93874617               90.10066271                0.99999999               -0.02500455               -0.01272818                0.07391096                0.00057331               -0.01301213                0.00439754
               9.84866795                0.93829263               90.10305070                0.99998767               -0.02355007               -0.02903446                0.06942648               -0.00694314               -0.00747480               -0.04719904
              -0.13898476                1.94633871               90.07504527                0.82054988               -0.02488646                0.02294935                0.08218492                0.00517409               -0.00008787                0.03819568
               0.86076637                1.94039075               90.07840065                0.01014143               -0.04224123               -0.08505447                0.09294762                0.15165734                0.00787575                0.03586258
               1.86017041                1.93720493               90.08201299                0.01000001               -0.09770911               -0.06740468                0.05897073                0.39284781                0.06757742                0.08159632
               2.85881219                1.93575658               90.08658159                0.01000001               -0.14963543               -0.03732827                0.08173975                0.54155718                0.15504564                0.09782048
               3.85717770                1.93574789               90.09099864                0.01000001               -0.16735433               -0.06731817                0.11619414                0.68270071                0.13672001                0.10609145
               4.85546510                1.93673489               90.09519483                0.01000000               -0.19405057               -0.14822199                0.11249480                0.69568827                0.11549392                0.07111874
               5.85329669                1.93727216               90.09873333                0.01009191               -0.28497330               -0.13817419                0.13078809                0.63205232                0.06605646                0.08879590
               6.84976564                1.93906628               90.10116851                0.01000002               -0.18885869               -0.12463969                0.08579163                0.49462930                0.02223047                0.09692810
               7.84951952                1.93877271               90.10352717                0.01000000               -0.02072248               -0.13821736                0.09196662                0.27499024                0.03268308                0.07740258
               8.84935119                1.93863632               90.10612242                1.00000000               -0.02042855               -0.00006131                0.09175313                0.04073823                0.02794798                0.05372801
               9.84911095                1.93791639               90.10826008                0.99999999               -0.02402405               -0.04331805                0.08712668                0.00418483                0.00913058               -0.06118650
              -0.13236448                2.94647654               90.07818782                0.56348202               -0.02033597                0.01178218                0.08399820                0.04875408                0.00233413                0.05635296
               0.86743216                2.93951241               90.08153291                0.01000000               -0.03753999               -0.12279898                0.10144677                0.26011928                0.06544077                0.07086761
               1.86688472                2.93642980               90.08610943                0.01000001               -0.08737466               -0.10091135                0.09234597                0.52020351                0.10803870                0.14930718
               2.86568467                2.93497000               90.09077533                0.01000000               -0.14187274               -0.10107254                0.12929294                0.66874648                0.11188703                0.11476304
               3.86404727                2.93483162               90.09531544                0.01000001               -0.17982998               -0.10809012                0.12895551                0.77735264                0.12003325                0.09884261
               4.86208807                2.93556235               90.09978687                0.01042783               -0.21216585               -0.10361685                0.12670391                0.81121715                0.12088574                0.07571314
               5.85980395                2.93627887               90.10388472                0.01317515               -0.21723836               -0.11288818                0.13820871                0.78335249                0.11462554                0.05106150
               6.85774330                2.93677206               90.10727344                0.01322805               -0.23530764               -0.14906477                0.12936676                0.69462535                0.11467684                0.05776062
               7.85509780                2.93632115               90.10994576                0.01000001               -0.35843846               -0.11500612                0.13437325                0.57803666                0.11913834                0.13005888
               8.85057453                2.93874495               90.11234323                1.00000000               -0.24531477               -0.01323560                0.11663120                0.19412299                0.04386373                0.10522598
               9.85019150                2.93742627               90.11348661                1.00000000               -0.03830310               -0.04498824                0.10828913               -0.01008748               -0.01907562               -0.06618763
              -0.12408142                3.94657435               90.08147989                0.38376315                0.00969209               -0.06904068                0.08101685                0.07447707                0.00274640                0.03751925
               0.87601550                3.93793477               90.08514787                0.01024415               -0.04008416               -0.15310333                0.10337286                0.37488613                0.05504981                0.15142074
               1.87511690                3.93518670               90.09010731                0.01000001               -0.11151020               -0.13233133                0.12011565                0.66013660                0.10781591                0.13488067
               2.87378530                3.93373513               90.09488082                0.01000001               -0.14922466               -0.14008075                0.13074714                0.77212902                0.09390747                0.12260395
               3.87213240                3.93358609               90.09957967                0.01000001               -0.17715485               -0.13687526                0.13523358                0.91702045                0.08351831                0.08465173
               4.87024220                3.93466255               90.10417084                0.01331772               -0.21891897               -0.12989351                0.14076802                0.93960053                0.05722608                0.07188545
               5.86775402                3.93501440               90.10830727                0.01000000               -0.33131694               -0.09962770                0.15696069                0.93914958                0.03478006                0.02782715
               6.86361586                3.93608498               90.11232927                0.01000000               -0.43233295               -0.08348147                0.15492980                0.90796434                0.04917569                0.01818954
               7.85910737                3.93647259               90.11619745                0.01000000               -0.57436688                0.06315285                0.14091754                0.74913636                0.09484633               -0.01421798
               8.85212852                3.93837161               90.11831981                0.21569754               -0.37804068                0.06759675                0.18709424                0.27096663                0.12671430                0.34469849
               9.85154655                3.93701663               90.11890601                1.00000000               -0.05819717               -0.03339244                0.15780300                0.08213548                0.04632452                0.07908221
              -0.11359578                4.94509573               90.08448692                0.89180216               -0.00866877               -0.09978605                0.05956169                0.09383522                0.01731068               -0.00961276
               0.88631754                4.93645034               90.08915893                0.01000001               -0.10585659               -0.08352624                0.07623998                0.37725326                0.01447598                0.09869071
               1.88428709                4.93378317               90.09388281                0.01000000               -0.17948408               -0.16073406                0.11720898                0.67380066                0.05388843                0.11529344
               2.88272786                4.93216838               90.09895447                0.01046273               -0.14134208               -0.17476796                0.12547787                0.80962203                0.07124230                0.11944020
               3.88146025                4.93209412               90.10374914                0.01333246               -0.16380419               -0.18329846                0.14083289                0.93794496                0.06605990                0.05888397
               4.87945177                4.93296448               90.10828334                0.01000000               -0.21478699               -0.18467485                0.14366755                1.05351006                0.04794670                0.04938296
               5.87716451                4.93428631               90.11265716                0.01000007               -0.25036896               -0.11390907                0.15857263                1.08443828                0.02861829                0.00521887
               6.87444439                4.93510243               90.11685524                0.01000000               -0.46853091               -0.06021296                0.18556793                1.21566092                0.00498479               -0.03490488
               7.86779389                4.93758421               90.12042321                0.01000001               -0.94972831                0.08231342                0.23800387                1.36716913                0.11732738               -0.01633738
               8.85544983                4.94009688               90.12855449                0.01000001               -0.66248601               -0.05109411                0.26525142                1.33763537               -0.37791877                0.24290757
               9.85454417                4.93675842               90.12730974                0.01028184               -0.09056530               -0.51952794               -0.05965104                1.06554545               -0.79543554                0.79132281
              -0.10491395                5.94457863               90.08636492                1.00000000               -0.02129298               -0.05140123                0.07567642                0.01280962               -0.00125421               -0.05613074
               0.89487312                5.93626425               90.09130895                0.01000001               -0.11055893               -0.01577100                0.08623577                0.20864087                0.04394046                0.00339417
               1.89287487                5.93197202               90.09711919                0.01009963               -0.16031642               -0.25058239                0.11320208                0.63494650                0.08826816                0.07556132
               2.89166680                5.93023977               90.10265855                0.01315567               -0.13898338               -0.18347696                0.13362413                0.77819950                0.03504595                0.11603590
               3.89009521                5.92992012               90.10747612                0.01000000               -0.12732950               -0.30214455                0.15769073                0.93898431                0.01561967                0.03124489
               4.88912021                5.93096906               90.11221764                0.01000007               -0.13951868               -0.22007288                0.15819074                1.07805079               -0.00135495                0.02333259
               5.88730483                5.93273622               90.11684669                0.01000000               -0.22445092               -0.19903041                0.16536300                1.22522879               -0.01784812               -0.01589104
               6.88463119                5.93488072               90.12130257                0.01000000               -0.29242672               -0.04555082                0.18380949                1.39265490               -0.02301624               -0.02722440
               7.88145630                5.93811886               90.12610455                0.01000000               -0.24620861               -0.04092629                0.20103514                1.51378114               -0.08562643                0.08714963
               8.87970701                5.93734973               90.13011639                0.01000001               -0.09609574               -0.26482497                0.22384039                1.38147558               -0.04014219                0.03870837
               9.87953438                5.92662607               90.13594496                0.01000000               -0.01726302               -0.54604489                0.21431282                0.87736763                0.04399457                0.39428527
              -0.09671081                6.94406770               90.08814086                1.00000000               -0.01922193               -0.05026942                0.07186330                0.00383263                0.00945349               -0.06091429
               0.90309697                6.93613493               90.09347239                0.71196983               -0.01393450               -0.01386065                0.09201196                0.03433191                0.05794388                0.00178799
               1.90301050                6.92877152               90.09972323                0.01000000               -0.13766139               -0.17134051                0.05830107                0.50075643                0.07791132                0.02006581
               2.90034374                6.92849884               90.10568413                0.01324776               -0.17499228               -0.22135335                0.12631504                0.69128676                0.01340458                0.10245778
               3.89951065                6.92605122               90.11105991                0.01000000               -0.10735241               -0.39869851                0.15828916                0.90162988                0.00140701                0.03542778
               4.89819669                6.92856302               90.11592869                0.01000000               -0.08766157               -0.43275782                0.18754921                1.20092784               -0.04387383               -0.00791682
               5.89775742                6.93030570               90.12082546                0.01000000               -0.06409237               -0.27162182                0.18449865                1.37713474               -0.03108810               -0.02500741
               6.89691485                6.93419142               90.12587435                0.01000001               -0.10784558               -0.09970386                0.17134112                1.48346711               -0.03220051               -0.02713418
               7.89560051                6.93676568               90.13087402                0.01000001               -0.11713591               -0.10787665                0.18501045                1.31258115               -0.03513794                0.05283306
               8.89457213                6.93480038               90.13624358                0.01000001               -0.10308337               -0.09730569                0.22407767                0.79418322               -0.01997612                0.18171967
               9.89353884                6.92583752               90.14161004                0.01022074               -0.10332853                0.07205391                0.20687265                0.37200501               -0.00516618                0.23018273
              -0.08897173                7.94357324               90.08992648                1.00000000               -0.01723232               -0.04184015                0.06422000                0.00117718                0.00916711               -0.06076813
               0.91085594                7.93598703               90.09554261                0.99999999               -0.02510892               -0.01994030                0.08454134                0.01030368                0.01524930               -0.01026190
               1.91052609                7.92854521               90.10125718                0.01000000               -0.13215556               -0.02141136                0.10088725                0.25065402                0.06761905               -0.00737719
               2.90821283                7.92581270               90.10791044                0.01000001               -0.12312301               -0.34049754                0.13678849                0.56667436                0.09395392                0.10953681
               3.90806363                7.92194615               90.11444122                0.01000000                0.03357258               -0.53484009                0.15012246                0.74385953               -0.03246555                0.06696801
               4.90888428                7.92231390               90.11899759                0.01000001                0.05777516               -0.90033290                0.24233309                1.33372145               -0.02589623                0.11099082
               5.90921913                7.92730378               90.12512262                0.01000000               -0.05218646               -0.24185619                0.20989193                1.48933342                0.07849761               -0.09542564
               6.90784055                7.93288665               90.13035326                0.01000001               -0.10600871               -0.11775047                0.19277183                1.30073552                0.04118170               -0.02473547
               7.90709896                7.93596133               90.13626728                0.01000001               -0.06608597               -0.08217765                0.18768354                1.07664787                0.03761739                0.05864093
               8.90651883                7.93540362               90.14215734                0.01000001               -0.10993759                0.09401304                0.18484202                0.69803781                0.01815658                0.13969230
               9.90490020                7.92806715               90.14796416                0.01000003               -0.16186297                0.34250277                0.17914804                0.38627932                0.01008268                0.23723659
              -0.08151485                8.94323090               90.09171453                0.98378132               -0.01540736               -0.02728962                0.05577986               -0.00449538               -0.00309910               -0.04928052
               0.91833108                8.93573612               90.09748142                1.00000000               -0.01436223               -0.02422345                0.07607388               -0.00118255                0.00286532               -0.01356479
               1.91819791                8.92834330               90.10331987                1.00000000               -0.00273972               -0.02273470                0.09646559                0.03823082                0.04557191                0.01417326
               2.91827628                8.92168889               90.10981300                1.00000000               -0.01556300               -0.22623556                0.12310194                0.18228944                0.09391548                0.02941924
               3.91788665                8.91535442               90.11612613                0.26538455                0.06186048               -0.36038049                0.19662360                0.26116336                0.33979581                0.10453597
               4.91951349                8.91055636               90.12679635                0.01000001               -0.04576518               -0.63379736                0.27858583                1.27650108                0.21567590               -0.35006027
               5.91697134                8.92546858               90.12844423                0.01000003               -0.26207429               -0.10076881                0.23939605                1.33113033                0.00614875               -0.04462298
               6.91427201                8.93183641               90.13517396                0.01000000               -0.11774236               -0.10550024                0.24766625                0.78101455                0.16287130               -0.00977437
               7.91461650                8.93512213               90.14162777                0.01000001                0.10775270               -0.13502002                0.21333560                0.67541107                0.13630058                0.05043843
               8.91642706                8.93668064               90.14974499                0.99999999                0.06604321                0.03844366                0.15952146                0.57558766                0.07031286                0.09356792
               9.91593736                8.93268758               90.15630023                0.99964555               -0.04897011                0.20422986                0.16873252                0.35124376               -0.00775142                0.11639959
              -0.07407208                9.94302745               90.09374310                0.97107686               -0.02080276               -0.02034513                0.05054820               -0.00821159               -0.03227252               -0.03773415
               0.92571990                9.93550256               90.09951084                1.00000000               -0.02949959               -0.02335554                0.07144813               -0.00796520               -0.03973012               -0.00845210
               1.92533793                9.92809051               90.10514377                0.99999999               -0.04362003               -0.02527848                0.09081901                0.00327382               -0.05197800                0.00581122
               2.92484749                9.92128799               90.11078722                0.99962637               -0.04592540               -0.04008983                0.11336487               -0.01047749               -0.05647400               -0.01690019
               3.92441942                9.91473854               90.11659985                1.00000000               -0.02736742               -0.06158810                0.16660651                0.07077557                0.09951259                0.04094142
               4.92430015                9.90963795               90.12558128                0.01000000               -0.49288668               -0.09184093               -0.03421644                1.00615838                0.74510078               -0.74393953
               5.91456169                9.92528840               90.13381997                0.01000002               -0.52464244               -0.01801767                0.22652857                0.81596898                0.33772860                0.05037724
               6.91380730                9.93077664               90.13980453                0.01000000                0.06006256               -0.10597680                0.23216855                0.35215519                0.21231198               -0.00538360
               7.91576294                9.93326093               90.14691225                0.01000002                0.33289178               -0.18611990                0.22428425                0.38443683                0.24274791                0.04746365
               8.92046513                9.93617249               90.15560889                0.99962234                0.20741343               -0.05081561                0.17879066                0.34834810                0.11474449                0.00759219
               9.91991121                9.93215175               90.16215902                1.00000000               -0.05539240               -0.05358332                0.18963302               -0.00468936                0.00703768               -0.00791984
              -0.15209776               -0.05670496               91.07012755                0.82527507               -0.00861835               -0.00966260                0.08656110               -0.00194043                0.00793310               -0.00406277
               0.84781605               -0.06115426               91.07341840                0.65764448                0.02049475               -0.03583943                0.07920181                0.01557235                0.02247489                0.00576882
               1.84831213               -0.06470226               91.07708750                0.79390524                0.03692827               -0.03190245                0.07629462                0.00404281                0.05263354                0.00258471
               2.84855462               -0.06678667               91.08076255                0.55360656                0.01899059               -0.01601174                0.07856884                0.05028466                0.05498687                0.00863746
               3.84869194               -0.06712454               91.08449746                0.37041508               -0.05833579                0.00336325                0.08946402                0.07612923                0.00443108                0.00759929
               4.84738790               -0.06534883               91.08737448                0.95669404               -0.08532449               -0.01441378                0.06395045                0.08180276               -0.02645935                0.01683610
               5.84698546               -0.06516711               91.08972360                1.00000000               -0.04422375               -0.02016735                0.07118498                0.00436671               -0.05996312                0.00006317
               6.84650343               -0.06531360               91.09183626                1.00000000               -0.04680524               -0.01779567                0.07052412                0.00349747               -0.07466105                0.01002599
               7.84604935               -0.06585154               91.09386846                1.00000000               -0.03911886               -0.01656182                0.06345635                0.00087835               -0.08011420                0.00774766
               8.84572105               -0.06659704               91.09586375                0.98025918               -0.02669999               -0.01274655                0.05569961               -0.00516801               -0.06603171               -0.00515719
               9.84551535               -0.06737078               91.09818559                0.95505554               -0.02057016               -0.02194744                0.04874392               -0.00771943               -0.04940467               -0.04097258
              -0.14766786                0.94319841               91.07286560                0.66348725               -0.03617107                0.01712718                0.08302431                0.01455167                0.00599782                0.00413080
               0.85197043                0.93848734               91.07620254                0.45617252               -0.05816867               -0.05679805                0.07899696                0.06314964                0.02155482                0.02110699
               1.85116876                0.93497872               91.07983848                0.01000000               -0.08509090               -0.04336036                0.08202410                0.14982053                0.04309553               -0.00151982
               2.85026861                0.93305321               91.08352939                0.01000001               -0.12172221               -0.04639027                0.09473612                0.26856030                0.07652251                0.04759346
               3.84873432                0.93290909               91.08765753                0.01000000               -0.15206947               -0.01928227                0.10835293                0.34235020                0.13471219                0.05622606
               4.84722722                0.93450703               91.09161056                0.01000000               -0.08614048               -0.08562122                0.08278246                0.34766504                0.08035242                0.02915547
               5.84701151                0.93463122               91.09419696                0.01000001               -0.01733008               -0.10318739                0.08444062                0.20216058                0.00910998                0.07610013
               6.84688062                0.93450844               91.09676731                0.89890646               -0.01558296               -0.01997188                0.08439456                0.02297919               -0.00039601                0.02684887
               7.84669985                0.93398285               91.09914245                1.00000000               -0.02258111               -0.02406519                0.07734308                0.00481323               -0.01656839                0.00900798
               8.84642899                0.93327550               91.10137890                0.99694896               -0.02439750               -0.00985137                0.06935633               -0.00112250               -0.01812426                0.00110536
               9.84621190                0.93240975               91.10372069                0.99739411               -0.02170944               -0.03430291                0.06408298               -0.00777364               -0.01057929               -0.04936873
              -0.14238459                1.94363758               91.07586475                0.81750947               -0.03166720                0.03017552                0.07932133                0.00230191                0.00228796                0.03523320
               0.85729874                1.93770977               91.07927894                0.01206692               -0.04363714               -0.08066716                0.08377276                0.14316022               -0.00637601                0.04519527
               1.85674267                1.93443054               91.08257954                0.01000001               -0.06516451               -0.05505521                0.06052090                0.32574610                0.05435130                0.07449937
               2.85599545                1.93228553               91.08715230                0.01000001               -0.13287690               -0.06125125                0.09951800                0.49258496                0.15879783                0.09679189
               3.85408513                1.93248982               91.09221468                0.01000000               -0.16881836               -0.07065819                0.12085087                0.62827052                0.13647413                0.10589714
               4.85261908                1.93293875               91.09619564                0.01000000               -0.15289364               -0.13747301                0.10205390                0.59579445                0.08383122                0.07187509
               5.85102726                1.93276914               91.10021858                0.01000000               -0.25038504               -0.12022088                0.18021015                0.56004536               -0.09714470                0.20715667
               6.84761138                1.93428696               91.10201818                0.01000000               -0.18243517               -0.16117035                0.09155077                0.50075487               -0.00411000                0.09999863
               7.84737856                1.93366716               91.10442014                0.01000000               -0.01698400               -0.12457194                0.08974447                0.27751449                0.03537213                0.08946204
               8.84727170                1.93320594               91.10700491                0.99999999               -0.01435866                0.01423032                0.08431241                0.05538065                0.02652356                0.04387770
               9.84709138                1.93194316               91.10911612                0.99979422               -0.01803199               -0.06032762                0.08520287                0.00615698                0.00893804               -0.06626449
              -0.13576621                2.94380192               91.07902449                0.60979685               -0.01931123                0.00806328                0.08523491                0.03628377                0.00547351                0.05186520
               0.86404068                2.93687400               91.08250657                0.01000000               -0.05629276               -0.10396687                0.10103119                0.24602199                0.04553621                0.07992285
               1.86310793                2.93387761               91.08683873                0.01000001               -0.09898246               -0.09677933                0.11288105                0.47593911                0.10401975                0.16241294
               2.86206103                2.93182819               91.09212251                0.01000000               -0.12307109               -0.07449193                0.12508771                0.57841336                0.12172861                0.13187371
               3.86064651                2.93149593               91.09659198                0.01000000               -0.15986224               -0.11297695                0.12580526                0.70829925                0.09468238                0.09244376
               4.85886378                2.93175757               91.10099544                0.01000000               -0.18911539               -0.10200487                0.12246518                0.73163750                0.09131557                0.09868197
               5.85686420                2.93222680               91.10511842                0.01271722               -0.14330436               -0.09318111                0.10701017                0.62656393                0.08618688                0.07871621
               6.85599769                2.93128503               91.10845761                0.01000000               -0.17665206               -0.16033539                0.11476268                0.60719713                0.04819492                0.10637785
               7.85333116                2.93149141               91.11129882                0.01000000               -0.33685443               -0.12069391                0.12705830                0.60705192                0.00872670                0.18628250
               8.84926061                2.93356010               91.11334176                0.99979422               -0.22352869                0.03733936                0.09517021                0.23687339                0.02384881                0.11551950
               9.84886059                2.93120319               91.11455376                0.99940536               -0.04000179               -0.06999228                0.11738022               -0.00117824               -0.01325510               -0.05784455
              -0.12780306                3.94379885               91.08234971                0.40042588               -0.00534479               -0.06120711                0.09267552                0.06232637                0.00584458                0.02130217
               0.87214349                3.93563044               91.08618353                0.01000000               -0.04448379               -0.12653423                0.11512085                0.31669950                0.05539891                0.13697189
               1.87130726                3.93249495               91.09133160                0.01000000               -0.10990432               -0.12662692                0.11897060                0.59379607                0.10077473                0.13284243
               2.86994540                3.93079569               91.09618273                0.01000000               -0.14927625               -0.12449228                0.12758051                0.70502663                0.08914424                0.09604318
               3.86832174                3.93023028               91.10093429                0.01000000               -0.17122182               -0.13444906                0.14007515                0.83304584                0.08664479                0.09178757
               4.86652097                3.93089865               91.10559819                0.01100277               -0.21453292               -0.12874068                0.13737772                0.85301299                0.07250004                0.05714859
               5.86403108                3.93090552               91.10990209                0.01000000               -0.30151248               -0.11603261                0.14883732                0.82850959                0.05469385                0.06521799
               6.86049072                3.93108025               91.11382101                0.01000003               -0.33932776               -0.05901817                0.13652119                0.76479431                0.13191095                0.01038299
               7.85724452                3.93125328               91.11744762                0.01000000               -0.40966656                0.05424816                0.12274669                0.69080358                0.13647685                0.11198292
               8.85229738                3.93395272               91.12027098                1.00000000               -0.27314407                0.05299857                0.13567601                0.31815076                0.13459790                0.23470945
               9.85178164                3.93054332               91.12068473                1.00000000               -0.05157441               -0.04486047                0.15014965                0.03008196                0.03283864                0.01552260
              -0.11818287                4.94257778               91.08508620                0.93399415               -0.01385714               -0.08229349                0.06358465                0.07042400                0.01500530               -0.01222519
               0.88167856                4.93434331               91.08992969                0.01000000               -0.09992659               -0.07458227                0.08307938                0.32477846                0.02053006                0.08699382
               1.87981860                4.93134508               91.09498908                0.01000000               -0.16261661               -0.14165856                0.10913100                0.58967019                0.07404084                0.07229887
               2.87842623                4.92933834               91.10012750                0.01000000               -0.13070675               -0.15214872                0.11908523                0.73017447                0.08231521                0.09866918
               3.87720447                4.92880695               91.10518027                0.01102234               -0.15887159               -0.18385197                0.13811140                0.85152744                0.05361037                0.07057319
               4.87524880                4.92918276               91.10985445                0.01000000               -0.19758379               -0.17308973                0.15899080                0.94235510                0.03487287                0.03490238
               5.87325279                4.92990615               91.11428988                0.01351313               -0.21514910               -0.12288196                0.16044396                0.97174545                0.04750174                0.02749458
               6.87094582                4.93010467               91.11875536                0.01000000               -0.44890159               -0.05397546                0.17418867                1.10444059                0.09996781               -0.02496254
               7.86427476                4.93257637               91.12346542                0.01000001               -0.73061149                0.10427554                0.22481463                1.20670057                0.21372989                0.01980869
               8.85633359                4.93462008               91.12841157                0.01000001               -0.39968594               -0.06178782               -0.01750191                1.01349099                0.30519192                0.04964186
               9.85628104                4.93030598               91.12831399                0.24607386               -0.00525460               -0.36180134                0.06124967                0.68953757                0.09502894                0.16174522
              -0.10992565                5.94215298               91.08707414                1.00000000               -0.02025876               -0.04624135                0.07015288                0.00557775               -0.00017918               -0.05545509
               0.88987176                5.93413879               91.09214276                0.01110635               -0.09843578               -0.01544760                0.08448765                0.18060487                0.05487527                0.00782071
               1.88810563                5.92966178               91.09833751                0.01000000               -0.13923715               -0.22252492                0.13098289                0.57099602                0.14914465               -0.01766605
               2.88708702                5.92775271               91.10389855                0.01274371               -0.12988813               -0.11674966                0.11006384                0.64329294                0.07147625                0.07907955
               3.88550787                5.92655324               91.10907792                0.01000000               -0.14090738               -0.27652961                0.14870718                0.82468661                0.05538928                0.04952234
               4.88426887                5.92743685               91.11385312                0.01350931               -0.14818978               -0.18939999                0.16113095                0.96811542                0.02079698                0.04366284
               5.88254407                5.92844788               91.11861655                0.01000002               -0.21797839               -0.19410841                0.17539679                1.08611319                0.00212856                0.00199676
               6.87990930                5.93000074               91.12329586                0.01000000               -0.28404746               -0.03553294                0.18157687                1.27681087                0.00761862               -0.04040633
               7.87686313                5.93333879               91.12794136                0.01000001               -0.25358559               -0.02490784                0.17402994                1.42983123                0.04352689               -0.04919375
               8.87483759                5.93271697               91.13311772                0.01098059               -0.13312749               -0.19572598                0.27198797                1.13397079               -0.09310650                0.18888327
               9.87420058                5.92330729               91.13796725                0.03999889               -0.06370149               -0.39262997                0.03723885                0.64242574               -0.09523413                0.42964242
              -0.10204294                6.94165295               91.08884951                1.00000000               -0.01752005               -0.04912976                0.06998002                0.00400969                0.01015539               -0.06791867
               0.89778186                6.93403436               91.09434898                0.83593627               -0.01662297               -0.01274916                0.08446696                0.02979905                0.03599217               -0.00088009
               1.89762460                6.92689458               91.10034678                0.01000000               -0.16906150               -0.14861967                0.06780349                0.48869247                0.07859382                0.00559688
               2.89440063                6.92700335               91.10683322                0.01000000               -0.18052702               -0.15924354                0.11327787                0.59868601                0.07601685                0.03880923
               3.89401406                6.92327636               91.11257766                0.01000003               -0.08420824               -0.31432869                0.13893536                0.76019932               -0.00694081                0.11815699
               4.89271646                6.92539476               91.11787015                0.01000000               -0.08014465               -0.41952247                0.17730988                1.09417058               -0.03319723                0.08649226
               5.89241117                6.92602398               91.12283974                0.01000000               -0.05626720               -0.26283283                0.18308377                1.27197220               -0.04139685                0.00460495
               6.89159112                6.92939401               91.12762180                0.01000002               -0.11280044               -0.09405446                0.17709468                1.43873655               -0.03555503               -0.03086612
               7.89015516                6.93207821               91.13285184                0.01000000               -0.12733070               -0.10037375                0.18902759                1.30935756                0.00574199                0.01845912
               8.88904451                6.93070556               91.13861873                0.01000003               -0.11031237               -0.14626827                0.22711504                0.82561896                0.04199571                0.29138990
               9.88794891                6.92245338               91.14382207                0.01000002               -0.10955956               -0.00287551                0.26991973                0.41836845                0.07815503                0.25497658
              -0.09460828                7.94117038               91.09056537                0.99993191               -0.01656078               -0.04132600                0.06369796                0.00179218                0.00730344               -0.06985195
               0.90522612                7.93388381               91.09635258                0.99816854               -0.02406162               -0.02063012                0.07835224                0.00838523                0.01038129               -0.01801194
               1.90491049                7.92668938               91.10219094                0.01000000               -0.12735792               -0.01694166                0.08944460                0.27015531                0.07569175                0.00834742
               2.90267896                7.92456784               91.10926451                0.01000000               -0.12950215               -0.32144316                0.12984387                0.59149302                0.15156850                0.00387956
               3.90232045                7.92026666               91.11574746                0.01000003                0.03628510               -0.38581437                0.12702487                0.67238301                0.09169808                0.11491745
               4.90340466                7.91904640               91.12208499                0.01000001                0.08319085               -0.69992852                0.23113282                1.19049053                0.01403068                0.19882662
               5.90398427                7.92319122               91.12704094                0.01000001               -0.03874317               -0.24568107                0.17855451                1.41391571               -0.04770941                0.04091382
               6.90262980                7.92811965               91.13240794                0.01000000               -0.11227684               -0.11054898                0.19171218                1.29813269                0.01297143                0.02467651
               7.90173873                7.93133132               91.13814077                0.01018594               -0.08274991               -0.07613999                0.15992000                1.00766533                0.00619071                0.02652215
               8.90097480                7.92979160               91.14432645                0.01000000               -0.13332209                0.00391264                0.26392869                0.63071904                0.05561979                0.26489053
               9.89907229                7.92324978               91.15050616                0.01000002               -0.19025106                0.21041631                0.32807617                0.41103670                0.14375555                0.24528461
              -0.08743395                8.94082643               91.09226897                0.97268058               -0.01354888               -0.02768780                0.05579901               -0.00488687               -0.00567471               -0.05655466
               0.91243056                8.93362176               91.09821893                0.99975569               -0.01111890               -0.02432266                0.07160340               -0.00080363               -0.00078348               -0.01919669
               1.91234367                8.92655574               91.10424624                0.99999999                0.01113243               -0.01664238                0.08844366                0.05295936                0.03545544                0.01268919
               2.91265321                8.92057449               91.11087615                0.99992035                0.03197436               -0.22032985                0.10123391                0.23127836                0.10501478                0.01341254
               3.91298316                8.91556007               91.11816958                1.00000000                0.04742527               -0.26203148                0.14385317                0.30859585                0.22794364                0.11772886
               4.91360172                8.91139619               91.12672533                0.01052059               -0.06834634               -0.38505577               -0.01208953                0.98023903                0.03807172                0.28674116
               5.91161623                8.92111036               91.13169205                0.01000001               -0.20940181               -0.14686859                0.29855268                1.13910953                0.17986797               -0.08961294
               6.90941368                8.92718303               91.13777006                0.01000001               -0.14898589               -0.10150175                0.24099658                0.82913429                0.28588353                0.07551781
               7.90863651                8.93055541               91.14391951                0.01000005                0.01633735               -0.13929101                0.27075762                0.62165713                0.26871577                0.09003001
               8.90974043                8.93078381               91.15135105                1.00000000                0.03083874                0.02471055                0.15989077                0.45381793                0.03314598                0.05811967
               9.90925329                8.92666171               91.15798003                0.99999999               -0.04871366                0.14301078                0.16871566                0.30318333               -0.00758648                0.06041765
              -0.08029667                9.94061663               91.09424664                0.95503586               -0.02226020               -0.02098069                0.04941719               -0.00819861               -0.03554406               -0.04287564
               0.91948073                9.93339735               91.10020555                0.99851937               -0.03431921               -0.02244037                0.06663299               -0.00798733               -0.04327425               -0.01130563
               1.91901695                9.92635654               91.10603588                0.99999997               -0.05902660               -0.01992074                0.08859982                0.00552236               -0.05921217                0.00544899
               2.91830020                9.92016125               91.11189488                0.99999999               -0.06731418               -0.04132422                0.12062258               -0.00182608               -0.04988054               -0.01150774
               3.91767067                9.91502603               91.11845379                1.00000000               -0.04205233               -0.05340351                0.15476187                0.02795286                0.02709640                0.03063844
               4.91745915                9.91134529               91.12650986                0.22452770               -0.33455262               -0.00508993                0.05691052                0.64713472                0.13486973                0.08604070
               5.91097961                9.92025385               91.13588877                0.01000002               -0.38458646               -0.08565047                0.07440587                0.67355459                0.39172959               -0.09810391
               6.90976742                9.92608962               91.14241344                0.01000000               -0.02042604               -0.10934133                0.31827323                0.44995689                0.25545914                0.10474288
               7.91057109                9.92854550               91.14949074                0.01000000                0.20887179               -0.20099160                0.35250766                0.40326764                0.24605694                0.17973944
               8.91394486                9.93028581               91.15739469                0.99921506                0.14045291               -0.04979965                0.18057064                0.29866829                0.06878394                0.00615679
               9.91338015                9.92611000               91.16405667                0.99990522               -0.05647091               -0.05517158                0.18610842               -0.00489558                0.00951137               -0.00491095
              -0.15528620               -0.05947587               92.07105357                0.81055176               -0.01467233               -0.01611564                0.09832930               -0.00251954                0.00452735               -0.00611450
               0.84456707               -0.06386946               92.07423816                0.56319860                0.02229946               -0.03554404                0.08684110                0.01785484                0.01716004                0.00640546
               1.84515979               -0.06743151               92.07781898                0.70876389                0.04023747               -0.03130292                0.06719353               -0.00390584                0.04434674                0.00535901
               2.84537182               -0.06948532               92.08156721                0.61609071                0.01184703               -0.02359963                0.08706586                0.03405900                0.06175553                0.01497312
               3.84539673               -0.07022248               92.08545473                0.42277710               -0.04123086               -0.01922390                0.08890478                0.05738325                0.00008667                0.00554667
               4.84454721               -0.06951348               92.08803922                0.93837935               -0.06236209               -0.01977828                0.07554623                0.04870955               -0.02930798                0.01289368
               5.84414948               -0.06968625               92.09041933                0.99999999               -0.04350578               -0.02443840                0.06758648                0.00232827               -0.05590840               -0.00004933
               6.84367709               -0.07020741               92.09251503                0.99999999               -0.04571539               -0.01726701                0.06527983                0.00008183               -0.07683961                0.01079644
               7.84323518               -0.07112615               92.09448880                0.99999999               -0.03839965               -0.01598730                0.06144365               -0.00276727               -0.08325240                0.00718987
               8.84290910               -0.07224256               92.09642243                0.94873228               -0.02621084               -0.01303129                0.05583237               -0.00795769               -0.06801596               -0.00679574
               9.84271096               -0.07339257               92.09865805                0.91242988               -0.01981370               -0.02327043                0.04405914               -0.00881680               -0.05128321               -0.03738070
              -0.15091780                0.94036298               92.07373050                0.56657608               -0.03587518                0.01801770                0.09175439                0.01715280                0.00559591               -0.00215661
               0.84872344                0.93577510               92.07698291                0.31303000               -0.05767693               -0.05699551                0.08061847                0.06247352                0.02522124                0.02424973
               1.84792866                0.93225546               92.08062021                0.01229252               -0.08077745               -0.04369079                0.07824052                0.13639393                0.05707768                0.00027816
               2.84710790                0.93027868               92.08452217                0.01000000               -0.09720098               -0.07076886                0.11965264                0.21555012                0.09960703                0.05598945
               3.84598464                0.92958528               92.08887297                0.01000000               -0.11708544               -0.04230685                0.13322559                0.27385845                0.11690933                0.05357763
               4.84476619                0.93028874               92.09250274                0.01000001               -0.07324528               -0.08495033                0.09562548                0.25373519                0.06348256                0.02067670
               5.84451973                0.93006937               92.09505790                0.10628990               -0.01841637                0.00900454                0.09523290                0.03564798                0.00935264                0.13479420
               6.84439786                0.92961992               92.09761476                0.96950827               -0.01473265               -0.02083172                0.08500983                0.02246991               -0.00445335                0.02574742
               7.84422508                0.92871397               92.09990972                0.99976035               -0.02175659               -0.02341279                0.07466862                0.00061283               -0.02452546                0.00708458
               8.84396273                0.92762712               92.10204984                0.93333009               -0.02261415               -0.01032098                0.06687860               -0.00313303               -0.02419249               -0.00153633
               9.84377280                0.92637473               92.10433236                0.96906381               -0.01899311               -0.04247026                0.05889778               -0.00742290               -0.01423213               -0.04207525
              -0.14576739                1.94088449               92.07663169                0.72118158               -0.03085488                0.03329516                0.07164962               -0.00445458                0.00639972                0.02480460
               0.85392406                1.93499063               92.08007610                0.02565378               -0.04242651               -0.07844104                0.07980592                0.13076931               -0.00381244                0.05944525
               1.85338408                1.93169467               92.08322341                0.01000000               -0.07855308               -0.06647302                0.12573557                0.27645958                0.09899137                0.12283819
               2.85235300                1.92909930               92.08857195                0.01000000               -0.12601204               -0.08508201                0.19634821                0.42473999                0.18969616                0.14151085
               3.85086384                1.92893138               92.09341565                0.01000001               -0.16075875               -0.08121966                0.11436269                0.53857798                0.11734763                0.07948941
               4.84913783                1.92878751               92.09723591                0.01000000               -0.26662891               -0.10776484                0.11884185                0.60921073                0.11952958                0.07879304
               5.84553126                1.93049384               92.10233754                0.01000000               -0.18279732               -0.09498423                0.12307062                0.50671111               -0.10209447                0.19701599
               6.84548188                1.92937595               92.10299952                0.01054239               -0.01455174               -0.12615668                0.09801903                0.30203461               -0.06985696                0.09737904
               7.84524023                1.92840559               92.10532206                0.01000000               -0.01480983               -0.08473287                0.08634171                0.21690797                0.02629385                0.09536734
               8.84518568                1.92755102               92.10780867                1.00000000               -0.00864666                0.00810696                0.08036696                0.05931335                0.02026359                0.03635546
               9.84506729                1.92575803               92.10996413                0.99999999               -0.01183887               -0.08369801                0.08924738                0.00718112                0.00773569               -0.04811637
              -0.13921918                2.94102888               92.07989252                0.66884541               -0.02521773                0.00271003                0.09180229                0.02450099                0.01120446                0.05405229
               0.86052865                2.93420628               92.08355353                0.01000000               -0.07158235               -0.08697705                0.12156820                0.20573264                0.05739937                0.10484864
               1.85934918                2.93092600               92.08836705                0.01000000               -0.10813320               -0.10007412                0.18628683                0.40599405                0.12429945                0.19884685
               2.85836598                2.92857704               92.09327708                0.01000000               -0.11405955               -0.07241505                0.10969064                0.53236904                0.10777486                0.12581337
               3.85706799                2.92796089               92.09783155                0.01000001               -0.14890188               -0.10489165                0.12198463                0.65711974                0.08917580                0.09670559
               4.85538795                2.92813344               92.10223618                0.01039949               -0.15012363               -0.09204986                0.11722500                0.68976817                0.04718532                0.12036625
               5.85406551                2.92816968               92.10602492                0.01000000               -0.14305723               -0.16732738                0.10633444                0.70285806                0.06191930                0.03338234
               6.85252680                2.92709678               92.10956869                0.01000001               -0.18386689               -0.16905288                0.10648501                0.60381540               -0.00836728                0.17699260
               7.85038818                2.92701932               92.11248693                0.01000000               -0.23651206               -0.09299749                0.11408072                0.54195909               -0.02297234                0.17814756
               8.84779656                2.92778926               92.11424664                1.00000000               -0.14428882                0.02224872                0.08867425                0.20395717                0.00515818                0.07648245
               9.84750240                2.92470077               92.11583422                0.99999999               -0.02941600               -0.10955863                0.12964679                0.00657769                0.00354363               -0.04212293
              -0.13163216                3.94093869               92.08333340                0.47154077               -0.02262403               -0.04510395                0.09273675                0.04306551                0.00264527                0.01200422
               0.86814160                3.93325109               92.08745029                0.01000000               -0.06173199               -0.09876397                0.13438258                0.25255524                0.04332030                0.12103056
               1.86713320                3.92969319               92.09248673                0.01000001               -0.10880535               -0.13513793                0.11889662                0.53104170                0.07359046                0.11385042
               2.86596549                3.92765100               92.09743243                0.01000001               -0.13416808               -0.10755518                0.12051009                0.64786746                0.09369181                0.08736117
               3.86444984                3.92683355               92.10238118                0.01000000               -0.16205466               -0.12994711                0.14089542                0.75165230                0.10358392                0.10669662
               4.86272440                3.92694652               92.10691839                0.01000000               -0.19123793               -0.13629206                0.13493710                0.79827089                0.10541485                0.04739316
               5.86062508                3.92714729               92.11128402                0.01098492               -0.20079229               -0.10239656                0.12759540                0.70982527                0.08961508                0.07972377
               6.85870855                3.92599490               92.11505969                0.01000001               -0.26190737               -0.09842255                0.12638309                0.70698772                0.13168822                0.06818514
               7.85538693                3.92654564               92.11865239                0.01000001               -0.35625880                0.02336627                0.10426953                0.70125968                0.07229796                0.14837666
               8.85158338                3.92799599               92.12103333                0.90200440               -0.20055459                0.02268593                0.06668386                0.29648755                0.05586578                0.09982018
               9.85137584                3.92356685               92.12190901                0.99999998               -0.02075367               -0.09949829                0.13253499                0.01396210               -0.00499272               -0.03102755
              -0.12298266                4.94012680               92.08575861                0.92910371               -0.01920861               -0.06162350                0.07574107                0.03928952                0.01056436               -0.01806173
               0.87682525                4.93223100               92.09082052                0.01229236               -0.07236189               -0.06248563                0.09361368                0.23310507                0.01475199                0.06656574
               1.87557010                4.92822324               92.09606543                0.01000000               -0.13211403               -0.17160970                0.10359481                0.55818562                0.07359968                0.06428420
               2.87418297                4.92642594               92.10133618                0.01039848               -0.13822913               -0.12676781                0.12176085                0.67645620                0.10756429                0.05209133
               3.87280552                4.92536195               92.10651136                0.01000000               -0.15716741               -0.16601852                0.13498770                0.78901270                0.04751780                0.09807004
               4.87103962                4.92540760               92.11146315                0.01000001               -0.17959391               -0.15599504                0.15718352                0.90164625                0.04119793                0.04022316
               5.86921364                4.92612175               92.11586604                0.01000001               -0.18857078               -0.14604995                0.16482136                0.85001577                0.02759846                0.03155636
               6.86726821                4.92512833               92.12033902                0.01000001               -0.34006820               -0.03943725                0.14800205                0.90575440                0.03065307                0.06487648
               7.86241227                4.92748664               92.12491950                0.01000000               -0.52815541                0.06014626                0.10939392                1.01163465                0.17069788                0.01638091
               8.85670510                4.92824298               92.12820445                0.55239305               -0.28861791                0.14621243               -0.00832440                0.57298871                0.17823186                0.12490882
               9.85663992                4.92271080               92.12853474                0.99999999               -0.00651820               -0.19280087                0.07639156                0.27452231                0.02967170               -0.01469973
              -0.11505476                5.93970622               92.08776798                1.00000000               -0.02379751               -0.04543501                0.06905140                0.00331645                0.00005140               -0.05218806
               0.88470726                5.93200137               92.09299871                0.01000003               -0.04216327               -0.01617479                0.09170574                0.10245309                0.07768247                0.00552553
               1.88410197                5.92626100               92.09973885                0.01000000               -0.11756770               -0.15966056                0.13774300                0.48211502                0.17824519               -0.08326053
               2.88235591                5.92511564               92.10485983                0.01000000               -0.14267704               -0.12584344                0.09952357                0.63512089                0.06428881                0.05545000
               3.88124843                5.92351318               92.11045027                0.01097345               -0.11791938               -0.18085598                0.12816752                0.71201846                0.06824030                0.08174842
               4.87999752                5.92382661               92.11544026                0.01000001               -0.16718860               -0.16733023                0.16570598                0.84720810                0.02907442                0.02149970
               5.87790466                5.92422629               92.12035463                0.01000000               -0.22693862               -0.20741717                0.18428747                0.96718640                0.01616658                0.01175469
               6.87545875                5.92520615               92.12493410                0.01000001               -0.26998413               -0.03331554                0.17426552                1.12228541                0.03536586               -0.00531571
               7.87250498                5.92774857               92.12958515                0.01000001               -0.38198785               -0.02755974                0.15865303                1.40101187                0.12708273               -0.05675816
               8.86781899                5.93092024               92.13555615                0.36921162               -0.22871655                0.05882395                0.08382122                0.98494915               -0.07674314                0.15645231
               9.86793064                5.91971084               92.13668973                1.00000000                0.01116544               -0.21563271               -0.00152227                0.28182641               -0.27070278                0.39470134
              -0.10750665                6.93921810               92.08954046                0.99993504               -0.01738180               -0.04747362                0.06651269                0.00167413                0.00794687               -0.07028179
               0.89231953                6.93190750               92.09516173                0.87770307               -0.01976113               -0.01222655                0.08301106                0.02713311                0.02348070               -0.00720740
               1.89209813                6.92503003               92.10107930                0.01026153               -0.13431666               -0.07241462                0.08619923                0.35137923                0.08122273               -0.02806309
               2.88963320                6.92390907               92.10794969                0.01000001               -0.18816082               -0.16341369                0.10857549                0.60232887                0.15629893               -0.01699793
               3.88833491                6.92174483               92.11383862                0.01000001               -0.11812655               -0.24302978                0.12745495                0.69903037                0.05221120                0.11728143
               4.88727067                6.92206099               92.11947489                0.01000001               -0.05785424               -0.31956819                0.15036919                0.90512353                0.05806440                0.01988619
               5.88717783                6.92197341               92.12448713                0.01000001               -0.05395150               -0.24782750                0.17518542                1.12191826               -0.00712909                0.02792048
               6.88619164                6.92446202               92.12941624                0.01000001               -0.12297035               -0.09871194                0.19431094                1.32517230               -0.03635831               -0.03958604
               7.88471842                6.92693545               92.13465457                0.01000001               -0.08749151               -0.11622303                0.18098151                1.38783613               -0.00023099               -0.01136294
               8.88444181                6.92941946               92.14078588                0.63965497               -0.00115860               -0.14755695                0.12609056                0.94547758                0.10011144                0.16078247
               9.88469525                6.91839815               92.14700843                0.99641533                0.02534395               -0.04479764                0.15007889                0.27213073                0.16767879                0.37023535
              -0.10040008                7.93875675               92.09120044                1.00000000               -0.01619216               -0.03997792                0.06274145               -0.00107136                0.00558062               -0.07533443
               0.89943800                7.93175684               92.09710966                1.00000000               -0.02359646               -0.02041434                0.07454244                0.00372800                0.00712815               -0.02530148
               1.89912799                7.92481270               92.10304607                0.01000000               -0.08751554               -0.01389404                0.08347280                0.21210961                0.08596363                0.01198397
               2.89768768                7.92184737               92.11050732                0.01000000               -0.10254381               -0.22911463                0.11784456                0.53299607                0.15857544               -0.03886678
               3.89707711                7.91865259               92.11698171                0.01000001                0.00918629               -0.33710781                0.10796753                0.69246549                0.13255087                0.05596506
               4.89787141                7.91743525               92.12362025                0.01000000                0.04324408               -0.50973417                0.11511944                1.00494704                0.00944344                0.15711161
               5.89794199                7.91926974               92.12869371                0.01000001               -0.04356296               -0.35724551                0.16074282                1.40713993               -0.06337666                0.12799562
               6.89700015                7.92323191               92.13418751                0.01000001               -0.13188670               -0.05603817                0.17936788                1.38624719               -0.02361256                0.00176662
               7.89530426                7.92542411               92.13946568                0.01000001               -0.08671553               -0.06813450                0.18032471                1.32142951                0.03137739                0.04721625
               8.89526584                7.92796910               92.14743592                0.54284804                0.00558123               -0.23223357                0.18179306                0.59892122                0.13191458                0.15596799
               9.89541588                7.91881488               92.15452568                0.85194123                0.01500435                0.09736395                0.19925438               -0.02380054                0.19345630                0.08896861
              -0.09352827                8.93841854               92.09283051                0.94393104               -0.01335926               -0.02710739                0.05647296               -0.00696784               -0.00589924               -0.06076447
               0.90633814                8.93149921               92.09891348                0.94588451               -0.01109668               -0.02268149                0.06791656               -0.00196103               -0.00236964               -0.02521747
               1.90624980                8.92475215               92.10508874                1.00000000                0.00575515               -0.00962436                0.08236236                0.05819657                0.02882859                0.00970409
               2.90645324                8.91932678               92.11183768                1.00000000                0.01732728               -0.14134937                0.09345775                0.19974064                0.06858085               -0.00531331
               3.90659634                8.91500267               92.11900320                0.90427120                0.01496063               -0.19348471                0.07305793                0.29043943                0.09731459                0.04714417
               4.90675245                8.91186631               92.12655456                0.50856643                0.14638120               -0.28227771               -0.00276894                0.57584867                0.12881305                0.16995957
               5.90952397                8.91482850               92.13441528                0.33434229                0.05048843               -0.21684258                0.09391823                1.00128291                0.16351375               -0.05231583
               6.90776222                8.92334126               92.13999389                0.61534493               -0.15570714                0.01764166                0.12893525                0.95293081                0.16918726                0.11967201
               7.90640982                8.92557276               92.14704292                0.50123423               -0.23663823                0.01445711                0.18309958                0.59160480                0.15728995                0.14890734
               8.90302946                8.92477479               92.15294280                0.99999999               -0.19410749               -0.18803797                0.14284149                0.33908575               -0.02966355               -0.02263444
               9.90252767                8.92034543               92.15967455                1.00000000               -0.05017838                0.05426871                0.15926915                0.12514415                0.00016925               -0.08570849
              -0.08670078                9.93821460               92.09473145                0.90484410               -0.02340456               -0.02039447                0.04516225               -0.00838982               -0.03235942               -0.04554316
               0.91306517                9.93130321               92.10084350                0.98075310               -0.04174287               -0.01960012                0.06117609               -0.00701580               -0.03680648               -0.01581169
               1.91246436                9.92462022               92.10691577                0.99999998               -0.08165983               -0.01319316                0.09235718                0.00731464               -0.04237440                0.00366409
               2.91143197                9.91902038               92.11319967                0.99999996               -0.10589962               -0.03063938                0.13184867                0.00600711               -0.03783509                0.00375351
               3.91034637                9.91478289               92.11969509                0.99999998               -0.09347073               -0.02197799                0.13386486                0.01346815               -0.02785673               -0.00478190
               4.90956256                9.91178970               92.12671949                0.99999999               -0.19268317               -0.00766136                0.07743688                0.28851067               -0.00774563                0.02942081
               5.90649270                9.91493289               92.13530809                1.00000000               -0.21240264                0.01043960                0.03772036                0.28662612                0.38458261               -0.23486716
               6.90531451                9.92358475               92.14617000                0.99339227               -0.03949385                0.02434861                0.17600334                0.29424631                0.37234517                0.20165566
               7.90570283                9.92571325               92.15396240                0.85161867                0.09801901                0.01404912                0.22443836               -0.03951991                0.06705269                0.22783048
               8.90727489                9.92420834               92.15922030                0.99999999                0.05373333               -0.05664475                0.17428374                0.13389346               -0.09590337                0.00407956
               9.90677749                9.91990026               92.16588119                1.00000000               -0.04973944               -0.04451683                0.17328033               -0.00582642                0.00026951               -0.00621184
              -0.15837639               -0.06218111               93.07209414                0.80964199               -0.02297681               -0.02417343                0.10511707               -0.00189469                0.00245913               -0.00621916
               0.84139384               -0.06651567               93.07515522                0.46693305                0.01232028               -0.03499392                0.09551254                0.01830856                0.00606447                0.00455617
               1.84187002               -0.07019753               93.07843137                0.53067282                0.03800719               -0.02226159                0.06809648               -0.00396944                0.03495790                0.01613734
               2.84215399               -0.07239714               93.08250386                0.70874352                0.01758273               -0.04345993                0.07873875                0.00277222                0.06764286                0.01645372
               3.84222167               -0.07385009               93.08627555                0.63259101               -0.01584214               -0.01301896                0.08208427                0.00598393                0.00640689                0.00666371
               4.84183714               -0.07401800               93.08888540                0.98931270               -0.04150989               -0.02581278                0.08697591                0.01772267               -0.02432406               -0.00240638
               5.84139147               -0.07444523               93.09107533                0.99999999               -0.04699869               -0.01458726                0.06915947                0.00555049               -0.05929026                0.01624206
               6.84089717               -0.07529713               93.09314186                0.99999999               -0.04572856               -0.01639724                0.06368301               -0.00096110               -0.07448763                0.01392237
               7.84047690               -0.07654958               93.09509733                1.00000000               -0.03528441               -0.01591474                0.05717541               -0.00479597               -0.07988116                0.00434072
               8.84019148               -0.07798777               93.09698040                0.80864807               -0.02292236               -0.01536983                0.05508096               -0.01276999               -0.06729655               -0.00392871
               9.84001845               -0.07946702               93.09906677                0.73472596               -0.01730270               -0.02708270                0.04664250               -0.01354900               -0.05542211               -0.02472269
              -0.15406078                0.93757715               93.07470069                0.47348220               -0.03540845                0.00763813                0.10049156                0.01727257                0.00252685               -0.01347579
               0.84558514                0.93313439               93.07781491                0.01000001               -0.05840838               -0.05781343                0.09077744                0.06198140                0.02774771                0.02619609
               1.84477106                0.92957985               93.08140330                0.21138154               -0.07885753               -0.03310058                0.07970408                0.11952528                0.10135557                0.04872790
               2.84400799                0.92716826               93.08592244                0.01000000               -0.08395570               -0.06210136                0.15890777                0.19415061                0.16645603                0.10206625
               3.84309194                0.92601972               93.09032204                0.01000000               -0.08480230               -0.05144420                0.12400200                0.20510303                0.13377888               -0.00313500
               4.84231194                0.92572387               93.09352307                0.01000001               -0.05026997               -0.06004156                0.09272603                0.18199116                0.04857330                0.02304925
               5.84208654                0.92540889               93.09610162                0.78736998               -0.01861059                0.00938362                0.09247898                0.03226569                0.00603837                0.09796106
               6.84193973                0.92453890               93.09846751                0.99739248               -0.01561412               -0.02111307                0.08048773                0.01074658               -0.01673478                0.02415768
               7.84177426                0.92329127               93.10063582                1.00000000               -0.02086146               -0.02265616                0.07110221               -0.00309887               -0.03234108                0.00554767
               8.84152250                0.92185854               93.10271648                0.82087521               -0.02060218               -0.01379926                0.06718431               -0.00928496               -0.03007773                0.00134537
               9.84136222                0.92026216               93.10489864                0.92300219               -0.01602848               -0.05270015                0.06103702               -0.01380251               -0.02378428               -0.02785568
              -0.14914541                1.93797165               93.07729774                0.53679021               -0.02238175                0.03020528                0.07468765               -0.00452768                0.01809142                0.01296651
               0.85063077                1.93232806               93.08087506                0.21949539               -0.03139708               -0.07688052                0.08094513                0.11488973                0.04681917                0.09981724
               1.85022665                1.92914046               93.08509425                0.01000000               -0.05168210               -0.04943082                0.21561649                0.25660439                0.15937871                0.17169394
               2.84959713                1.92636083               93.09107926                0.01000001               -0.12292631               -0.08421425                0.17455577                0.33623036                0.13070683                0.13287111
               3.84776812                1.92512102               93.09450194                0.01000000               -0.17546690               -0.07775994                0.11939293                0.43996625                0.09367727                0.03098158
               4.84608779                1.92478117               93.09857248                0.01205480               -0.22731815               -0.06207274                0.11625047                0.49617936                0.11370083                0.09919751
               5.84322176                1.92574244               93.10267999                0.01059513               -0.14290370               -0.07304662                0.01194707                0.40914877                0.05610867                0.04643122
               6.84322972                1.92428061               93.10397856                0.01000000               -0.00632371               -0.08870913                0.08661339                0.23417375               -0.04739117                0.08538578
               7.84309529                1.92299730               93.10614697                0.01000000               -0.00974092               -0.07836219                0.08646805                0.19375742                0.01473843                0.10308346
               8.84303490                1.92173625               93.10861225                0.99999999               -0.00800604                0.00032796                0.08227176                0.04878301                0.01419231                0.03388203
               9.84293516                1.91947898               93.11090106                0.99999999               -0.00997358               -0.09231468                0.09429707               -0.00602264                0.00420097               -0.02143474
              -0.14286415                2.93818126               93.08086053                0.74327880               -0.04217223                0.01005916                0.08138231               -0.00037465                0.01430226                0.05738750
               0.85671413                2.93159678               93.08493794                0.01000000               -0.06327407               -0.07720018                0.15460435                0.18178844                0.09123183                0.16616066
               1.85587037                2.92859124               93.09056446                0.01000001               -0.09810509               -0.10334408                0.15995483                0.32287403                0.11497052                0.14363564
               2.85475203                2.92548398               93.09431632                0.01000001               -0.11997180               -0.09385083                0.12626076                0.41004713                0.07557543                0.07297894
               3.85347093                2.92446452               93.09903168                0.01000000               -0.15689553               -0.07183155                0.09761593                0.60688834                0.11221280                0.07142091
               4.85161412                2.92448242               93.10333994                0.01000000               -0.13504285               -0.10808170                0.11578231                0.65610320                0.06223689                0.09094317
               5.85077008                2.92394796               93.10724511                0.01089005               -0.11228861               -0.15417821                0.11887199                0.63713091                0.02995079                0.04142239
               6.84936834                2.92276472               93.11058731                0.01000000               -0.12881543               -0.13034917                0.10377867                0.51512319                0.01005137                0.13180318
               7.84819377                2.92172403               93.11358043                0.01168015               -0.16759320               -0.06045300                0.13072035                0.43609695               -0.11471105                0.22061729
               8.84601648                2.92186510               93.11511525                0.99962186               -0.12187328                0.01275312                0.08510201                0.19075060               -0.02094152                0.05090028
               9.84575630                2.91841586               93.11714670                0.99999999               -0.02601778               -0.11283670                0.12385917                0.00483967                0.00640305                0.00028172
              -0.13598394                3.93817284               93.08420445                0.68547129               -0.01594914               -0.01996465                0.08686293               -0.00044000                0.00188291                0.01407446
               0.86385657                3.93078406               93.08887118                0.01000000               -0.06095631               -0.07352835                0.12194712                0.19266964               -0.00351338                0.13472862
               1.86279693                3.92707357               93.09370953                0.01000000               -0.09658890               -0.16062990                0.11942253                0.43021663                0.03477038                0.08410643
               2.86192479                3.92448382               93.09859293                0.01000000               -0.09447405               -0.12656040                0.09466658                0.59951895                0.07312675                0.10476198
               3.86090745                3.92368439               93.10375220                0.01284077               -0.10991858               -0.08826301                0.11127609                0.63463143                0.10463580                0.10045435
               4.85972642                3.92261953               93.10829693                0.01029314               -0.16126859               -0.15085324                0.13469088                0.70392217                0.09332109                0.05900511
               5.85768208                3.92265887               93.11245400                0.01000001               -0.19851525               -0.12406471                0.13428935                0.66064564                0.07074338                0.06049206
               6.85575611                3.92167363               93.11634867                0.01000001               -0.24826173               -0.06184655                0.12352076                0.61332194                0.00996728                0.10827101
               7.85271684                3.92178824               93.11953301                0.01000000               -0.27990155                0.01235969                0.08649023                0.59736005                0.00050301                0.10471483
               8.85015808                3.92199131               93.12160466                0.76547297               -0.13932098                0.03651657                0.06950518                0.28502597                0.01027931                0.05129769
               9.84993042                3.91722225               93.12333543                0.99999999               -0.02276564               -0.15922990                0.15398917                0.04597372               -0.00989699                0.02020684
              -0.12809539                4.93778197               93.08660102                0.98931197               -0.02378245               -0.04227324                0.08635473                0.01431756               -0.00287249               -0.01618087
               0.87166678                4.93012621               93.09180197                0.01000001               -0.05648325               -0.04379837                0.08759164                0.15973206                0.00464972                0.04847158
               1.87077494                4.92537864               93.09706098                0.01206844               -0.07675975               -0.20454387                0.10560388                0.49195189                0.05202319                0.14042459
               2.87013159                4.92295277               93.10256272                0.01000000               -0.13735474               -0.11178089                0.11894788                0.65286056                0.09718796                0.03803306
               3.86802785                4.92269926               93.10788003                0.01029369               -0.17067534               -0.14117212                0.13526900                0.69486880                0.05601814                0.08643418
               4.86671808                4.92146535               93.11299812                0.01000000               -0.15494744               -0.13822116                0.14182304                0.69934922                0.04853517                0.04325461
               5.86492890                4.92146667               93.11758631                0.01000002               -0.21063312               -0.12984942                0.17132909                0.78769578                0.03364590                0.04146106
               6.86250542                4.92152778               93.12171540                0.01000000               -0.25528076               -0.04282130                0.14692346                0.80672705                0.03391004                0.04601808
               7.85982328                4.92197122               93.12565330                0.01000001               -0.31112125                0.03401612                0.07591883                0.85667650                0.04787609                0.01718554
               8.85628299                4.92259543               93.12824509                0.68510231               -0.18046871                0.06366356                0.02074805                0.46500531                0.05741194                0.05142608
               9.85621391                4.91523126               93.12984182                0.99999999               -0.00690841               -0.22473136                0.16507682                0.09303048                0.00706907                0.06848062
              -0.12038608                5.93732737               93.08845517                0.99999999               -0.01593800               -0.04835554                0.07094587                0.00651410                0.01151283               -0.05670126
               0.87945454                5.92990809               93.09397687                0.69376470                0.00977475               -0.01734750                0.08958152                0.03505867                0.09538233                0.00231166
               1.87980941                5.92298270               93.10109237                0.01052829               -0.08965804               -0.11762737                0.06367353                0.40131341                0.08383300                0.00160096
               2.87766138                5.92224820               93.10588902                0.01089732               -0.17585840               -0.09684342                0.11553955                0.62569802                0.04252502                0.02438332
               3.87629224                5.92086095               93.11164127                0.01000001               -0.13576908               -0.18043618                0.13430120                0.65560738                0.06311845                0.05880033
               4.87494600                5.91985511               93.11716724                0.01000002               -0.14593414               -0.19264297                0.17188836                0.78560474                0.04153101                0.02327452
               5.87337356                5.92006189               93.12230229                0.01000001               -0.17799507               -0.16116827                0.18259038                0.91802109                0.02439265                0.01743403
               6.87138609                5.92081720               93.12678117                0.01000000               -0.22954153               -0.10894489                0.18777407                1.02988858                0.03071665               -0.03185464
               7.86878273                5.92246856               93.13111442                0.01215088               -0.25939733               -0.00003968                0.12981216                1.07025008                0.01812106               -0.02102686
               8.86619815                5.92326458               93.13479415                0.70796979               -0.11316860               -0.02769924               -0.04225673                0.63344698                0.07377764               -0.09415823
               9.86651936                5.91272762               93.13793681                1.00000000                0.03212118               -0.16045618                0.10106984                0.07847743                0.06859434                0.16682739
              -0.11312655                6.93681486               93.09017976                0.99999999               -0.01608208               -0.04768645                0.06522184               -0.00001029                0.01283158               -0.07098968
               0.88671263                6.92977926               93.09600920                0.97154433               -0.02061749               -0.01410309                0.08006864                0.01398689                0.02529198               -0.01782341
               1.88646110                6.92302609               93.10207077                0.01000001               -0.09726674               -0.00315340                0.08509050                0.23296627                0.07749409               -0.05656719
               2.88476729                6.92101590               93.10900473                0.01000000               -0.14640076               -0.11728400                0.10715216                0.51589480                0.11935564                0.00323479
               3.88353308                6.91909054               93.11512676                0.01000001               -0.07690261               -0.23197811                0.12410990                0.60814414                0.10046162               -0.00022822
               4.88322924                6.91761249               93.12087753                0.01000000               -0.06029266               -0.23730744                0.14923244                0.80441482                0.04160366                0.01991478
               5.88232723                6.91824330               93.12634345                0.01000000               -0.12663640               -0.21194509                0.18921526                1.02561540               -0.03021601                0.01735128
               6.88069651                6.91934889               93.13150802                0.01000001               -0.17731651               -0.16199297                0.20781233                1.18633097               -0.05030162               -0.06211641
               7.87878090                6.92197043               93.13647147                0.01104548               -0.10018193               -0.12906345                0.18100174                1.15138458               -0.06008855               -0.02488174
               8.87869287                6.92204144               93.14114054                0.98956241                0.00382424               -0.12552713                0.04000089                0.62033224               -0.03661833               -0.07612772
               9.87885739                6.91202214               93.14682365                0.99999999                0.01645109               -0.01822904               -0.01751094                0.11019585                0.01062411                0.15346573
              -0.10631510                7.93637364               93.09182020                1.00000000               -0.01618568               -0.03673620                0.05856873               -0.00432779                0.00471071               -0.07419132
               0.89352304                7.92962603               93.09784343                0.99918134               -0.02263994               -0.01978501                0.07119754               -0.00208497                0.00652650               -0.03431064
               1.89323210                7.92291963               93.10386040                0.01000001               -0.08041076               -0.00729794                0.08191915                0.19057223                0.09516991                0.00032957
               2.89191483                7.91990252               93.11162140                0.01169624               -0.06867817               -0.16200140                0.13345396                0.43224185                0.20501046               -0.12727509
               3.89185854                7.91622139               93.11790681                0.01000000               -0.00166494               -0.26504795                0.08980914                0.59429606                0.09304230               -0.01058752
               4.89188153                7.91510896               93.12438738                0.01000001                0.01454695               -0.29581758                0.07944207                0.85691207                0.01020346                0.03638852
               5.89214948                7.91582298               93.13025580                0.01179348               -0.02479724               -0.23968155                0.13195202                1.07941649               -0.02900521                0.00296997
               6.89138558                7.91757734               93.13599529                0.01039048               -0.15158041               -0.08774524                0.18740547                1.17687901               -0.03567568               -0.07042733
               7.88911787                7.91988729               93.14174727                0.01000000               -0.14162500               -0.14667969                0.22161471                1.16145994               -0.02210003               -0.02113350
               8.88855308                7.92075404               93.14796231                0.99999998               -0.01779941               -0.17473530                0.05194054                0.51492015               -0.00118549               -0.08650505
               9.88876188                7.91236304               93.15449125                0.99999999                0.02087963                0.07849484               -0.00691452                0.00768988                0.01164199                0.06144707
              -0.09971788                8.93608013               93.09339842                0.79701544               -0.01571787               -0.02348758                0.05591522               -0.01230012               -0.00349022               -0.06235014
               0.90012494                8.92938356               93.09957726                0.83984565               -0.01430338               -0.02024716                0.06733192               -0.00813813                0.00072673               -0.03193448
               1.89999605                8.92288013               93.10589348                0.99999999               -0.00072850               -0.00719352                0.08173776                0.04867530                0.02887609                0.00547789
               2.90011037                8.91777587               93.11274530                0.99999999                0.01082560               -0.11950943                0.08751395                0.18793985                0.04679122               -0.02950524
               3.90021256                8.91378958               93.11963073                0.78836727                0.03277588               -0.13373902                0.07323466                0.28277209                0.05207143                0.00303388
               4.90076589                8.91169614               93.12666995                0.70274645                0.06173095               -0.17525529                0.02384909                0.47349046                0.05334355                0.05654573
               5.90144718                8.91344967               93.13357042                0.72018650               -0.02980519               -0.10260386               -0.04602853                0.64845615               -0.09642574                0.06854509
               6.90016978                8.91759398               93.14034877                0.99028790               -0.13068917                0.00965884                0.04113460                0.63807981               -0.06260776               -0.05178523
               7.89883340                8.91903684               93.14758150                0.99999997               -0.18271263               -0.03120689                0.05347102                0.53483641               -0.08319780               -0.00944916
               8.89651553                8.91854674               93.15420788                0.99999999               -0.15201055               -0.14708156                0.10898955                0.30550613               -0.00582477               -0.01482676
               9.89579319                8.91359204               93.16116542                0.99999999               -0.07223438                0.06047198                0.11783022                0.06962461                0.00473381               -0.03249830
              -0.09316796                9.93590389               93.09514988                0.73264059               -0.02717548               -0.01762428                0.04855027               -0.01328879               -0.01977965               -0.05241954
               0.90656028                9.92922109               93.10142907                0.93182062               -0.05093700               -0.01624780                0.06296973               -0.01287247               -0.02238339               -0.02545757
               1.90581330                9.92277576               93.10788302                0.99999998               -0.08980516               -0.01043723                0.09727001               -0.00371322               -0.01571330                0.00216329
               2.90476418                9.91751233               93.11453185                0.99999999               -0.11097919               -0.02635417                0.12631258                0.00392324                0.00236080                0.00539577
               3.90359371                9.91354661               93.12113108                0.99999999               -0.15364662               -0.02429688                0.15520327                0.04269107                0.02006967               -0.01026930
               4.90169125                9.91160386               93.12805860                0.99999999               -0.21864769               -0.00922844                0.16425158                0.10375061                0.07129683                0.01239383
               5.89922076                9.91377091               93.13664317                1.00000000               -0.15656167                0.03212366                0.10281941                0.08569061                0.17696969                0.07883356
               6.89856001                9.91777052               93.14593351                0.99999999               -0.01794583                0.01765352               -0.02028542                0.11363519                0.15201790                0.00688932
               7.89886184                9.91926315               93.15397951                0.99999999                0.07739969                0.02263170               -0.00482339                0.00493891                0.05551859                0.01612191
               8.90010801                9.91781241               93.16088037                0.99999999                0.06009637               -0.07343266                0.12706136                0.07471359               -0.04622685                0.00454694
               9.90006377                9.91357248               93.16752227                1.00000000               -0.00442369               -0.00195598                0.16310816                0.00306493               -0.03077296               -0.02311908
              -0.16135918               -0.06481335               94.07315591                0.81274683               -0.02896880               -0.02967864                0.10100278               -0.00209066                0.00212778               -0.00483152
               0.83835113               -0.06909773               94.07614841                0.40225704               -0.00652608               -0.03230916                0.10136722                0.01050296                0.00080314                0.00727632
               1.83851030               -0.07305262               94.07918091                0.34298644                0.02646814               -0.03802438                0.09649689               -0.01099008                0.01174800                0.00886805
               2.83888049               -0.07599341               94.08314198                0.66076857                0.03165123               -0.02619808                0.07446475                0.00729916                0.08818103                0.06138166
               3.83914332               -0.07818218               94.08709641                0.95165826                0.01902290               -0.05216159                0.07692954                0.04945080                0.03666984                0.00740308
               4.83926095               -0.07883693               94.08977873                1.00000000               -0.02180472               -0.01004184                0.07812747                0.00812132               -0.04282854               -0.01019862
               5.83870723               -0.07941400               94.09180252                1.00000000               -0.05478112               -0.01620824                0.07324847                0.01171577               -0.07723971                0.01078655
               6.83816533               -0.08058027               94.09378869                1.00000000               -0.04541087               -0.01533547                0.06248562                0.00124695               -0.08323940                0.01024526
               7.83779901               -0.08211632               94.09563230                0.90450112               -0.02858003               -0.01083922                0.05031480               -0.00762276               -0.07935549                0.00924404
               8.83759373               -0.08379329               94.09752405                0.51778910               -0.01846173               -0.01845256                0.05852535               -0.02125967               -0.06589387               -0.00267584
               9.83742978               -0.08555077               94.09959090                0.80424008               -0.01639532               -0.04659127                0.13439371               -0.02544713               -0.08396893               -0.02653842
              -0.15709571                0.93488986               94.07574033                0.41101883               -0.03284943               -0.01013361                0.10502818                0.00888119                0.00491700               -0.01772480
               0.84257579                0.93057918               94.07879846                0.01000003               -0.05280251               -0.05191604                0.10397528                0.01950419                0.02429040                0.02103402
               1.84184824                0.92656714               94.08221429                0.11867584               -0.05287627               -0.04899992                0.10098220                0.05112921                0.16727187                0.10826857
               2.84151827                0.92374461               94.08770033                0.97344711               -0.03943226               -0.03218732                0.12021786                0.07040094                0.17614792                0.05914409
               3.84105959                0.92129620               94.09135301                0.06443846               -0.07800969               -0.04882169                0.08309439                0.17094418                0.08569963               -0.00045541
               4.83995807                0.92106265               94.09435726                0.01912940               -0.06817681               -0.01042370                0.08247131                0.15502729                0.04326547                0.03116580
               5.83969606                0.92042392               94.09690748                0.82933011               -0.02145571               -0.01535098                0.08199205                0.03719256                0.00226799                0.03976574
               6.83952896                0.91926637               94.09922451                1.00000000               -0.01833819               -0.02279281                0.07192280                0.01265576               -0.02455426                0.01734843
               7.83932929                0.91777529               94.10133176                0.99357347               -0.02153024               -0.01805115                0.06255441               -0.00709480               -0.04093651                0.01296418
               8.83909836                0.91602218               94.10339353                0.62083233               -0.01982565               -0.01884113                0.06932787               -0.03351278               -0.03657970                0.00194718
               9.83893278                0.91398332               94.10555310                0.98954045               -0.01655761               -0.06839793                0.11138820               -0.04669080               -0.04061492               -0.03056624
              -0.15256020                1.93498397               94.07812545                0.34556008               -0.03758657                0.01900304                0.10444602               -0.01161345                0.01086199               -0.01236775
               0.84706394                1.92986395               94.08169500                0.12480097               -0.05361753               -0.05229075                0.10109770                0.05284848                0.10942560                0.15782803
               1.84636745                1.92596738               94.08753574                0.74098877               -0.07522440               -0.06918540                0.16146433                0.19604275                0.11662188                0.12437569
               2.84555945                1.92336284               94.09206306                0.21015728               -0.05616426               -0.06108284                0.06519404                0.23830049                0.02091331                0.03835630
               3.84524417                1.92084138               94.09580351                0.01000000               -0.11628338               -0.05785775                0.08387509                0.34103915                0.04675733                0.01299582
               4.84323378                1.92095459               94.09956092                0.01000000               -0.19984055               -0.04173991                0.10595985                0.39493872                0.01686839                0.11423962
               5.84124736                1.92027898               94.10257648                0.01000001               -0.10833529               -0.05998966                0.02863712                0.28651883                0.04868580                0.05169075
               6.84106708                1.91896387               94.10473179                0.01000000               -0.01730262               -0.09518201                0.08840985                0.20536092                0.00272996                0.09907716
               7.84090130                1.91752265               94.10705142                0.42767414               -0.01758183                0.01351697                0.10052617                0.05513690                0.00935549                0.14089104
               8.84071544                1.91582988               94.10945410                1.00000000               -0.01638104               -0.01036631                0.08646660                0.01358610                0.00128031                0.02663915
               9.84057368                1.91308127               94.11185008                0.99999999               -0.01417565               -0.08556410                0.08274236               -0.04312207               -0.00261695               -0.00229073
              -0.14708793                2.93526992               94.08152016                0.67489823               -0.02627119                0.02478600                0.07694047                0.00795569                0.06087325                0.07510003
               0.85264935                2.92953336               94.08664562                0.98283558               -0.03209333               -0.03911612                0.11699159                0.07079109                0.05726769                0.17102896
               1.85227020                2.92518343               94.09156615                0.20516682               -0.06195382               -0.05442913                0.06573915                0.23644983                0.03354823                0.02879053
               2.85141028                2.92252295               94.09580230                0.01029587               -0.09907862               -0.09315017                0.10614622                0.33907622                0.01409059                0.01564697
               3.85028863                2.92013905               94.09978387                0.01000000               -0.14955127               -0.04235484                0.06856093                0.46496393                0.05997120                0.02866533
               4.84841925                2.92022785               94.10455182                0.01000000               -0.14357356               -0.12430777                0.12129730                0.58701555                0.11702451                0.06003865
               5.84741716                2.91922412               94.10840236                0.01000001               -0.10133744               -0.11315242                0.12804609                0.49378630                0.01366266                0.07424653
               6.84639250                2.91736273               94.11164426                0.01000001               -0.19255702               -0.09658197                0.12856890                0.47916549               -0.08729336                0.21782491
               7.84356602                2.91804563               94.11510133                0.01041332               -0.12905224               -0.04777945                0.08390811                0.38459117               -0.15154246                0.18446184
               8.84381146                2.91581486               94.11594868                0.99918520                0.00007718                0.00311126                0.08488027                0.07487591               -0.08123420                0.03282720
               9.84356756                2.91227204               94.11831140                1.00000000               -0.02438997               -0.09027029                0.10309493                0.00285245                0.00450006                0.04400616
              -0.14092797                3.93547969               94.08507066                0.98534939               -0.05057784                0.01412729                0.08165724                0.04248947                0.00530121                0.03910159
               0.85856625                3.92908163               94.08988923                0.06810005               -0.04825837               -0.07193117                0.08273638                0.16040169               -0.00254272                0.08621128
               1.85810686                3.92487880               94.09487518                0.01000000               -0.05904463               -0.07672684                0.07670330                0.29989101                0.01409856                0.04335553
               2.85738536                3.92149984               94.09932576                0.01000000               -0.06341563               -0.13162258                0.06622895                0.45064445                0.03651283                0.05422639
               3.85683855                3.91999429               94.10460670                0.01000000               -0.07481712               -0.04687451                0.03557473                0.50852259                0.06648256                0.05047399
               4.85588902                3.91846844               94.10961221                0.01050937               -0.14251735               -0.14127321                0.14632368                0.59532181                0.05798174                0.07503295
               5.85398820                3.91801593               94.11396981                0.01000000               -0.20300652               -0.10607241                0.15445482                0.61579566                0.00322569                0.08955617
               6.85182889                3.91703223               94.11753011                0.01000003               -0.19235994               -0.08732671                0.13883165                0.60190216               -0.04369350                0.11594668
               7.85014100                3.91656707               94.12038219                0.01000000               -0.19211697               -0.08983395                0.11390463                0.60669856               -0.03810388                0.01786935
               8.84798655                3.91589211               94.12242343                0.88582057               -0.12123180                0.01335809                0.08465074                0.22810798               -0.01322645                0.01381260
               9.84771637                3.91127587               94.12498879                0.99836004               -0.02701786               -0.13965015                0.14929861                0.03938897                0.00892044                0.08120550
              -0.13344201                4.93555247               94.08748571                1.00000000               -0.00997059               -0.02431225                0.07816397                0.00723030               -0.01056643               -0.03755841
               0.86645828                4.92809474               94.09257235                0.01000001               -0.03540900               -0.06206270                0.07823612                0.17539416                0.02406446                0.04207809
               1.86584981                4.92364889               94.09817751                0.01000000               -0.05753004               -0.17977876                0.11677642                0.37776875                0.10525684                0.03386308
               2.86530768                4.91989050               94.10371513                0.01000000               -0.11796626               -0.11692713                0.11597425                0.54124044                0.06345494                0.10447201
               3.86349048                4.91920156               94.10921674                0.01052438               -0.15018186               -0.12759156                0.14720467                0.59529618                0.07871621                0.04673564
               4.86230404                4.91740239               94.11429961                0.01000000               -0.11606030               -0.10278721                0.14446397                0.60896097                0.05839422                0.05321650
               5.86116928                4.91710268               94.11929262                0.01366372               -0.12123156               -0.10990478                0.15623749                0.65020910                0.04361372                0.05643968
               6.85987941                4.91561620               94.12327749                0.01001932               -0.21645847               -0.11278971                0.16132774                0.72891708                0.01489823                0.00345155
               7.85684011                4.91624895               94.12643788                0.01000001               -0.31072981               -0.00286033                0.11562276                0.75896192               -0.08318747                0.00534445
               8.85366482                4.91608202               94.12861941                0.42900174               -0.16261427                0.01247561                0.07373564                0.38578485               -0.04735504               -0.04517950
               9.85358782                4.90947903               94.13183627                1.00000000               -0.00769946               -0.26051563                0.16923782                0.10474411               -0.01021155                0.16229169
              -0.12586791                5.93499345               94.08918689                1.00000000               -0.01543778               -0.05595953                0.07429983                0.01134842                0.01076682               -0.07534007
               0.87397771                5.92784037               94.09479034                0.80603427               -0.01328041               -0.02051320                0.08142579                0.03829304                0.04270905                0.00063051
               1.87386648                5.92128323               94.10101232                0.01000001               -0.06601019               -0.12591195                0.02604974                0.30617976                0.04574546                0.04829654
               2.87265750                5.91916130               94.10717062                0.01000001               -0.13169446               -0.08245574                0.13577454                0.49079361                0.08108049               -0.00190910
               3.87123259                5.91744246               94.11313629                0.01000000               -0.12451941               -0.18634151                0.15526559                0.61161311                0.09142498               -0.00702354
               4.87016712                5.91641269               94.11887803                0.01364711               -0.12270073               -0.10816189                0.15684393                0.64786968                0.05840531                0.03488050
               5.86877857                5.91581784               94.12400644                0.01261898               -0.14530795               -0.13678739                0.15577742                0.65687426                0.01588537                0.00977936
               6.86726096                5.91477644               94.12868959                0.01000001               -0.19620761               -0.08053111                0.16659772                0.79350966               -0.03562654               -0.04121467
               7.86485442                5.91650986               94.13218140                0.01000001               -0.23944010               -0.02219908                0.15182672                0.92046052               -0.13825215               -0.04544108
               8.86247215                5.91614162               94.13471102                0.01000001               -0.09186038               -0.06766345                0.01258786                0.46240725               -0.16567656               -0.03123001
               9.86301721                5.90606556               94.13871113                1.00000000                0.05450592               -0.22830067                0.11542293               -0.00992239               -0.13201596                0.28777841
              -0.11890889                6.93443328               94.09084490                1.00000000               -0.01567399               -0.04695968                0.06407021                0.00089968                0.00991933               -0.08036945
               0.88093437                6.92768448               94.09676311                0.99291972               -0.02193135               -0.01689020                0.07158810                0.01239988                0.01774540               -0.02630425
               1.88065248                6.92113065               94.10278111                0.01000000               -0.09850215               -0.01433230                0.08012293                0.19719213                0.09288685               -0.00976174
               2.87896432                6.91824139               94.11009273                0.01000001               -0.10905648               -0.18000008                0.13079274                0.47140262                0.21336842               -0.09335456
               3.87847135                6.91547473               94.11632082                0.01000003               -0.10391333               -0.17527973                0.14047356                0.59685791                0.11200423               -0.05323880
               4.87688606                6.91523915               94.12245954                0.01007905               -0.12641653               -0.20210453                0.16274540                0.72257881                0.00229163                0.00292736
               5.87594302                6.91436693               94.12827144                0.01000001               -0.09142372               -0.18578305                0.16822177                0.78709129               -0.03715994               -0.04908011
               6.87505758                6.91400557               94.13357249                0.01000001               -0.10294437               -0.08969099                0.18101608                0.94861254               -0.05415240               -0.05767633
               7.87388413                6.91580496               94.13827461                0.01000001               -0.08501586               -0.13092242                0.16000002                0.93819992               -0.08323431               -0.06431809
               8.87335727                6.91472875               94.14158590                0.01000001               -0.01713126               -0.14849827                0.23702168                0.45670261               -0.03108692               -0.10146853
               9.87354151                6.90491302               94.14665822                0.90500429                0.01842411               -0.01817463                0.32840429               -0.00289125                0.03237629                0.12620720
              -0.11235232                7.93405426               94.09237181                0.89583988               -0.01193486               -0.02957091                0.05153581               -0.00751116                0.00973171               -0.07520977
               0.88752833                7.92750257               94.09853361                0.97937399               -0.01971324               -0.02047980                0.06256235               -0.00672148                0.01227374               -0.04234159
               1.88725341                7.92099658               94.10468446                0.26538104                0.01065784               -0.01457851                0.09522273                0.05327610                0.13917466               -0.00287425
               2.88774148                7.91556130               94.11317640                0.01017839               -0.05407133               -0.12075819                0.09129648                0.38138861                0.18296417               -0.16805140
               3.88617198                7.91393686               94.11877790                0.01000000               -0.10074974               -0.18178261                0.11600648                0.60255416                0.00914725               -0.04683060
               4.88572649                7.91237060               94.12520909                0.01000001               -0.02090057               -0.29565735                0.11742605                0.75794504                0.00288687               -0.09496933
               5.88575397                7.91210217               94.13133276                0.01000001               -0.04656593               -0.22774532                0.15443928                0.92928126               -0.03577500               -0.15426714
               6.88479517                7.91298262               94.13793562                0.01000001               -0.14293636               -0.08191172                0.16159079                0.96153183               -0.04563348               -0.09741142
               7.88289525                7.91389141               94.14389797                0.01061394               -0.11485103               -0.13267163                0.19417915                0.85958313               -0.10513779               -0.09925958
               8.88249815                7.91317166               94.14847473                0.79528510               -0.01522022               -0.15842783                0.06150254                0.38912164               -0.05307175               -0.14392353
               9.88259084                7.90570206               94.15438739                0.99986112                0.00926916                0.08757071                0.06466534                0.01132960               -0.02617296                0.14933213
              -0.10595575                8.93384186               94.09394881                0.51540451               -0.01866410               -0.01954800                0.05954426               -0.02181919               -0.00099287               -0.06206916
               0.89385761                8.92727488               94.10026012                0.65002808               -0.01924894               -0.02060633                0.06983089               -0.03233683                0.00257389               -0.03831197
               1.89365927                8.92083908               94.10672349                1.00000000               -0.01028993               -0.01560838                0.08838567                0.01726213                0.02535798               -0.00421762
               2.89365181                8.91582622               94.11358796                0.99882592                0.00269258               -0.00030460                0.08876747                0.07448162                0.03232664               -0.09064829
               3.89371313                8.91183907               94.12046789                0.91480269                0.01139146               -0.11800258                0.08496235                0.22744024                0.01303412               -0.01980723
               4.89387964                8.90932600               94.12703155                0.44363277                0.01017520               -0.15551660                0.07011979                0.38614316               -0.04549150               -0.05325715
               5.89391663                8.90981202               94.13349471                0.01000000               -0.06903301               -0.08690649                0.00487288                0.47222774               -0.02657079               -0.17028821
               6.89249898                8.91236734               94.14081658                0.01163623               -0.15149385               -0.02147805                0.24319469                0.47814352               -0.14739403                0.00203111
               7.89088675                8.91315153               94.14811234                0.82747073               -0.15849686               -0.03258715                0.06050831                0.40819709               -0.13661376               -0.06132058
               8.88932905                8.91156019               94.15512260                1.00000000               -0.10897340               -0.11086743                0.08634782                0.19111695               -0.05723205               -0.06443678
               9.88870729                8.90666444               94.16203115                1.00000000               -0.06217604                0.05110489                0.09520050                0.02479364               -0.04490585                0.04072592
              -0.09965476                9.93366329               94.09570245                0.80570112               -0.04608796               -0.01785622                0.13709059               -0.02718617               -0.02097124               -0.08012463
               0.89988436                9.92709044               94.10210290                0.99224859               -0.06489658               -0.01844382                0.10931382               -0.04626901               -0.02283364               -0.04222207
               1.89904731                9.92068441               94.10886117                0.99999999               -0.08266192               -0.01546719                0.08443630               -0.03795822                0.00402346               -0.00196671
               2.89823113                9.91555520               94.11572592                1.00000000               -0.09131509               -0.02710184                0.10501373                0.00255107                0.04579213                0.00591401
               3.89722101                9.91157681               94.12279915                0.99800309               -0.13773610               -0.02622646                0.14941014                0.03604172                0.07999759                0.00964706
               4.89547640                9.90926027               94.13000452                1.00000000               -0.25319109               -0.00657307                0.16406831                0.09903788                0.16217347               -0.00853831
               5.89215719                9.91036404               94.13736447                1.00000000               -0.22289367                0.05520232                0.10349837               -0.01130492                0.29166377               -0.12222445
               6.89101853                9.91255305               94.14576429                0.92430877               -0.01454264                0.01857151                0.34703409               -0.00426410                0.11373584                0.06049023
               7.89186634                9.91323967               94.15386593                1.00000000                0.08945272                0.00881357                0.05712554                0.01802092                0.14410536               -0.02309481
               8.89280759                9.91095431               94.16176153                1.00000000                0.05059446               -0.06058834                0.09237014                0.02207857                0.03024639               -0.04586939
               9.89287823                9.90672416               94.16914335                1.00000000                0.00706402                0.00597249                0.12683614               -0.00592073               -0.00068702                0.00683527
              -0.16431883               -0.06744658               95.07411419                0.79741745               -0.02962687               -0.03002982                0.08962544                0.00164481                0.00498482               -0.00068272
               0.83538490               -0.07167025               95.07718256                0.38950708               -0.02848862               -0.03212712                0.10513531               -0.01080949                0.01040077                0.00774959
               1.83511140               -0.07608693               95.08036131                0.24387186                0.03086015               -0.05226759                0.14216269               -0.02047462                0.00578531                0.01584661
               2.83600211               -0.08028620               95.08399316                0.49379896                0.06034583               -0.02837387                0.12014210               -0.06740258                0.07579429                0.04321931
               3.83631832               -0.08221522               95.08781414                0.99396051                0.01361805               -0.04812649                0.06772737                0.02842768                0.01815114                0.03001854
               4.83627447               -0.08337902               95.09044795                0.99999999               -0.02407969               -0.00559763                0.06606732                0.02362182               -0.08178320                0.02763783
               5.83583672               -0.08443942               95.09254029                0.99999999               -0.04359362               -0.01303300                0.06780342                0.01355027               -0.10209804                0.01536889
               6.83540259               -0.08596387               95.09439157                0.91470521               -0.03411453               -0.00933627                0.05495824               -0.00403270               -0.10005649                0.00846085
               7.83515443               -0.08776361               95.09610363                0.48393796               -0.02437920               -0.01049490                0.04893875               -0.02760959               -0.07895419                0.00889737
               8.83491501               -0.08978023               95.09815091                0.62109626               -0.04745246               -0.02523412                0.11421285               -0.04247340               -0.03971118               -0.01016130
               9.83420538               -0.09192219               95.10175464                0.99999999               -0.07096283               -0.06861555                0.17157495               -0.01165741                0.03141347               -0.10408289
              -0.16007870                0.93225312               95.07680125                0.39328643               -0.03243118               -0.03044801                0.10661776               -0.01188772                0.00625050               -0.00552209
               0.83959698                0.92800847               95.07989442                0.01000001               -0.03533354               -0.03461400                0.11800090               -0.04193213                0.02674057                0.02063828
               1.83921462                0.92339039               95.08342294                0.01000003               -0.06023782               -0.08184788                0.13501226               -0.07493924                0.14267969                0.09894036
               2.83839223                0.91943006               95.08832680                0.75224179               -0.05328100               -0.03439048                0.05245557               -0.01706819                0.10411470                0.00012833
               3.83814900                0.91730351               95.09198393                0.75099823               -0.03847218               -0.04173461                0.06557453                0.10110179                0.03928451                0.04292773
               4.83762278                0.91656500               95.09517249                0.82792169               -0.04421785                0.01252094                0.07336449                0.07522334                0.03082070                0.06273048
               5.83726465                0.91543025               95.09774146                0.93402255               -0.02992114               -0.01396045                0.07642471                0.02828264               -0.01885939                0.03285154
               6.83702436                0.91394277               95.09990597                1.00000000               -0.02390655               -0.00968644                0.06474448                0.00539869               -0.05008479                0.02671024
               7.83678652                0.91213144               95.10188691                0.86337071               -0.02273970               -0.00954216                0.05802011               -0.02848457               -0.04966870                0.02684924
               8.83656957                0.90996743               95.10410303                0.55233779               -0.02778745               -0.02529438                0.08711871               -0.06964727               -0.00853410               -0.00502991
               9.83623077                0.90739165               95.10712641                0.99870306               -0.03387993               -0.07014712                0.16631355               -0.06330242                0.01781397               -0.09334632
              -0.15606729                1.93194446               95.07938666                0.24314840               -0.05237252                0.02424628                0.14833473               -0.02164394                0.01619447               -0.02002406
               0.84340899                1.92763747               95.08289701                0.01000002               -0.08708446               -0.05926725                0.13480502               -0.07259176                0.10275913                0.12901502
               1.84219103                1.92227611               95.08832353                0.78573356               -0.08306819               -0.07813919                0.05476201               -0.02207222                0.05738008                0.05410799
               2.84174763                1.91902599               95.09238314                0.64722034               -0.04928059               -0.04479207                0.02997744                0.15489315                0.00521285               -0.02184673
               3.84120541                1.91695008               95.09617944                0.02172075               -0.10477147               -0.05344341                0.06286526                0.28086163                0.01154823                0.04297107
               4.83965220                1.91687140               95.10069167                0.01016492               -0.10904031               -0.04665502                0.06950096                0.30223075                0.02946642                0.08033593
               5.83902461                1.91528137               95.10325274                0.01000001               -0.04214109               -0.06953437                0.06660387                0.18286241                0.01845877                0.09878272
               6.83880937                1.91384240               95.10574675                0.87433028               -0.02322632                0.01900639                0.09400852                0.03316610                0.00833727                0.13036570
               7.83856008                1.91204555               95.10815750                0.99999999               -0.02737608               -0.00244730                0.09428520               -0.00282668               -0.00945693                0.09393874
               8.83826185                1.90971388               95.11034158                0.97002378               -0.02345995               -0.02075578                0.06956665               -0.03792588               -0.02054022                0.01211493
               9.83809088                1.90667487               95.11255591                1.00000000               -0.01709708               -0.06171918                0.05271118               -0.05939697               -0.01721529               -0.03816085
              -0.15189759                2.93273805               95.08239934                0.49939229               -0.02889104                0.05224309                0.12450206               -0.06388105                0.04813042                0.06060300
               0.84781350                2.92682313               95.08727777                0.75576940               -0.03588772               -0.05279592                0.05305298               -0.01591174                0.00400946                0.09816571
               1.84738465                2.92182761               95.09187925                0.63476846               -0.04986890               -0.04733952                0.03000585                0.15812219               -0.02364019                0.00448366
               2.84681612                2.91853422               95.09643925                0.17224597               -0.07319102               -0.06852409                0.05219458                0.27914658               -0.02905761               -0.02219098
               3.84592083                2.91623464               95.10040289                0.01022397               -0.07400031               -0.08445431                0.06196592                0.39214595                0.04016140                0.01540182
               4.84533611                2.91563190               95.10576588                0.01000001               -0.09849716               -0.12494978                0.14697071                0.48378318                0.10601370                0.06609016
               5.84395089                2.91403956               95.10980603                0.01039123               -0.22063044               -0.08608177                0.17437793                0.47475423               -0.04748403                0.20295391
               6.84092350                2.91432290               95.11315869                0.01000000               -0.15461927               -0.07415339                0.08355651                0.38517089               -0.11033187                0.20677703
               7.84085850                2.91208250               95.11525859                0.01026947                0.01291127               -0.06182344                0.01425703                0.18653884               -0.06296762                0.06688981
               8.84118173                2.90955231               95.11681285                0.95135305                0.01311768               -0.00585273                0.07657170                0.05499384               -0.06200385                0.01472197
               9.84112086                2.90615727               95.11920860                0.99999998               -0.00608720               -0.06766920                0.08485794                0.00485735               -0.01372385                0.06130239
              -0.14551507                3.93298932               95.08583759                1.00000000               -0.04837386                0.00882574                0.07361798                0.03010131                0.03019546                0.01750309
               0.85400119                3.92658155               95.09052591                0.74218999               -0.04212776               -0.03782286                0.06779998                0.09913841                0.04215604                0.04141839
               1.85364238                3.92132932               95.09524359                0.01788218               -0.05388340               -0.09544265                0.06232053                0.27133040                0.03923760                0.01946400
               2.85292352                3.91765551               95.09991751                0.01022277               -0.08458616               -0.06684361                0.06135395                0.37385042                0.01096278                0.04523986
               3.85195065                3.91526100               95.10446369                0.01236533               -0.07002917               -0.05651304                0.04096316                0.49068737                0.09082449                0.07823759
               4.85152294                3.91437240               95.11122340                0.01029762               -0.10609786               -0.11840192                0.15779680                0.53863539                0.09539005                0.08358937
               5.84982870                3.91355973               95.11554310                0.01000001               -0.15265424               -0.07403643                0.15747709                0.54296721               -0.01169919                0.11212804
               6.84846986                3.91235934               95.11912531                0.01000001               -0.13836271               -0.19427811                0.17317254                0.59919834               -0.03206732                0.09520094
               7.84706144                3.91080908               95.12181110                0.01082994               -0.15914509               -0.09017925                0.15078349                0.45982968               -0.11638229                0.05012407
               8.84528695                3.90959683               95.12329768                0.95588137               -0.10416643               -0.00740318                0.09980049                0.16340870               -0.05770079                0.00022005
               9.84497811                3.90532148               95.12632140                0.99999998               -0.03088416               -0.07012558                0.12050225               -0.00477931                0.01482749                0.09501723
              -0.13848001                4.93291456               95.08816430                0.99999999               -0.00637190               -0.02639707                0.06821924                0.02208281                0.02667874               -0.07771392
               0.86145627                4.92606667               95.09336669                0.80380812                0.01086561               -0.04257993                0.07386039                0.07431470                0.06329453                0.03046095
               1.86173730                4.91991876               95.09939651                0.01002360               -0.05474068               -0.09921479                0.07377705                0.29161695                0.10302119                0.00503277
               2.86036145                4.91719735               95.10488221                0.01000001               -0.13598040               -0.09115454                0.14777958                0.47105583                0.07665574                0.11171627
               3.85901769                4.91510438               95.11082412                0.01030918               -0.12756842               -0.08222944                0.15627752                0.52645985                0.08928645                0.08929788
               4.85781008                4.91326386               95.11588740                0.01000000               -0.10971949               -0.09898024                0.16410469                0.55877322                0.03549555                0.03039380
               5.85682330                4.91255883               95.12071106                0.01000001               -0.10759793               -0.11405365                0.18040672                0.56122435               -0.00453650                0.03197742
               6.85565813                4.91043733               95.12494195                0.01000001               -0.20028470               -0.13307172                0.18796491                0.58744125               -0.10985851                0.08342011
               7.85281761                4.91027891               95.12796576                0.01000001               -0.28603132               -0.05430333                0.16955469                0.59508645               -0.17443608                0.01906272
               8.84993750                4.90940425               95.12971980                0.34527641               -0.16208232                0.00383340                0.12636481                0.27718880               -0.10524167               -0.08154409
               9.84957596                4.90475476               95.13322658                1.00000000               -0.03615400               -0.08301196                0.12186693                0.08008617               -0.03113630                0.15786036
              -0.13137763                5.93246138               95.08994116                0.99999999               -0.01390767               -0.04460064                0.06867954                0.01262810                0.01422557               -0.09933470
               0.86848329                5.92572995               95.09560539                0.91156915               -0.01391661               -0.02783820                0.07609962                0.02793473                0.03281218               -0.01833566
               1.86834404                5.91934503               95.10161336                0.01144864               -0.06621381               -0.03800195                0.06096546                0.16771914                0.09457051                0.01035170
               2.86715902                5.91583242               95.10860451                0.01040053               -0.09653504               -0.20271593                0.17505656                0.47024437                0.20097919               -0.04318948
               3.86641334                5.91361641               95.11474658                0.01000001               -0.09575309               -0.13601141                0.16173956                0.54745243                0.11420890               -0.01828010
               4.86524396                5.91239280               95.12030411                0.01000001               -0.12668130               -0.09619436                0.18094767                0.55883111                0.03733160               -0.01341468
               5.86387971                5.91127866               95.12541784                0.01000001               -0.13726763               -0.13117267                0.19407485                0.54764416               -0.01181764               -0.01899079
               6.86249860                5.90969790               95.13011313                0.01076974               -0.19417273               -0.07440028                0.18859130                0.61982598               -0.07134893                0.03532454
               7.85999626                5.90972301               95.13415095                0.01000001               -0.30718599               -0.06557084                0.20610411                0.81303965               -0.24947948               -0.06423458
               8.85635488                5.90967349               95.13504591                0.01832302               -0.20587196               -0.15779439                0.17307782                0.68441303               -0.23614585                0.13454441
               9.85587882                5.90366124               95.14024527                0.95644274               -0.04760657               -0.29423693                0.16488602                0.38799102               -0.06590675                0.56400560
              -0.12476459                6.93202255               95.09146116                0.90711033               -0.01040973               -0.03479274                0.05577890               -0.00458560                0.00908700               -0.09694689
               0.87513132                6.92550991               95.09744096                1.00000000               -0.01231025               -0.02238840                0.06396683                0.00543725                0.02426403               -0.04961389
               1.87498921                6.91915872               95.10367323                0.74568598                0.01818209               -0.02126305                0.09002870                0.03309426                0.13083338                0.00065301
               2.87549496                6.91314303               95.11162059                0.01000000               -0.07914235               -0.13930750                0.08810572                0.37735441                0.21342764               -0.10750509
               3.87340636                6.91238415               95.11793623                0.01000001               -0.20852521               -0.12393511                0.17513795                0.58961985                0.09424461               -0.04376817
               4.87132445                6.91133998               95.12413244                0.01000001               -0.14676416               -0.18776141                0.18838730                0.58458385                0.08603001               -0.11967834
               5.87047108                6.90993538               95.12970788                0.01065688               -0.08570803               -0.18821483                0.19106182                0.62185465                0.03829086               -0.07901655
               6.86961029                6.90894933               95.13512834                0.01000001               -0.06841370               -0.06564397                0.18944906                0.72206050               -0.04527447               -0.05241323
               7.86910280                6.90896749               95.13967147                0.01313180                0.00386174               -0.08293243                0.15762228                0.68893880               -0.02562636               -0.05647773
               8.86968753                6.90624836               95.14588097                0.05958872                0.01287389               -0.26673100                0.29394972                0.52749345                0.14061945               -0.08096959
               9.86936028                6.89887002               95.15339174                0.68879426               -0.03272459               -0.18422503                0.36460138                0.28887944                0.20963033                0.14461516
              -0.11844406                7.93176553               95.09285091                0.47393839               -0.01000719               -0.02572210                0.04955065               -0.02812299                0.01159043               -0.07458311
               0.88145587                7.92528218               95.09909467                0.86555883               -0.00915713               -0.02309374                0.05754629               -0.02876698                0.02775920               -0.05080054
               1.88137280                7.91891977               95.10576485                0.99985133                0.00123997               -0.02698255                0.09462937               -0.00248710                0.10272141               -0.01193861
               2.88148067                7.91304627               95.11344733                0.01000005               -0.06820052                0.01351781                0.01612442                0.18677452                0.06889473               -0.07339794
               3.88000879                7.91113771               95.12022694                0.01079187               -0.10481317               -0.15059889                0.15377352                0.46072957                0.04185726               -0.12887927
               4.87938441                7.90863757               95.12673590                0.01000000               -0.06506695               -0.27522034                0.16968758                0.59407184                0.02167184               -0.18893713
               5.87870745                7.90751436               95.13334458                0.01000001               -0.07383547               -0.29615955                0.20539493                0.82035525               -0.05902379               -0.26631854
               6.87790770                7.90838502               95.13922711                0.01126559               -0.11157251                0.04283016                0.16639369                0.67719891               -0.05678574               -0.03117717
               7.87647600                7.90806436               95.14563085                0.01000001               -0.04527359               -0.05625150                0.13906345                0.43230792               -0.14078044               -0.14530892
               8.87700223                7.90433887               95.14919236                0.59750429               -0.00314561               -0.11385812                0.15924636                0.18384671               -0.13813204               -0.27404104
               9.87641309                7.89997674               95.15578455                0.99999998               -0.05891376                0.03902889                0.20744890                0.14967056               -0.02122554               -0.16966002
              -0.11236035                8.93150811               95.09458931                0.61970946               -0.02379081               -0.04857019                0.11633281               -0.04321856               -0.00701974               -0.03573962
               0.88740174                8.92504803               95.10097388                0.57349533               -0.02321347               -0.02955427                0.08630148               -0.07000105               -0.00101302               -0.01337213
               1.88717538                8.91861907               95.10766120                0.98747500               -0.01946154               -0.02293449                0.07178835               -0.03683526                0.01485419               -0.02325459
               2.88701251                8.91341339               95.11452065                0.97042910               -0.00728613                0.01542067                0.07999566                0.05072360                0.01099965               -0.07413716
               3.88702965                8.90937218               95.12132998                0.97544409               -0.00916374               -0.10303438                0.09780584                0.16642276               -0.00568421               -0.06459228
               4.88682923                8.90583557               95.12807234                0.33188463                0.00505378               -0.15752130                0.12284307                0.28125005               -0.08919977               -0.11453096
               5.88713073                8.90401219               95.13366787                0.01000001               -0.21124806               -0.19637332                0.17713994                0.72785889                0.14660436               -0.24778450
               6.88260427                8.90980593               95.14521266                0.06758364               -0.26678106                0.03499436                0.29172337                0.51279237               -0.06967119                0.16479154
               7.88179511                8.90784246               95.14879167                0.60771390               -0.05760945               -0.03851413                0.15620632                0.17179868               -0.27090503               -0.14481450
               8.88145208                8.90397120               95.15593484                0.99999998               -0.03585760               -0.03608604                0.10830691                0.01207117               -0.04400374               -0.04844868
               9.88107796                8.89965060               95.16306943                1.00000000               -0.03741255               -0.02459795                0.09850069                0.01160469               -0.03056007                0.01520321
              -0.10638828                9.93079412               95.09789169                0.99999999               -0.06668305               -0.07139856                0.17188153               -0.01309530               -0.10463856                0.03666646
               0.89294489                9.92469110               95.10361535                0.99999999               -0.06704904               -0.03569385                0.16202846               -0.06233714               -0.08538862                0.01154147
               1.89227074                9.91846108               95.10957174                1.00000000               -0.06014285               -0.01579919                0.05231367               -0.05728423               -0.02935606               -0.01949731
               2.89174203                9.91335468               95.11663213                0.99999998               -0.06778389               -0.00587042                0.08419610                0.00374978                0.06399393               -0.01520789
               3.89091506                9.90907702               95.12411929                0.99999998               -0.06863192               -0.02951570                0.11735655               -0.00483621                0.09513062                0.01517609
               4.89036940                9.90548714               95.13133997                1.00000000               -0.08103991               -0.03484268                0.11825873                0.07951020                0.15521690               -0.03248886
               5.88929427                9.90358690               95.13871314                0.96205383               -0.30180636               -0.04252902                0.16113152                0.39624177                0.59733458               -0.05997539
               6.88433327                9.90908491               95.15287419                0.70347478               -0.17737789               -0.07210238                0.35322308                0.35825884                0.15187017                0.25071109
               7.88574671                9.90729408               95.15512202                0.99999998                0.05511232               -0.05483830                0.19478501                0.12177207               -0.19857941               -0.02074034
               8.88543552                9.90361715               95.16272777                1.00000000               -0.02301618               -0.03540447                0.09321939                0.00787837                0.01167976               -0.03282677
               9.88528638                9.89948478               95.17005900                0.87499642               -0.01491313               -0.01658138                0.05471730                0.00760563               -0.00610266               -0.00323190
              -0.16739622               -0.07020113               96.07494842                0.75528562               -0.02917454               -0.02919199                0.08080577                0.00738678                0.00900132                0.00409198
               0.83231203               -0.07436645               96.07825111                0.41621312               -0.03941858               -0.03560546                0.11059679               -0.01520261                0.03216963                0.00707634
               1.83181541               -0.07885895               96.08202417                0.21573870                0.03157540               -0.05573313                0.16314843               -0.02608894                0.03591719                0.01438037
               2.83294354               -0.08379631               96.08554483                0.46416867                0.06180708               -0.08464968                0.13995987               -0.14351885               -0.03574332                0.02443751
               3.83305155               -0.08592139               96.08845096                0.94026462               -0.00222020               -0.02891515                0.05976810               -0.00204321               -0.07845197                0.05515585
               4.83289914               -0.08773326               96.09110008                0.99996863               -0.01649481               -0.01932075                0.05672114                0.01240329               -0.11327487                0.03207653
               5.83272165               -0.08950896               96.09315859                0.91567544               -0.01491358               -0.01225377                0.05154577                0.00104424               -0.12786194                0.01752889
               6.83260087               -0.09143985               96.09488786                0.47331004               -0.01305319               -0.01147552                0.05276062               -0.02170455               -0.11795994                0.01504156
               7.83246059               -0.09350494               96.09661108                0.41080022               -0.07261877               -0.02366558                0.11269299               -0.05521980               -0.10180407                0.00749299
               8.83114849               -0.09590078               96.09980831                0.85126676               -0.08050097               -0.03683167                0.11884914                0.01041851               -0.03819911               -0.07567948
               9.83085057               -0.09837595               96.10302240                1.00000000               -0.02979210               -0.03089234                0.08810817               -0.00834316               -0.01068068               -0.04462448
              -0.16315703                0.92950695               96.07787268                0.41072013               -0.03540490               -0.04067341                0.10988990               -0.01598508                0.00676463                0.01873860
               0.83648892                0.92527750               96.08115848                0.01000000               -0.02867600               -0.02863240                0.13643961               -0.05265113                0.02756842                0.02021121
               1.83626945                0.92058372               96.08491454                0.01000000               -0.07246746               -0.12739061                0.16506767               -0.18533926                0.05663113                0.05381991
               2.83503957                0.91535719               96.08874944                0.01000000               -0.06349291               -0.06951134                0.08540979               -0.09649959                0.08367234                0.05090783
               3.83499959                0.91378946               96.09266450                0.81198945               -0.01113067               -0.03983870                0.07625541                0.04156957                0.04067229                0.07479203
               4.83481696                0.91207354               96.09582455                0.95814350               -0.02070976               -0.01494117                0.06684339                0.02148566               -0.00603076                0.04576187
               5.83458540                0.91036851               96.09843597                0.96501726               -0.02175716               -0.01504872                0.06048686                0.01058266               -0.04528312                0.02817854
               6.83438181                0.90844539               96.10051940                0.93457662               -0.02232718               -0.01208419                0.05393230               -0.01909543               -0.07097778                0.02776852
               7.83413885                0.90625840               96.10249216                0.20906345               -0.03468168               -0.02326538                0.07961221               -0.05288663               -0.04525526                0.02138258
               8.83368818                0.90373091               96.10513590                0.38782610               -0.04482688               -0.03684318                0.13788799               -0.00927722                0.00763016               -0.05921020
               9.83324231                0.90131513               96.10887937                0.99999999               -0.04458661               -0.06940927                0.13062318                0.00592911                0.06144948               -0.11200114
              -0.15925701                1.92898540               96.08109214                0.20835135               -0.05607436                0.02620474                0.16729876               -0.02870718                0.01374035                0.01228784
               0.84018225                1.92506090               96.08439110                0.01034972               -0.13570322               -0.07048579                0.16742293               -0.18157228                0.05866741                0.04143127
               1.83802893                1.91859324               96.08863098                0.01000001               -0.11872210               -0.11153374                0.00017116               -0.19404861                0.16470101                0.15234861
               2.83780780                1.91481346               96.09266261                0.01144268               -0.04311637               -0.04062129                0.16321913                0.09772555                0.10661880                0.10683992
               3.83716660                1.91328184               96.09706082                0.01000000               -0.05289972               -0.08133176                0.11103963                0.19600428                0.07431150                0.06630328
               4.83674981                1.91196792               96.10095094                0.01000001               -0.03025723               -0.05278065                0.04142151                0.16138314                0.06647436                0.10561321
               5.83656145                1.91019007               96.10390855                0.45290681               -0.02103741                0.03121691                0.08081410                0.04199075                0.02847784                0.16981562
               6.83632906                1.90831846               96.10661196                0.99999998               -0.02220573               -0.01628361                0.08511676                0.00955844               -0.00326221                0.08199285
               7.83611734                1.90602975               96.10893713                0.96680034               -0.02114196               -0.02642934                0.06206296               -0.02212277               -0.03887530                0.03383782
               8.83590622                1.90336236               96.11084544                0.44187461               -0.01583110               -0.02888549                0.04630471               -0.04303454               -0.04711552               -0.02773386
               9.83580072                1.90023586               96.11290430                0.88084307               -0.01055056               -0.07912648                0.05736644               -0.04968572               -0.02930083               -0.06482822
              -0.15588217                2.93003105               96.08401021                0.46980705               -0.08681860                0.05396996                0.14537591               -0.13851085                0.02812527               -0.04984419
               0.84324964                2.92386778               96.08770668                0.01000000               -0.07409558               -0.06199142                0.08657209               -0.09284397                0.05770690                0.07546185
               1.84263592                2.91835304               96.09216627                0.01138781               -0.04720821               -0.04212093                0.15703690                0.10740401                0.11056344                0.10282457
               2.84230548                2.91454477               96.09684619                0.01000000               -0.04353483               -0.04258925                0.12851129                0.21932494                0.08625026                0.08320694
               3.84176522                2.91216283               96.10102319                0.01000000               -0.05845421               -0.10720148                0.18153830                0.33278494                0.16923900                0.07785960
               4.84113639                2.91101792               96.10749124                0.01000001               -0.13452744               -0.09746051                0.20738454                0.43988082                0.14652683                0.22798105
               5.83907467                2.91099284               96.11188992                0.01000000               -0.12015456               -0.04183035                0.12345638                0.31963278               -0.06401221                0.23136177
               6.83873330                2.90811972               96.11331539                0.01000000               -0.02110867               -0.05827379                0.05680235                0.16637198               -0.04294553                0.12973935
               7.83865250                2.90572981               96.11538647                0.01000001               -0.00559630               -0.05836841                0.05847347                0.12785648               -0.02217917                0.10411958
               8.83862138                2.90315320               96.11748011                0.93672298               -0.00754509               -0.01863970                0.08556748                0.02093968               -0.03232226                0.02824384
               9.83850160                2.89973260               96.12000856                0.99994072               -0.01197807               -0.05388160                0.07965400               -0.03382254               -0.02091493                0.05274801
              -0.14970069                3.93006480               96.08654302                0.96256111               -0.02959348               -0.00682138                0.06441021                0.00407465                0.05531279               -0.07781677
               0.85000337                3.92382107               96.09124523                0.83555169               -0.03996437               -0.01216478                0.07824281                0.04641672                0.07471974                0.04122638
               1.84950002                3.91775082               96.09612159                0.01000000               -0.08094267               -0.04866306                0.10960758                0.19497014                0.06572345                0.07657435
               2.84838452                3.91396168               96.10055284                0.01000000               -0.10754386               -0.05534751                0.18293082                0.32473498                0.07356102                0.17654441
               3.84734914                3.91113781               96.10542596                0.01000002               -0.08335530               -0.07291032                0.26495726                0.42814169                0.21132924                0.22073390
               4.84671741                3.91001871               96.11276814                0.01000001               -0.07484128               -0.10441860                0.18461912                0.51031372                0.14380049                0.12427057
               5.84585232                3.90935346               96.11711935                0.01000001               -0.08989405               -0.15626832                0.18693627                0.50417982                0.00963561                0.09503549
               6.84491953                3.90715299               96.12099356                0.01000000               -0.11056636               -0.09114695                0.18391066                0.36015806               -0.13259621                0.21738057
               7.84364099                3.90486238               96.12339786                0.01000000               -0.12986479               -0.07197312                0.15676285                0.28788119               -0.22004680                0.17559831
               8.84232223                3.90298957               96.12441944                0.99999999               -0.08377588               -0.02251461                0.12480388                0.09868179               -0.09414833                0.01511276
               9.84196547                3.89915823               96.12739884                1.00000000               -0.03567642               -0.05101101                0.08795015               -0.01063663                0.01245777                0.07320681
              -0.14331322                4.92989462               96.08885009                1.00000000               -0.01948172               -0.01774581                0.05938482                0.01242881                0.03166986               -0.11075764
               0.85649196                4.92362448               96.09404956                0.97191240               -0.01460318               -0.02108433                0.06819288                0.02217721                0.04578639               -0.00440408
               1.85639471                4.91737978               96.09965305                0.01000000               -0.05393887               -0.02686389                0.03923815                0.15360367                0.10689383                0.06506980
               2.85541318                4.91343782               96.10667073                0.01000001               -0.10618467               -0.12012758                0.20835998                0.42420949                0.23262925                0.15662971
               3.85427102                4.91070462               96.11234230                0.01000001               -0.11430829               -0.05865343                0.18674947                0.49798803                0.13586946                0.14378038
               4.85312702                4.90892955               96.11758171                0.01000001               -0.11235144               -0.10596761                0.23707927                0.53439650                0.09205862                0.08347118
               5.85202399                4.90786748               96.12290076                0.01000000               -0.13497372               -0.14561327                0.24318216                0.51240594                0.00706382                0.08811693
               6.85042754                4.90629678               96.12703678                0.01000001               -0.17252265               -0.09282243                0.22606864                0.43021064               -0.11480403                0.12486811
               7.84857354                4.90429035               96.12982897                0.01000000               -0.20641907               -0.06714649                0.21067628                0.38485962               -0.18312057                0.05826840
               8.84629916                4.90270291               96.13114671                0.38315703               -0.13110028               -0.01591160                0.14417060                0.18773569               -0.10740037                0.00980281
               9.84595153                4.89871238               96.13427361                1.00000000               -0.03476281               -0.09888616                0.10949982                0.06769136               -0.02313878                0.10135316
              -0.13691185                5.92970989               96.09056048                0.90492125               -0.01263979               -0.01550159                0.05200409                0.00027383                0.01874296               -0.12456324
               0.86296175                5.92339939               96.09631233                0.95535471               -0.01646960               -0.02107860                0.06088301                0.01096386                0.02875666               -0.04454408
               1.86275876                5.91721354               96.10223163                0.37938225                0.02910569               -0.01937788                0.07867909                0.04272733                0.16975972                0.02492143
               2.86354387                5.91155913               96.11067175                0.01000000               -0.04707957               -0.10946749                0.12805551                0.31539461                0.23426278               -0.04973455
               3.86181717                5.90996474               96.11637108                0.01000001               -0.16506900               -0.07928072                0.19032404                0.49568015                0.10725671                0.00146754
               4.86024249                5.90789936               96.12249698                0.01000000               -0.15419800               -0.12578770                0.24503644                0.50922209                0.09242972                0.00252181
               5.85873321                5.90644120               96.12788793                0.01000001               -0.15708091               -0.15038104                0.28706288                0.55430595                0.00313379               -0.00167472
               6.85710087                5.90529654               96.13246141                0.01000001               -0.19005770               -0.12267255                0.28043315                0.54196073               -0.09554598                0.02610555
               7.85493205                5.90351945               96.13630348                0.01127551               -0.27229718               -0.05474194                0.23581396                0.57101161               -0.20213015               -0.03229150
               8.85165492                5.90267134               96.13817257                0.20736636               -0.18158477               -0.18700009                0.27647647                0.49056426               -0.13463381                0.10105483
               9.85130036                5.89718051               96.14200885                1.00000000               -0.03545668               -0.32231704                0.18963980                0.28896981               -0.02285320                0.30695644
              -0.13068675                6.92958459               96.09196047                0.45549970               -0.01056679               -0.01377192                0.05282238               -0.02297667                0.01619755               -0.11344503
               0.86920758                6.92320291               96.09804244                0.93068389               -0.01118655               -0.02228724                0.05291097               -0.01922711                0.02931420               -0.07088180
               1.86908952                6.91699222               96.10458169                0.99999998               -0.01188559               -0.02218513                0.08901260                0.01209888                0.09136192               -0.00526040
               2.86896987                6.91124847               96.11185485                0.01000000               -0.06225647               -0.01829275                0.05151442                0.16201053                0.12721657               -0.04642837
               3.86784439                6.90911901               96.11982358                0.01000000               -0.10674333               -0.09996089                0.18838464                0.35343635                0.21172557               -0.13677172
               4.86683501                6.90641380               96.12622728                0.01000002               -0.10657297               -0.16237028                0.22647806                0.42703207                0.13082580               -0.12559440
               5.86571293                6.90485986               96.13209267                0.01000001               -0.13232520               -0.18126912                0.28208231                0.53893042                0.03278406               -0.10358663
               6.86418850                6.90384333               96.13736147                0.01000000               -0.15469799               -0.15108930                0.28487420                0.63039897               -0.09377622               -0.09069032
               7.86261897                6.90319551               96.14142705                0.01000000               -0.08695560               -0.08272055                0.25278100                0.51509559               -0.10747418               -0.12429252
               8.86244939                6.89896290               96.14746490                0.44580357                0.00468049               -0.25171831                0.12757250                0.34987003               -0.04555683                0.00950255
               9.86271258                6.89226604               96.15395024                1.00000000                0.02631928               -0.22746667                0.04114352                0.21439198               -0.00872832                0.21383069
              -0.12460803                7.92943445               96.09336282                0.40302012               -0.02223926               -0.07491499                0.11742749               -0.05700706                0.01005729               -0.09804078
               0.87516957                7.92295364               96.09968453                0.22517114               -0.02183926               -0.03580733                0.07899006               -0.05533650                0.02324093               -0.04623208
               1.87495518                7.91676984               96.10657704                0.97676714               -0.02561402               -0.02125625                0.06464169               -0.02201541                0.03706110               -0.03906226
               2.87465729                7.91119327               96.11349889                0.01000001               -0.06173084               -0.00448910                0.05001918                0.12144191                0.09809333               -0.03090802
               3.87372056                7.90796552               96.12185337                0.01000000               -0.08075070               -0.12320639                0.15963297                0.28310204                0.17135096               -0.23717120
               4.87304228                7.90465195               96.12860284                0.01000000               -0.08191393               -0.19912424                0.20534485                0.38865197                0.05783964               -0.19793923
               5.87208229                7.90281581               96.13544065                0.01017397               -0.08345443               -0.26860412                0.24423341                0.58091322               -0.01548133               -0.21199278
               6.87137319                7.90227475               96.14126349                0.01000000               -0.09839485               -0.09136190                0.26606278                0.54212463               -0.12109322               -0.10968494
               7.87011439                7.90186504               96.14667924                0.01000000               -0.08956935               -0.12157207                0.20712992                0.37448612               -0.15536476               -0.18346349
               8.86958180                7.89763697               96.15165966                0.81609459               -0.05662267               -0.09535507                0.20272317                0.12439780               -0.12805035               -0.13167551
               9.86898194                7.89263118               96.15853637                1.00000000               -0.05998683                0.02140118                0.18217991                0.05513712               -0.01436649               -0.16847583
              -0.11886528                8.92808629               96.09627547                0.84807970               -0.03692570               -0.08212943                0.12042552                0.01070778               -0.07594372               -0.03404785
               0.88076546                8.92248677               96.10198615                0.37506988               -0.03625690               -0.04576531                0.13719862               -0.00961111               -0.05644698                0.00474728
               1.88040958                8.91656710               96.10815926                0.46350897               -0.02812210               -0.01482335                0.04561810               -0.04199243               -0.02507466               -0.04536162
               2.88020302                8.91115869               96.11518787                0.94598004               -0.01809162               -0.00825846                0.08543454                0.01969759                0.02426109               -0.03822845
               3.88004775                8.90665488               96.12242401                0.99999999               -0.02226332               -0.08319010                0.12502411                0.09839228                0.00983014               -0.10390833
               4.87975776                8.90243131               96.12948841                0.39191258               -0.01696762               -0.12883517                0.14606344                0.18887504                0.01606210               -0.11647670
               5.87970840                8.89948777               96.13703751                0.20063673               -0.18879947               -0.18709072                0.28747802                0.50360742                0.10536239               -0.14234352
               6.87598177                8.90201609               96.14665105                0.44750594               -0.24809612               -0.00152634                0.11981536                0.37750823                0.06241038               -0.10730819
               7.87474648                8.90076407               96.15123647                0.82444262               -0.09052780               -0.08504442                0.20176875                0.14832450               -0.12759449               -0.13161765
               8.87417121                8.89705580               96.15728873                0.99999999               -0.04597820               -0.04625310                0.12805819                0.02261936               -0.04609438               -0.04898823
               9.87382691                8.89269406               96.16400117                0.65089661               -0.03442987                0.00246027                0.07569979                0.01941505               -0.01256415               -0.06669335
              -0.11319484                9.92779186               96.09914008                1.00000000               -0.03086250               -0.02944277                0.08660039               -0.00830803               -0.04592756               -0.00939305
               0.88649654                9.92203834               96.10534347                1.00000000               -0.06808761               -0.04484293                0.13080938                0.00718302               -0.10488737                0.05713214
               1.88544341                9.91647337               96.10990744                0.86758254               -0.07665378               -0.00937284                0.05290074               -0.04712885               -0.06267068               -0.02925367
               2.88496346                9.91102810               96.11740984                1.00000000               -0.05138150               -0.01305832                0.07726197               -0.03253826                0.05632397               -0.02172994
               3.88441578                9.90630172               96.12514629                1.00000000               -0.04882891               -0.03531568                0.08446042               -0.01083955                0.07370563                0.01197834
               4.88398689                9.90207525               96.13236969                1.00000000               -0.09230627               -0.03560633                0.10890173                0.06152675                0.10757906               -0.02412847
               5.88256966                9.89907400               96.14058710                1.00000000               -0.31699145               -0.04137746                0.19016203                0.29457452                0.32030200               -0.03542963
               6.87764706                9.90224422               96.15282875                1.00000000               -0.22642458                0.02281342                0.00870359                0.22103663                0.22309089               -0.03342616
               7.87804117                9.90016415               96.15776163                1.00000000                0.02285736               -0.05999196                0.17567031                0.05285304               -0.16933639               -0.01639417
               8.87810420                9.89671191               96.16362592                0.65376790                0.00262794               -0.03438958                0.07321563                0.01911068               -0.06676260               -0.01385837
               9.87809372                9.89268038               96.17023770                0.37532896               -0.00104798               -0.00136782                0.00362527                0.02352852               -0.01961787               -0.01774302
              -0.17074419               -0.07321327               97.07573031                0.70840567               -0.03032601               -0.03025574                0.08166233                0.00989937                0.01355243                0.00873894
               0.82895255               -0.07734346               97.07939450                0.46830509               -0.03598889               -0.03838305                0.11631282               -0.00294469                0.03889903                0.00872964
               1.82853603               -0.08158006               97.08362428                0.23348453               -0.00460517               -0.05599595                0.14355130               -0.02113538                0.00876600                0.01369131
               2.82886045               -0.08620668               97.08679236                0.58115554                0.03289950               -0.04628882                0.07776988               -0.05242978               -0.14042166                0.03525214
               3.82919402               -0.08953919               97.08900951                0.97861848                0.02204488               -0.02713181                0.04357248               -0.02965518               -0.14903244                0.06017967
               4.82930134               -0.09218643               97.09158238                0.84327532                0.01488437               -0.01841919                0.03935403               -0.01228575               -0.13712150                0.02712164
               5.82949171               -0.09464361               97.09357121                0.43841124                0.01447795               -0.01125355                0.05033215               -0.01974277               -0.15099108                0.02035613
               6.82959090               -0.09692613               97.09544678                0.32435520               -0.06469053               -0.02998334                0.11754328               -0.04084388               -0.13674489               -0.01340575
               7.82819790               -0.09937592               97.09835749                0.61365222               -0.09255955               -0.03910366                0.12369505                0.05555804               -0.13169739               -0.09513309
               8.82773971               -0.10194900               97.10052789                0.80032741               -0.03171531               -0.03049006                0.07277988                0.00188938               -0.06973775                0.00018796
               9.82756359               -0.10452863               97.10351681                0.84602416               -0.01761196               -0.02016413                0.04332379               -0.01704036               -0.02095336               -0.02150960
              -0.16651501                0.92648417               97.07899905                0.45657340               -0.03784956               -0.03670174                0.11470566               -0.00345729                0.00928991                0.02890968
               0.83310650                0.92227271               97.08262321                0.01000001               -0.03643544               -0.03693225                0.14961320               -0.02666248                0.03164338                0.02660918
               1.83275629                0.91785998               97.08672429                0.01034173               -0.03953947               -0.01742904                0.18951121               -0.01323853                0.00911773               -0.06003046
               2.83231571                0.91333043               97.09003500                0.01171660               -0.04344717               -0.03636391                0.15444377               -0.05403819                0.02336497                0.17789585
               3.83188734                0.91018949               97.09350904                0.89445467               -0.02925060               -0.02716739                0.08597840               -0.02458774                0.00164638                0.08283649
               4.83173070                0.90762938               97.09650936                0.99999998               -0.01116056               -0.02482997                0.06031357               -0.00565192               -0.04478809                0.03368688
               5.83166413                0.90524385               97.09895120                0.81521964               -0.00910421               -0.00663263                0.04800442               -0.02069539               -0.08504044                0.03513768
               6.83154861                0.90277404               97.10098461                0.25064612               -0.01996087               -0.01937999                0.08082096               -0.04430723               -0.08005375                0.01793343
               7.83126491                0.90023305               97.10347916                0.01000001               -0.06068261               -0.03980456                0.17260050                0.01616300               -0.02839618               -0.06176711
               8.83033496                0.89774610               97.10686079                0.10651726               -0.06460502               -0.06180014                0.15400823                0.03246698               -0.00191579               -0.09437092
               9.82997281                0.89526973               97.10973887                0.68119980               -0.03621476               -0.06111271                0.10166717                0.04354078               -0.02437164               -0.13269171
              -0.16239041                1.92605270               97.08273264                0.22483540               -0.05660979               -0.00969431                0.14538168               -0.02413158                0.01177544               -0.01216064
               0.83704350                1.92191789               97.08624547                0.01008924               -0.01980291               -0.03972353                0.19364870               -0.01381329               -0.05771481               -0.00398898
               1.83721354                1.91807135               97.08832696                0.01000000               -0.07966657               -0.07332405                0.28137557               -0.05758639                0.21367027                0.19288856
               2.83545016                1.91306604               97.09564752                0.01000000               -0.14051094               -0.05111483                0.27623795               -0.03926988                0.21133020                0.20596281
               3.83440332                1.90991746               97.09840023                0.01022980               -0.06581091               -0.03814005                0.12421209                0.05120773                0.02210006                0.14365974
               4.83413395                1.90731697               97.10152011                0.14312845               -0.02350864                0.03724683                0.08921941                0.04877445                0.05695724                0.20994401
               5.83393314                1.90522373               97.10486902                0.99999998               -0.02091936                0.01060753                0.08900232                0.02758276                0.02660105                0.13992485
               6.83371556                1.90268627               97.10744909                1.00000000               -0.01920235               -0.01189748                0.06906795               -0.01881569               -0.03903526                0.06742686
               7.83354910                1.89982799               97.10939876                0.61309046               -0.01815954               -0.02644491                0.05412915               -0.04429936               -0.07441089               -0.00528652
               8.83335237                1.89681499               97.11126767                0.01000000               -0.00809785               -0.06014553                0.03009789               -0.00003188               -0.03571742               -0.10979463
               9.83338714                1.89424912               97.11370324                0.49085310                0.00347718               -0.12760178                0.17057426                0.02705479               -0.05682517               -0.04033259
              -0.15872803                2.92629029               97.08530686                0.59138122               -0.04603937                0.02702019                0.08038746               -0.05234688                0.03649465               -0.15412994
               0.84081157                2.92147824               97.08900921                0.01000002               -0.04077795               -0.04273514                0.15575993               -0.05116355                0.17730961                0.01293997
               1.84045641                2.91639350               97.09501998                0.01000000               -0.05636853               -0.13486666                0.27446042               -0.03671991                0.21731821                0.20211548
               2.83968420                2.91230814               97.09900947                0.01000000               -0.08979217               -0.08520893                0.28824810                0.13367021                0.15719076                0.14352488
               3.83866057                2.90942669               97.10403366                0.01103653               -0.11421438               -0.07804485                0.30044019                0.28123986                0.21279684                0.24533592
               4.83739992                2.90837432               97.10991357                0.01000001               -0.09070381               -0.02748160                0.14523636                0.23004624                0.09137799                0.27661609
               5.83684649                2.90545600               97.11227516                0.01000001               -0.04159386               -0.03870646                0.04442100                0.10123109               -0.01154565                0.15568612
               6.83656804                2.90253609               97.11429474                0.74963480               -0.02981435                0.01496423                0.09561102                0.00360044               -0.01939865                0.17449954
               7.83625020                2.89970415               97.11642806                0.99999999               -0.03274196                0.00252757                0.10335751               -0.01536883               -0.02566419                0.12592444
               8.83591320                2.89654319               97.11852420                0.91821663               -0.03022693               -0.02912555                0.09498595               -0.04679042               -0.03018526                0.02740056
               9.83564566                2.89271769               97.12080168                0.91007437               -0.02675359               -0.08642751                0.07097842               -0.08848229               -0.02986837                0.00883897
              -0.15381324                3.92659310               97.08712580                0.99165202               -0.02697392                0.01958280                0.04582304               -0.02886712                0.05907325               -0.14795477
               0.84591702                3.92106319               97.09209077                0.91205162               -0.02687586               -0.02833710                0.08599976               -0.02308096                0.08142250                0.00097427
               1.84564924                3.91537402               97.09743575                0.01000000               -0.04133225               -0.06416913                0.12237176                0.05481370                0.14375107                0.02422555
               2.84509037                3.91136186               97.10357612                0.01101031               -0.08436536               -0.10485519                0.30326576                0.28115683                0.24485203                0.21560011
               3.84396193                3.90835657               97.10976284                0.01000001               -0.11924051               -0.11959112                0.39498979                0.37845041                0.21699653                0.22670894
               4.84270556                3.90676734               97.11491579                0.01045260               -0.10829680               -0.15849336                0.27138258                0.38929572                0.10307035                0.14544680
               5.84179600                3.90444960               97.11928182                0.01000000               -0.15830715               -0.09517066                0.20914357                0.34406118                0.00273842                0.20425349
               6.83953942                3.90298555               97.12280352                0.01000001               -0.12806872               -0.05346229                0.10967731                0.26473657               -0.08660351                0.21104828
               7.83923462                3.89987854               97.12494636                0.01000002               -0.00682017               -0.05827432                0.07584066                0.10209975               -0.16155120                0.16447209
               8.83940302                3.89623248               97.12579375                0.99999999                0.00169280               -0.03480075                0.10727637                0.00368384               -0.09842717                0.00090592
               9.83926848                3.89252057               97.12808040                1.00000000               -0.01345380               -0.02729434                0.06041935               -0.01050581               -0.02382315                0.04120911
              -0.14824556                4.92668194               97.08935199                0.83405850               -0.01854109                0.01333182                0.04069145               -0.01170555                0.02566424               -0.13410149
               0.85156903                4.92091150               97.09473055                1.00000000               -0.02502171               -0.01085022                0.05992148               -0.00507828                0.03200793               -0.04294977
               1.85125401                4.91511011               97.10018127                0.10020832                0.03778811               -0.02296009                0.08701331                0.05150531                0.20912032                0.05687023
               2.85232480                4.91021103               97.10904941                0.01130791               -0.02149571               -0.08541279                0.14364469                0.22696027                0.28199827                0.10254631
               3.85082410                4.90703487               97.11455911                0.01049583               -0.16160015               -0.10960441                0.26716154                0.38823640                0.15045091                0.10699822
               4.84909279                4.90520445               97.12062898                0.01000001               -0.16572982               -0.14848426                0.32589589                0.46939268                0.12376265                0.12651110
               5.84750950                4.90355259               97.12557470                0.01000001               -0.13294815               -0.11981759                0.28353050                0.42221752                0.01313300                0.14972352
               6.84643383                4.90146684               97.12946332                0.01000001               -0.12321152               -0.15451155                0.26329238                0.38093968               -0.08534945                0.14955224
               7.84504527                4.89853866               97.13217928                0.01000001               -0.15444873               -0.11997210                0.24169664                0.26940993               -0.21381527                0.11826525
               8.84334486                4.89584717               97.13260321                0.39792996               -0.10929440               -0.04280386                0.16322524                0.10934816               -0.11483859                0.05147031
               9.84285938                4.89217181               97.13541658                1.00000000               -0.04854738               -0.11984130                0.12193835                0.05649986               -0.00283105                0.12429650
              -0.14250646                5.92685974               97.09098125                0.41861443               -0.01062591                0.01346839                0.05145188               -0.01930592                0.02182092               -0.14757943
               0.85738728                5.92084619               97.09682305                0.80000063               -0.00568663               -0.00957131                0.04752690               -0.02087823                0.03616501               -0.08399207
               1.85737981                5.91491482               97.10318694                0.99999998                0.01587691               -0.02010089                0.08953651                0.02787268                0.14771987                0.02890308
               2.85770482                5.90965361               97.11116563                0.01189295               -0.03232838               -0.04118520                0.04416459                0.08611319                0.16028443               -0.01567893
               3.85673324                5.90616448               97.11855306                0.01000000               -0.10645617               -0.14342186                0.20917854                0.32941939                0.20308690                0.00702452
               4.85557570                5.90379766               97.12520484                0.01000001               -0.13776430               -0.12411121                0.28611392                0.42339275                0.15030187                0.01317128
               5.85397796                5.90205325               97.13115910                0.01000001               -0.17017802               -0.16208315                0.36902773                0.42903698                0.05149113                0.05559825
               6.85217214                5.89989532               97.13572179                0.01000002               -0.18677325               -0.15666984                0.38612679                0.36962048               -0.08626661                0.05810620
               7.85024249                5.89747910               97.13886723                0.01000000               -0.21076510               -0.12163910                0.31294991                0.36428556               -0.20630188                0.03019743
               8.84795684                5.89537641               97.14057543                0.22986485               -0.12466443               -0.14479196                0.27825918                0.27764923               -0.10800357                0.10425659
               9.84774920                5.89012374               97.14403806                1.00000000               -0.02076328               -0.27763476                0.18666941                0.14251544               -0.00415492                0.32768100
              -0.13660457                6.92695131               97.09251761                0.31379141               -0.02990410               -0.06850111                0.12445509               -0.04211766               -0.01258487               -0.12964751
               0.86309639                6.92072007               97.09849918                0.25276998               -0.01956920               -0.02161781                0.08293474               -0.04620150                0.02065169               -0.07927272
               1.86300404                6.91470809               97.10545348                1.00000000               -0.01494920               -0.01769362                0.07032157               -0.02064423                0.06663454               -0.03713214
               2.86279740                6.90938733               97.11265088                0.60089669                0.01321964               -0.02792597                0.08912905               -0.00401348                0.17419791               -0.03034340
               3.86326844                6.90416643               97.12170392                0.01000001               -0.05627640               -0.11853126                0.12019561                0.24667550                0.22148720               -0.08983293
               4.86167187                6.90272223               97.12866200                0.01000001               -0.16379317               -0.11899975                0.26148943                0.37613539                0.13262762               -0.07921940
               5.85999257                6.90031092               97.13534953                0.01000002               -0.16357425               -0.18617916                0.38570094                0.36852196                0.05905739               -0.08140764
               6.85840039                6.89833344               97.14082583                0.01350262               -0.15713368               -0.14967887                0.35294619                0.39350329               -0.09116171               -0.08946236
               7.85684990                6.89610588               97.14472709                0.01000001               -0.10735932               -0.14467135                0.31715098                0.36739683               -0.16290009               -0.12823328
               8.85625320                6.89295133               97.14843242                0.59115765               -0.03174386               -0.17474398                0.12419996                0.25702413               -0.11947036                0.05544073
               9.85621502                6.88661911               97.15421461                0.99999999               -0.00381810               -0.17837187                0.01629006                0.09793416               -0.02217241                0.23027788
              -0.13088633                7.92548971               97.09519946                0.60945480               -0.04072036               -0.09507089                0.12828061                0.05761080               -0.10070884               -0.12546005
               0.86870647                7.92041383               97.10067447                0.01000001               -0.04070033               -0.06180117                0.17506272                0.01819284               -0.06272191               -0.02648447
               1.86829967                7.91456095               97.10705769                0.60865022               -0.02701277               -0.01633287                0.05480955               -0.04253085               -0.00362751               -0.07409362
               2.86816621                7.90909509               97.11444772                0.99999999                0.00160937               -0.03247317                0.10102603               -0.01657558                0.12767456               -0.02867773
               3.86833185                7.90379385               97.12341960                0.01000001               -0.06061505               -0.00826709                0.07836962                0.09899281                0.16112838               -0.17380493
               4.86695391                7.90141766               97.13084279                0.01000001               -0.12973386               -0.14915212                0.22499615                0.27004556                0.11196401               -0.19866005
               5.86573718                7.89832967               97.13822925                0.01000000               -0.13533334               -0.21460286                0.32153124                0.37834249                0.05711450               -0.21861889
               6.86424725                7.89690175               97.14454836                0.01000001               -0.13823181               -0.11194675                0.30855617                0.37545695               -0.10221274               -0.17668397
               7.86297254                7.89458568               97.14977345                0.01000001               -0.08315795               -0.09890816                0.25769871                0.33677080               -0.21278440               -0.23498690
               8.86258409                7.89188153               97.15324682                0.89708922               -0.03001078               -0.09630796                0.15964558                0.17414626               -0.16451283               -0.06546949
               9.86237232                7.88655630               97.15942815                0.64911657               -0.02117625               -0.00018533                0.06767856                0.02681712               -0.00659842               -0.05369013
              -0.12530059                8.92504989               97.09699782                0.79634973               -0.03104017               -0.03063375                0.07337536                0.00205179                0.00025394               -0.06878678
               0.87438901                8.91948405               97.10371785                0.08773275               -0.06136217               -0.06473599                0.15461167                0.03524295               -0.09129736               -0.00156209
               1.87347217                8.91438144               97.10857356                0.01000000               -0.05780121               -0.00906537                0.03131310               -0.00474483               -0.10361029               -0.03855592
               2.87323299                8.90873786               97.11622934                0.93540736               -0.02732244               -0.03094753                0.09401006               -0.04584454                0.02741253               -0.03249559
               3.87292572                8.90400109               97.12383046                0.99999999               -0.03480081                0.00390864                0.10989607                0.00493943               -0.00184890               -0.10559766
               4.87253697                8.89973918               97.13099361                0.42164257               -0.04251911               -0.10878313                0.16686027                0.10720114                0.05390320               -0.11498198
               5.87207534                8.89601887               97.13941743                0.23007823               -0.14417241               -0.12752735                0.27179133                0.29296996                0.10576284               -0.12162348
               6.86965352                8.89609451               97.14760897                0.59828164               -0.17349010               -0.04203811                0.12305106                0.27410805                0.05703564               -0.13718843
               7.86860553                8.89412772               97.15282704                0.90564381               -0.09440103               -0.03349015                0.15932264                0.17604673               -0.06291376               -0.16712050
               8.86776550                8.89102517               97.15849600                0.86201863               -0.06018624               -0.06079530                0.11813229                0.07638993               -0.02784366               -0.02969282
               9.86740181                8.88661541               97.16458342                0.01474267               -0.03636903                0.00502789                0.05061828                0.02393032               -0.00734537               -0.03976672
              -0.11971360                9.92487704               97.09962370                0.84642268               -0.02066200               -0.01728543                0.04320093               -0.01709352               -0.02005063               -0.02003474
               0.88007978                9.91911911               97.10623153                0.66188485               -0.06677267               -0.03649353                0.10330723                0.04420758               -0.12884635               -0.02518816
               1.87895095                9.91437964               97.11062976                0.46923550               -0.12250572               -0.00017973                0.17608187                0.01572973               -0.04506154               -0.06051656
               2.87762967                9.90847614               97.11817736                0.90710421               -0.07608140               -0.02617266                0.06726272               -0.08571223                0.01387737               -0.03129676
               3.87742932                9.90387203               97.12580849                1.00000000               -0.02747557               -0.01290649                0.05929611               -0.01134652                0.04184293               -0.02482932
               4.87708016                9.89924200               97.13351800                1.00000000               -0.10940366               -0.04971849                0.12044108                0.04967381                0.12548329               -0.00254133
               5.87524125                9.89577912               97.14251638                1.00000000               -0.27298012               -0.02397456                0.17624970                0.15754059                0.32252843               -0.00797830
               6.87162056                9.89606098               97.15304826                0.99999999               -0.18392190               -0.00335253                0.01262101                0.10354113                0.22603191               -0.02381460
               7.87156281                9.89391587               97.15863543                0.66087602                0.00018211               -0.02118453                0.06581736                0.02595953               -0.05573294               -0.00692295
               8.87162420                9.89066562               97.16419208                0.02027740                0.00538266               -0.03595521                0.04904924                0.02291926               -0.04070493               -0.00764582
               9.87167047                9.88665686               97.17013150                0.17001815                0.00462665                0.00414556               -0.01542170                0.02598961               -0.01570508               -0.01444916
              -0.17445355               -0.07656384               98.07658167                0.67361880               -0.03504021               -0.03533459                0.08892183                0.01485508                0.01445118                0.01076313
               0.82519605               -0.08064928               98.08057737                0.49282463               -0.04767903               -0.03920104                0.11511062                0.00898348                0.02425309                0.00971056
               1.82459287               -0.08478516               98.08489519                0.42522788               -0.02230856               -0.05344138                0.09320917               -0.00164871               -0.07286756                0.00977342
               2.82474988               -0.08957655               98.08710022                0.74751233                0.03440046               -0.03635074                0.02731978               -0.04936021               -0.16926517                0.07120393
               3.82528088               -0.09371686               98.08932241                0.79071308                0.04225635               -0.02276730                0.03289439               -0.04568465               -0.14949983                0.05416509
               4.82559501               -0.09704479               98.09188716                0.41770689                0.02782744               -0.01456625                0.04967854               -0.01884477               -0.14179860                0.00862706
               5.82583743               -0.09986181               98.09416523                0.35179050               -0.02576569               -0.03647379                0.13100728               -0.02975147               -0.12945331               -0.04100596
               6.82507969               -0.10278363               98.09723872                0.52782768               -0.05459470               -0.04146155                0.13399201                0.02785263               -0.15376540               -0.12684258
               7.82474553               -0.10565094               98.09908498                0.68852037               -0.02426364               -0.03672680                0.07595382                0.00596173               -0.12651412                0.02300374
               8.82459442               -0.10856283               98.10126391                0.67207321               -0.01459339               -0.03334701                0.07125291               -0.00039300               -0.07149529               -0.00069752
               9.82445367               -0.11125027               98.10388887                0.74789765               -0.01407517               -0.02748724                0.05012447               -0.01423797               -0.05024561               -0.01857972
              -0.17021955                0.92308282               98.08016680                0.48215734               -0.03839030               -0.05008921                0.11409480                0.00790768                0.01000327                0.01650613
               0.82939655                0.91895871               98.08415074                0.01357432               -0.03702162               -0.03777965                0.16250641               -0.00824072                0.04101557                0.03886706
               1.82904002                0.91468043               98.08870476                0.01000000               -0.03372113               -0.05297615                0.20555625               -0.02956785               -0.01020917                0.11455149
               2.82872212                0.91005994               98.09183832                0.55941602               -0.02409315               -0.02326033                0.13886377               -0.07068486               -0.08521648                0.16493354
               3.82855815                0.90605547               98.09438407                0.99999999               -0.01215443               -0.03263645                0.07369593               -0.03976296               -0.08041143                0.05991721
               4.82847904                0.90280955               98.09703082                0.82907729               -0.00744095               -0.00963102                0.04837173               -0.02284306               -0.08129693                0.02719085
               5.82840934                0.89977345               98.09939606                0.25320558               -0.01131268               -0.02367890                0.08511273               -0.03403668               -0.07641809               -0.00821065
               6.82825278                0.89680175               98.10213582                0.02434020               -0.03572937               -0.04297451                0.18850069                0.00736348                0.00055534               -0.10622634
               7.82769475                0.89398179               98.10594417                0.01000001               -0.04313148               -0.06869723                0.18106514                0.01834773               -0.01095021               -0.11983242
               8.82739015                0.89110370               98.10821606                0.02822047               -0.03480092               -0.09670582                0.14357427                0.03930208               -0.03393701               -0.19298203
               9.82699873                0.88847486               98.11091272                0.45217179               -0.03914227               -0.01916642                0.14682850                0.00408640               -0.01390947               -0.11569477
              -0.16604717                1.92243438               98.08399977                0.42379396               -0.05192009               -0.02637673                0.09135584               -0.00079682                0.00953807               -0.09066734
               0.83343363                1.91859512               98.08826408                0.01000000               -0.05262756               -0.03387121                0.20588636               -0.02964497                0.11499124               -0.02149432
               1.83290028                1.91415532               98.09425849                0.01000001               -0.07362459               -0.06969315                0.40425647               -0.03474410                0.09561053                0.08837391
               2.83196114                1.90995824               98.09818737                0.01204723               -0.05821302               -0.02866385                0.16612650               -0.04057053               -0.06056845                0.16210883
               3.83173602                1.90563041               98.09954506                0.01000001               -0.02704857               -0.01742652                0.12467319               -0.03183776               -0.05871476                0.19610030
               4.83142017                1.90276259               98.10273533                0.99999999               -0.02857633                0.01725091                0.10188970                0.01388085                0.02194074                0.16006766
               5.83116449                1.89966461               98.10568860                0.99886772               -0.02007728               -0.00398428                0.06514377               -0.01762261               -0.01653586                0.06613443
               6.83101862                1.89635688               98.10799332                0.68733520               -0.01769775               -0.02732366                0.06298350               -0.03749273               -0.05565547               -0.00911520
               7.83081054                1.89297511               98.11001971                0.03229185               -0.00656137               -0.06405459                0.14045534               -0.03194112               -0.10512330               -0.13198519
               8.83088739                1.88950306               98.11144739                0.01000000               -0.05087259               -0.09642868                0.30085945                0.08225951                0.04589833               -0.23686599
               9.82979308                1.88836640               98.11631578                0.36041471               -0.10943079               -0.14713234                0.33158812                0.20386206                0.20273742               -0.31969664
              -0.16255697                2.92255528               98.08561795                0.75928252               -0.03603144                0.03130975                0.02782939               -0.04749991                0.07110353               -0.17821179
               0.83708271                2.91828128               98.09082188                0.56494501               -0.02305049               -0.02379515                0.13989766               -0.06902385                0.16592780               -0.09414010
               1.83698202                2.91328656               98.09765547                0.01195185               -0.03235479               -0.05406379                0.17071983               -0.04026056                0.17096530               -0.07128824
               2.83643562                2.90948667               98.10261115                0.01000000               -0.09324807               -0.08622482                0.37852793                0.07068544                0.09094614                0.08454815
               3.83511705                2.90570694               98.10703199                0.01000000               -0.08565789               -0.02419373                0.25406288                0.11406441                0.06213810                0.31496844
               4.83472246                2.90315456               98.11039596                0.01000001               -0.03272294               -0.02751750                0.03810990                0.09132461                0.02301378                0.20700704
               5.83446260                2.89969376               98.11277834                0.85055383               -0.02650177                0.02371878                0.04442354               -0.00222141               -0.00416284                0.16567319
               6.83419242                2.89625528               98.11522761                0.99999999               -0.02764259               -0.00757567                0.07232012               -0.02443820               -0.01214762                0.10403320
               7.83390974                2.89270070               98.11745362                1.00000000               -0.02741843               -0.02872562                0.08023123               -0.02354764               -0.02982843                0.03606634
               8.83364405                2.88917513               98.11937983                0.70548626               -0.02802322               -0.02871886                0.09181737               -0.04181145               -0.03262418                0.00918461
               9.83334928                2.88553221               98.12142813                0.72736822               -0.02947743               -0.14994431                0.10807621               -0.00816049               -0.03398691               -0.13674508
              -0.15844917                3.92306058               98.08745948                0.79078209               -0.02289613                0.04009287                0.03416395               -0.04413895                0.05274916               -0.14719497
               0.84132187                3.91811922               98.09296523                0.99999999               -0.03305751               -0.01240370                0.07441141               -0.03832028                0.05874389               -0.08007633
               1.84088968                3.91307404               98.09856902                0.01107843               -0.01837023               -0.02602871                0.12554658               -0.03046146                0.20047222               -0.06168033
               2.84095447                3.90823375               98.10661815                0.01000001               -0.02701382               -0.07937124                0.25354441                0.11560963                0.32144849                0.05830203
               3.84034941                3.90514654               98.11332576                0.01322856               -0.08473175               -0.08262903                0.38745588                0.22809492                0.19021363                0.18536401
               4.83925983                3.90221224               98.11819580                0.01000003               -0.11650288               -0.09919232                0.30773447                0.24283332                0.02104813                0.22685010
               5.83801935                3.90013898               98.12130222                0.01000000               -0.08684564               -0.03545480                0.13941416                0.14914190               -0.08098438                0.24942579
               6.83752292                3.89620536               98.12318710                0.01000002               -0.02998098                0.00571384                0.05423316                0.00925833               -0.03692118                0.18473861
               7.83741973                3.89240060               98.12491468                0.01000000               -0.01516352                0.00170438                0.03248243               -0.00145392               -0.03961649                0.14917633
               8.83721965                3.88892868               98.12656497                0.73559640               -0.02520102               -0.01122491                0.07910744                0.00439792               -0.03892654                0.01706609
               9.83691571                3.88536752               98.12860722                1.00000000               -0.03039399               -0.01457824                0.07151500               -0.01017127               -0.02405608                0.02267406
              -0.15355704                4.92335714               98.08966392                0.40355766               -0.01401147                0.02660511                0.05003897               -0.01788671                0.00762724               -0.13790357
               0.84630284                4.91803321               98.09524799                0.82133345               -0.00923472               -0.00841553                0.04812450               -0.02168358                0.02654383               -0.07909049
               1.84625826                4.91276599               98.10139332                0.99999999                0.01862343               -0.02773239                0.10262340                0.01734629                0.16204783                0.02465107
               2.84667531                4.90789924               98.10954362                0.01000001               -0.02788993               -0.02948347                0.03780974                0.08586689                0.20272164                0.01748391
               3.84570046                4.90405436               98.11768553                0.01000004               -0.10443150               -0.10930603                0.30729962                0.23808785                0.21549911                0.03015003
               4.84458668                4.90117072               98.12409963                0.01000001               -0.11240762               -0.10412352                0.33133743                0.31564808                0.09283219                0.09535411
               5.84345231                4.89898467               98.12857137                0.01041406               -0.12353535               -0.11803255                0.30884156                0.32127843                0.01343204                0.22102518
               6.84211597                4.89636955               98.13230263                0.01059689               -0.11474810               -0.05546012                0.23530178                0.19473015               -0.07291521                0.29324488
               7.84115735                4.89273479               98.13466291                0.01000002               -0.06754374               -0.04125058                0.17133966                0.05568591               -0.22413630                0.26413528
               8.84076510                4.88895063               98.13441121                1.00000000               -0.04445835               -0.00007128                0.15150598               -0.01948828               -0.13878529                0.13143347
               9.84026818                4.88524065               98.13671238                1.00000000               -0.04969165               -0.02157103                0.10209982               -0.00218364                0.00264441                0.11739431
              -0.14815903                5.92359268               98.09158952                0.34427120               -0.03616114               -0.02918623                0.13796034               -0.03140362               -0.04231900               -0.11930763
               0.85147935                5.91795091               98.09726287                0.24858998               -0.02351942               -0.01335896                0.08638269               -0.03456872               -0.00770023               -0.07180525
               1.85137058                5.91251939               98.10402236                0.99816953               -0.00479596               -0.01935751                0.06566959               -0.01472882                0.06674434               -0.01257958
               2.85138344                5.90764408               98.11155504                0.82942085                0.02345551               -0.02698658                0.03904104               -0.00154485                0.16245355               -0.00552122
               3.85183969                5.90296042               98.12055465                0.01000001               -0.03704746               -0.07992719                0.14076517                0.15241203                0.24238043               -0.05884024
               4.85064249                5.90012977               98.12821926                0.01040352               -0.12968027               -0.09896297                0.30890382                0.30365946                0.21797991                0.00867611
               5.84924608                5.89777833               98.13526849                0.01027116               -0.14875407               -0.14115580                0.43696377                0.31221680                0.12740314                0.12757086
               6.84766740                5.89509616               98.14018395                0.01000000               -0.16468558               -0.15710238                0.49985904                0.23344934               -0.06251508                0.02328139
               7.84595237                5.89157559               98.14256248                0.01000000               -0.16716905               -0.15050773                0.50798563                0.22140600               -0.20523306               -0.04695832
               8.84432402                5.88892725               98.14373776                0.51625444               -0.08301826               -0.07751494                0.19244035                0.15839382               -0.12900483                0.06118138
               9.84429201                5.88493610               98.14574224                1.00000000               -0.00320181               -0.18795729                0.09400381                0.12271329               -0.07556431                0.22600609
              -0.14290158                6.92277342               98.09444958                0.52655893               -0.04136660               -0.05738194                0.14081851                0.02860134               -0.13448653               -0.14526695
               0.85668475                6.91776603               98.09970114                0.03242449               -0.04139499               -0.03728136                0.19267457                0.00914902               -0.11005542                0.00635693
               1.85627052                6.91237884               98.10598812                0.68686983               -0.02406826               -0.01757540                0.06210224               -0.03338540               -0.00820351               -0.05278905
               2.85620339                6.90735951               98.11363743                0.99999999               -0.00037521               -0.03014145                0.07630445               -0.02287925                0.11761283               -0.01298171
               3.85626301                6.90245582               98.12222749                0.01060683               -0.01807160               -0.02987663                0.05486748                0.02701571                0.18177643               -0.04136954
               4.85584195                6.89919146               98.13145707                0.01052655               -0.07663797               -0.08913151                0.23875577                0.17675769                0.28492038               -0.09532542
               5.85473025                6.89616155               98.13980669                0.01000000               -0.14271256               -0.17014014                0.49987581                0.21544853                0.03243121               -0.06465840
               6.85298770                6.89322751               98.14442040                0.01000003               -0.14879401               -0.15691167                0.42780727                0.18402077               -0.14744939               -0.15201115
               7.85175437                6.88972463               98.14777007                0.01000005               -0.12076174               -0.12551170                0.32859188                0.26903499               -0.23921591               -0.15355353
               8.85057247                6.88740033               98.14994889                0.81745380               -0.05248052               -0.13316277                0.15026238                0.20348437               -0.15631731               -0.04548179
               9.85070476                6.88148150               98.15427604                0.99999999                0.01322952               -0.18737678               -0.01846280                0.01788169               -0.03585090                0.20844226
              -0.13757223                7.92244504               98.09592844                0.68315916               -0.03708545               -0.02435510                0.07671634                0.00609058                0.02229196               -0.12312069
               0.86205691                7.91720528               98.10318579                0.01000001               -0.06591891               -0.04337827                0.18363695                0.02009368               -0.11917571               -0.00911100
               1.86110939                7.91216789               98.10767324                0.05720285               -0.06040201               -0.00774661                0.13968026               -0.03043335               -0.12874332               -0.10187014
               2.86084887                7.90704125               98.11551941                0.99999999               -0.02806684               -0.02901924                0.08297274               -0.02570075                0.04122371               -0.03220203
               3.86054805                7.90236289               98.12342076                0.01000000               -0.01884850               -0.01508932                0.03406379                0.01446900                0.13050587               -0.05143271
               4.86047190                7.89834714               98.13310277                0.01000002               -0.05145240               -0.08674959                0.18201019                0.07097706                0.26822227               -0.22781329
               5.85951901                7.89437553               98.14187128                0.01000000               -0.13435818               -0.16966890                0.49814167                0.20444170               -0.01416955               -0.21622138
               6.85778474                7.89195793               98.14743461                0.01000005               -0.11793806               -0.12275409                0.31618366                0.27074979               -0.14150909               -0.25670732
               7.85716024                7.88906536               98.15183321                0.50098736               -0.05739492               -0.05824739                0.17098889                0.25764338               -0.19653831               -0.19998577
               8.85663684                7.88626400               98.15485257                1.00000000               -0.03364711               -0.09418250                0.14124781                0.17043468               -0.13960637               -0.07768322
               9.85648730                7.88118856               98.15988994                0.33153126               -0.01495397               -0.01430625                0.02681394                0.03247649               -0.03004381                0.02579594
              -0.13230026                8.92228632               98.09774298                0.67169408               -0.03359610               -0.01528171                0.07232255               -0.00074934               -0.00059724               -0.06950201
               0.86736378                8.91689846               98.10507839                0.02217226               -0.09369273               -0.03490386                0.14430384                0.03971152               -0.18795056               -0.03443232
               1.86582588                8.91222391               98.10878552                0.01000000               -0.09347048               -0.05086233                0.29748234                0.06838106               -0.23119412                0.05412466
               2.86549437                8.90677912               98.11706807                0.71730655               -0.02896903               -0.02675615                0.09041283               -0.04282369                0.00741307               -0.03445663
               3.86524650                8.90215403               98.12462193                0.76544734               -0.01227592               -0.02569055                0.08023039                0.00206470                0.01546103               -0.04284979
               4.86524885                8.89745647               98.13282561                0.99999999               -0.00191029               -0.06857447                0.15177328               -0.00345478                0.12725414               -0.12421415
               5.86520830                8.89276817               98.14247334                0.51129753               -0.07679887               -0.08294980                0.18927097                0.16434588                0.06033056               -0.13871635
               6.86371287                8.89077242               98.14911207                0.82242354               -0.13035651               -0.05342882                0.14996675                0.20277111               -0.04223741               -0.16337955
               7.86260117                8.88855968               98.15442292                0.99999999               -0.09274579               -0.03282169                0.14114534                0.16833487               -0.07548482               -0.14176524
               8.86185796                8.88551668               98.15965138                0.15064686               -0.05479994               -0.05485857                0.09982478                0.08964400               -0.04093375               -0.04230117
               9.86150517                8.88119538               98.16501353                0.01125145               -0.03527877                0.00533379                0.04082149                0.03854372               -0.02363878               -0.01699298
              -0.12681152                9.92213940               98.10000410                0.75087017               -0.02749305               -0.01469105                0.05061283               -0.01434546               -0.01744757               -0.04858819
               0.87291355                9.91650721               98.10740961                0.44394557               -0.02960663               -0.03912580                0.14633797                0.00553913               -0.10222480               -0.01364913
               1.87259635                9.91115064               98.11342908                0.33660068               -0.14256381               -0.10732679                0.32899754                0.17699260               -0.30696177                0.21724346
               2.87006228                9.90650613               98.11875510                0.70781187               -0.13421730               -0.02729985                0.10254961               -0.00828735               -0.14381725               -0.03525195
               3.86991200                9.90184908               98.12633221                0.99999999               -0.01368070               -0.03049532                0.06736382               -0.00997383                0.02234377               -0.02222185
               4.86978866                9.89697565               98.13477852                1.00000000               -0.02110200               -0.04808185                0.09796064               -0.00264581                0.11352880                0.00210626
               5.86948996                9.89271654               98.14411210                1.00000000               -0.18700055               -0.00516389                0.08903871                0.12385174                0.21662852               -0.07324044
               6.86604865                9.89088935               98.15308117                0.99999999               -0.18536410                0.01169258               -0.02105355                0.01819724                0.20814522               -0.03570348
               7.86578268                9.88840892               98.15907798                0.33161717               -0.01273112               -0.01507617                0.02544965                0.03202533                0.02379814               -0.02980243
               8.86579403                9.88516683               98.16460690                0.01100959                0.00590529               -0.03498551                0.03986128                0.03792290               -0.01781442               -0.02410472
               9.86590079                9.88129524               98.16992926                0.20665949                0.01067595                0.00998599                0.24107411                0.05240280                0.02108420                0.02097247
              -0.17844658               -0.08016827               99.07750875                0.60194093               -0.04293393               -0.04355426                0.09095148                0.00360122                0.00374180                0.00201916
               0.82112408               -0.08429600               99.08169671                0.46624069               -0.04987985               -0.03406593                0.11938981               -0.01529691               -0.01245408                0.03891456
               1.82055583               -0.08900373               99.08548846                0.59680436               -0.00380800               -0.02085612                0.06816376               -0.06726910               -0.07407799                0.07423565
               2.82104792               -0.09425879               99.08733875                0.67073781                0.04306296               -0.01992573                0.04441952               -0.09035875               -0.13660012                0.05572857
               3.82141709               -0.09857921               99.08966739                0.51128833                0.02873135               -0.02556077                0.06578374               -0.03516821               -0.10294149                0.02316638
               4.82162255               -0.10230120               99.09257595                0.45268041                0.00669983               -0.03737646                0.11708707               -0.02028772               -0.04343193               -0.03532497
               5.82155108               -0.10592539               99.09619136                0.52724455               -0.00133545               -0.05183402                0.14795884                0.00016975               -0.08376416               -0.12737111
               6.82159584               -0.10925718               99.09812662                0.55143157                0.00456742               -0.08479047                0.10727207                0.00613499               -0.12830401                0.01923804
               7.82164243               -0.11263422               99.09987656                0.58927469               -0.00449644               -0.04641030                0.08716820                0.00181931               -0.11043517                0.01044676
               8.82150591               -0.11586727               99.10195295                0.60841868               -0.01668423               -0.04297620                0.07014655                0.00249244               -0.07087324                0.00173270
               9.82130875               -0.11894791               99.10451930                0.77866817               -0.01971674               -0.05231691                0.07025988               -0.00880602               -0.04534219               -0.00029170
              -0.17428283                0.91939619               99.08128095                0.46156866               -0.03283184               -0.05217694                0.11914463               -0.01736849                0.03864435               -0.01869537
               0.82538885                0.91536334               99.08587334                0.50062227               -0.04263178               -0.04435626                0.16245828               -0.03239824                0.06205637                0.06035441
               1.82486453                0.91078770               99.09083542                0.66859132               -0.02283873               -0.00540734                0.13101642               -0.05873806               -0.01041093                0.10999458
               2.82493207                0.90554195               99.09281227                0.96609254                0.01110403               -0.01029137                0.06749538               -0.08591066               -0.12813371                0.08181458
               3.82508661                0.90116519               99.09498296                0.85687166                0.00803479               -0.01146234                0.05440971               -0.04764704               -0.08779331                0.02617067
               4.82509277                0.89732503               99.09747680                0.44724163               -0.00279211               -0.02728067                0.07565354               -0.04011259               -0.03937894               -0.01939292
               5.82503077                0.89355627               99.10065345                0.54783887               -0.00405806               -0.04552317                0.15405150               -0.03183816                0.04343834               -0.09654119
               6.82501161                0.88989491               99.10475463                0.45210542               -0.00325505               -0.06653214                0.15780525                0.00104539                0.01676720               -0.10510380
               7.82496567                0.88690167               99.10710046                0.16704674               -0.01619640               -0.08434682                0.13545535                0.00790899               -0.01822340               -0.09358606
               8.82468768                0.88370297               99.10973228                0.36009343               -0.03321720               -0.16094102                0.17365788                0.00477986                0.01274787               -0.01623133
               9.82430132                0.88052892               99.11267544                0.79987753               -0.03863558               -0.18561596                0.17304592                0.00241368                0.01507915               -0.02532203
              -0.17072825                1.91878819               99.08455975                0.59997891               -0.01871451               -0.00649204                0.06544487               -0.06868014                0.07318880               -0.08340802
               0.82908460                1.91481687               99.09036320                0.66817695               -0.00346474               -0.02345279                0.12865153               -0.05981540                0.10970423               -0.01607185
               1.82920245                1.91088812               99.09641209                0.01000000               -0.00661864               -0.00652524                0.08992664               -0.10297908                0.02329976                0.01870968
               2.82895223                1.90553538               99.09897005                0.53056816               -0.02606929                0.00131816                0.05665490               -0.12510165               -0.04505830                0.17120169
               3.82868107                1.90119155               99.10089369                0.99999999               -0.02615044                0.03900887                0.09731815               -0.06751475               -0.05293712                0.17412320
               4.82842922                1.89715318               99.10355790                0.95741737               -0.01683147               -0.01355209                0.06862837               -0.05031652               -0.02744473                0.05520016
               5.82834444                1.89316414               99.10617189                0.48101438               -0.00789387               -0.02002103                0.06480186               -0.04200959               -0.02592381               -0.03259546
               6.82827134                1.88941218               99.10870876                0.62130673               -0.01759408               -0.02359732                0.12849845               -0.04235538                0.01405418               -0.10329575
               7.82799256                1.88567884               99.11220786                0.60648004               -0.01485417               -0.06855817                0.18167194               -0.09812575                0.13054084               -0.12316882
               8.82797426                1.88091391               99.11728486                0.52868021               -0.01437232               -0.10468315                0.32262385               -0.08702651                0.09010237               -0.11506466
               9.82770511                1.87733977               99.12033500                0.78213386               -0.02691504               -0.14187844                0.26192026               -0.02901317                0.04452593               -0.25367001
              -0.16771380                2.91926635               99.08586345                0.67983655               -0.01935843                0.04075208                0.04509238               -0.08928150                0.05500524               -0.14017482
               0.83209261                2.91489428               99.09180716                0.98065391               -0.00998778                0.01093369                0.06849173               -0.08556990                0.08155990               -0.13253943
               1.83208644                2.91065720               99.09843438                0.53141645                0.00169999               -0.02427748                0.05615611               -0.12613311                0.17494517               -0.05186880
               2.83212661                2.90556832               99.10658003                0.66313984                0.00160381                0.00300266                0.19970637               -0.04507279                0.10075694                0.09341510
               3.83211852                2.90194536               99.10911492                0.01000003               -0.00063840                0.01093816                0.08515516               -0.05034153               -0.09599738                0.28238946
               4.83211384                2.89705399               99.11067577                0.63670268               -0.00934659                0.02237493                0.03477621               -0.10343395               -0.04759731                0.23125121
               5.83193158                2.89315584               99.11316363                0.99999999               -0.02320201                0.02404740                0.04947980               -0.03952285               -0.00585209                0.10065917
               6.83164980                2.88942297               99.11574114                0.98126918               -0.02150831                0.00965664                0.04572610               -0.03540689               -0.01125257                0.03125394
               7.83150142                2.88553051               99.11803269                0.55103657               -0.01817940               -0.00130252                0.06661346               -0.03708951               -0.01176268               -0.04306763
               8.83128621                2.88160930               99.12036055                0.87127949               -0.03160424                0.03142553                0.10639103               -0.04407376                0.00418359               -0.18454605
               9.83086933                2.87769135               99.12296320                0.98952046               -0.04168814                0.01750117                0.10751352               -0.04190819                0.03565318               -0.25071935
              -0.16376976                3.91960323               99.08780908                0.50530917               -0.02478898                0.02637405                0.06554256               -0.03413566                0.02168348               -0.09893037
               0.83598235                3.91503555               99.09357899                0.86036260               -0.01122411                0.00688810                0.05504381               -0.04613808                0.02575764               -0.08652795
               1.83600576                3.91040257               99.09994668                0.99999999                0.03901293               -0.02537008                0.09891155               -0.06636063                0.17571540               -0.05321382
               2.83676261                3.90559544               99.10864701                0.01000000                0.00914023                0.00277519                0.08235044               -0.05159236                0.28464482               -0.10097193
               3.83618856                3.90141031               99.11751195                0.68578528               -0.08062744               -0.07681943                0.22869151                0.02324004                0.14302441                0.14349101
               4.83515006                3.89760068               99.12107048                0.77226251               -0.05017800                0.00170397                0.14068793                0.00922654               -0.11838182                0.26874837
               5.83518500                3.89364509               99.12207010                0.99999999                0.00192402                0.04254903                0.04651676               -0.01759115               -0.11547949                0.18809844
               6.83518854                3.88960531               99.12388818                0.99999998               -0.00602878                0.04559631                0.05223561               -0.03790583               -0.05438729                0.17150422
               7.83506443                3.88565279               99.12559601                0.65830758               -0.01283009                0.03215297                0.06813417               -0.05551721               -0.04768726                0.12519425
               8.83493194                3.88154242               99.12737590                0.71093414               -0.01807904               -0.01531279                0.08341006               -0.03647640               -0.02020167                0.02884491
               9.83470285                3.87768980               99.12951070                0.89621240               -0.02290924               -0.01533385                0.06992304               -0.01323188                0.01348723               -0.01406827
              -0.15926115                4.91979383               99.09035277                0.45032946               -0.03683378                0.00423487                0.12075425               -0.02266639               -0.03589664               -0.03472762
               0.84037051                4.91503205               99.09569304                0.44664049               -0.02697557               -0.00393067                0.07589603               -0.04129690               -0.01999473               -0.03546827
               1.84019934                4.91014980               99.10223374                0.96230066               -0.01417451               -0.01670707                0.06975618               -0.04957326                0.05540594               -0.02576112
               2.84008702                4.90562382               99.10980560                0.62618546                0.01893664               -0.00730312                0.03390006               -0.10409162                0.23304082               -0.05023314
               3.84057807                4.90040898               99.12070510                0.77888213               -0.00117143               -0.04823001                0.14874697                0.00961602                0.26969593               -0.11264723
               4.84006359                4.89708807               99.12725573                0.91341971               -0.05014687               -0.04934754                0.15425371                0.18346247                0.05525880                0.06060683
               5.83957513                4.89400683               99.13175153                0.54389024               -0.05898031               -0.01378719                0.14738012                0.13115758               -0.05021205                0.23244840
               6.83888399                4.89033489               99.13416936                0.01000000               -0.05605867               -0.06810604                0.09058109                0.03030242               -0.08067602                0.29739883
               7.83845396                4.88617357               99.13560608                0.01000001               -0.01821546               -0.11100090                0.05384029               -0.07561259               -0.12767231                0.36492126
               8.83851968                4.88130305               99.13563333                0.83507719               -0.00720090               -0.02400334                0.10495546               -0.07619265               -0.09974413                0.08409192
               9.83830994                4.87738468               99.13745857                0.99999999               -0.02097353               -0.03048001                0.06537460               -0.01553171                0.00332064                0.04721968
              -0.15469953                5.91968793               99.09374045                0.52913885               -0.05000319               -0.00433846                0.15322387                0.00008657               -0.13546358               -0.07564827
               0.84480044                5.91495694               99.09855070                0.55291770               -0.04389773               -0.00538795                0.15614133               -0.03166411               -0.10058512                0.04898357
               1.84442252                5.91006843               99.10450034                0.48278790               -0.01894212               -0.00741805                0.06399243               -0.04016093               -0.03276050               -0.02386503
               2.84442160                5.90544937               99.11194645                0.99999998                0.02470575               -0.02302461                0.05004424               -0.03997252                0.10504575               -0.00575590
               3.84491663                5.90044571               99.12136837                0.99999998                0.03999300                0.00319789                0.04754716               -0.01646985                0.18623684               -0.11638807
               4.84522146                5.89661373               99.13138292                0.53586880               -0.01776521               -0.05779293                0.14678104                0.13255600                0.22614783               -0.04883677
               5.84456133                5.89336935               99.13989838                0.99999999               -0.07968069               -0.07959301                0.22927618               -0.01339025                0.15931552                0.15298497
               6.84362785                5.88824319               99.14571897                0.95879714               -0.09886555               -0.11461689                0.28154426               -0.06662719                0.03719521                0.22599399
               7.84258402                5.88343277               99.14902694                0.57884102               -0.07154346               -0.12047478                0.34408265                0.04511436               -0.34476755                0.27465486
               8.84219698                5.88106235               99.14442424                0.99999997               -0.01775317               -0.01880810                0.06332513                0.08743159               -0.32049946                0.04848391
               9.84222896                5.87708020               99.14591814                0.99999999                0.00319791               -0.03722126                0.01831950                0.02847230               -0.03751677                0.06046235
              -0.14979743                6.91970706               99.09533398                0.54732729               -0.08458392                0.00229836                0.10826894                0.00893984                0.01836681               -0.12412998
               0.84935673                6.91492429               99.10235267                0.45446004               -0.06494453               -0.00512865                0.15838222                0.00360463               -0.10615583                0.02125058
               1.84890368                6.91000144               99.10669552                0.61941342               -0.02232216               -0.01711433                0.12811380               -0.03961507               -0.10356393                0.01609552
               2.84891029                6.90516333               99.11417697                0.97897968                0.00903185               -0.02144841                0.04770056               -0.03534700                0.03270504               -0.01073217
               3.84908432                6.90047293               99.12280127                0.99999999                0.04403941               -0.00374753                0.04455265               -0.03945694                0.16316527               -0.05767784
               4.84979108                6.89593221               99.13343711                0.01388834               -0.07032228               -0.05604373                0.09665037                0.02942057                0.31324379               -0.10034851
               5.84767787                6.89241496               99.14534704                0.95179316               -0.11515291               -0.10153761                0.28200142               -0.06645238                0.23465337                0.02985371
               6.84748802                6.88804256               99.14938197                0.22494485               -0.05703954               -0.05836304                0.25184547               -0.04118050               -0.17274061               -0.17732798
               7.84653708                6.88376407               99.15129893                0.80247687               -0.04335675                0.02501695                0.17970162                0.09620668               -0.24613972               -0.23426622
               8.84662088                6.88092689               99.15143767                1.00000000                0.01533110               -0.02184884                0.08154284                0.12072169               -0.16373706               -0.03841373
               9.84684370                6.87664025               99.15384535                0.67852063                0.02228195               -0.03727310               -0.02909786                0.04472345               -0.07856804                0.14648734
              -0.14495519                7.91973390               99.09673379                0.58705433               -0.04666560               -0.00614351                0.08892696                0.00275047                0.01057119               -0.10764999
               0.85457816                7.91485436               99.10434721                0.17170783               -0.08268172               -0.01763563                0.13606486                0.01114822               -0.09303865               -0.01722441
               1.85339118                7.90972614               99.10985129                0.61167400               -0.06674961               -0.01466754                0.18035811               -0.09395187               -0.12400879                0.13063134
               2.85324316                7.90502041               99.11610717                0.56204798               -0.00162821               -0.01751422                0.06680412               -0.03604147               -0.04286498               -0.01160103
               3.85335861                7.90037076               99.12410087                0.66620026                0.03123376               -0.01201433                0.06729953               -0.05672363                0.12296025               -0.05370403
               4.85386784                7.89549286               99.13448300                0.01000002               -0.11183378               -0.01765301                0.07535496               -0.07963021                0.37667082               -0.15803619
               5.85112194                7.89133859               99.14819209                0.58482774               -0.12063553               -0.07056217                0.33685754                0.04503438                0.27669374               -0.34695205
               6.85145513                7.88707593               99.15087204                0.80365482                0.02509415               -0.04310966                0.17500852                0.09828414               -0.23160519               -0.24869668
               7.85162382                7.88393311               99.15319323                0.98693537                0.01400514                0.01417874                0.07104139                0.17844483               -0.17690713               -0.17841789
               8.85173523                7.88062538               99.15607178                0.72662573                0.00364372               -0.02510368                0.08248701                0.10684784               -0.08525796               -0.07306877
               9.85169670                7.87633473               99.15996443                0.57401818               -0.00385360               -0.02020134                0.01074267                0.03898703               -0.03870566                0.06222983
              -0.13998335                8.91958419               99.09844427                0.60980405               -0.04291988               -0.01754341                0.07095292                0.00281985                0.00224854               -0.06915668
               0.85958745                8.91457158               99.10660393                0.35813630               -0.15790258               -0.03353424                0.17383026                0.00780262               -0.01601497                0.01246805
               1.85685860                8.90970809               99.11452321                0.53006401               -0.10213055               -0.01443725                0.31668183               -0.08417397               -0.11475751                0.09097427
               2.85754484                8.90481304               99.11803760                0.86532122                0.03093979               -0.03116803                0.10523574               -0.04342037               -0.18232665                0.00302135
               3.85747740                8.90023265               99.12543507                0.70940262               -0.01571012               -0.01818664                0.08327095               -0.03698641                0.02637243               -0.02461677
               4.85723064                8.89557915               99.13402908                0.84080666               -0.02409529               -0.00572694                0.10439189               -0.07629594                0.08272466               -0.10414144
               5.85699549                8.89100372               99.14320285                0.99999997               -0.01857262               -0.01508992                0.06537623                0.08752200                0.05000615               -0.32154420
               6.85685919                8.88718036               99.15060831                0.99999999               -0.02194809                0.01663943                0.08224122                0.12031876               -0.03743839               -0.16508543
               7.85655653                8.88404765               99.15564995                0.73563642               -0.02514852                0.00383006                0.08304275                0.10668366               -0.07226254               -0.08652831
               8.85635622                8.88042481               99.16049250                0.35534605               -0.01758993               -0.01764476                0.06639813                0.04349868               -0.02905253               -0.02919737
               9.85620473                8.87623623               99.16539985                0.95806692               -0.01514869                0.04550563                0.06905441                0.06867770               -0.01704078                0.23244846
              -0.13487356                9.91938303               99.10063596                0.77983090               -0.05161248               -0.02011590                0.06990116               -0.00895688               -0.00002374               -0.04383817
               0.86461031                9.91418368               99.10915829                0.79407270               -0.18301027               -0.03878977                0.17166046                0.00500407               -0.02365682                0.01450241
               1.86146623                9.90943740               99.11720971                0.76690451               -0.13800569               -0.02706898                0.24871350               -0.02856869               -0.23877941                0.04592685
               2.86185020                9.90439705               99.12022836                0.97199430                0.01932745               -0.04159984                0.10510315               -0.04098304               -0.24954228                0.03274685
               3.86185278                9.90000703               99.12715577                0.87350757               -0.01396759               -0.02256193                0.06619074               -0.01339818               -0.01451334                0.01040237
               4.86157084                9.89537832               99.13547721                0.99955600               -0.02908062               -0.02008332                0.06235778               -0.01449107                0.04601864                0.00301613
               5.86127117                9.89103680               99.14429716                0.99999999               -0.03766336                0.00330739                0.01869183                0.02908746                0.06008677               -0.03799527
               6.86081758                9.88740871               99.15262719                0.68080156               -0.03790618                0.02283528               -0.03031781                0.04448476                0.14734656               -0.07867731
               7.86051304                9.88400971               99.15914442                0.56635257               -0.02004752               -0.00379370                0.01012944                0.03883971                0.06203806               -0.03884176
               8.86041663                9.88027248               99.16498931                0.94813855                0.04671917               -0.01523323                0.06673991                0.06779781                0.23266932               -0.01624529
               9.86144743                9.87724485               99.17495298                0.99999997                0.10307988                0.10086212                0.39717707                0.22150610                0.35202560                0.35257025
              -0.18275464               -0.08406786              100.07840069                1.00000000               -0.02781039               -0.02742387                0.08919488               -0.00331970                0.02564068                0.02494088
               0.81696725               -0.08822425              100.08296517                1.00000000                0.01119557               -0.02764434                0.12684556               -0.08473054               -0.02279430                0.05064952
               1.81746927               -0.09399437              100.08625847                1.00000000                0.04358427               -0.00489452                0.07700080               -0.11687910               -0.05748320                0.00759909
               2.81783894               -0.09940902              100.08798861                1.00000000                0.02577918               -0.05260468                0.06498622               -0.07721754               -0.10191749                0.00493795
               3.81798485               -0.10388466              100.09063808                1.00000000                0.01817324               -0.07627594                0.09706898                0.00809278               -0.03120865               -0.04712710
               4.81820241               -0.10755299              100.09422890                1.00000000                0.03133095               -0.10072764                0.16529554                0.00941675               -0.01769847               -0.09367952
               5.81861147               -0.11133343              100.09712441                1.00000000                0.03129985               -0.08044822                0.09330502               -0.06621497               -0.03619790               -0.00553529
               6.81882840               -0.11565489              100.09938416                1.00000000                0.00495165               -0.02275790                0.12575425               -0.09654640               -0.09154699               -0.04899388
               7.81871051               -0.11988980              100.10082835                1.00000000               -0.01470896               -0.03314336                0.09517805               -0.05738541               -0.12905873                0.05693641
               8.81853422               -0.12408684              100.10266684                1.00000000               -0.01481906               -0.04660027                0.07138912               -0.03033903               -0.07388271                0.08028178
               9.81841412               -0.12756839              100.10529407                1.00000000               -0.01200985               -0.02788974                0.07747751               -0.04816863               -0.02673877                0.04590807
              -0.17863145                0.91565791              100.08254969                1.00000000               -0.02853504                0.01257874                0.12687416               -0.08764198                0.05016098               -0.02842940
               0.82108320                0.91149931              100.08739991                1.00000000                0.02621553                0.02820566                0.15265709               -0.14465464                0.00820572                0.00719384
               1.82189287                0.90595669              100.09132509                1.00000000                0.04643528                0.04624567                0.04896713               -0.20721142               -0.00775070                0.00682641
               2.82201191                0.90006493              100.09318822                1.00000000                0.01224497               -0.04882302                0.03759522               -0.09323404               -0.08465754                0.01889073
               3.82213776                0.89535258              100.09547226                1.00000000                0.00045253               -0.05672130                0.04893051               -0.02603101               -0.02710123               -0.03859320
               4.82202096                0.89143974              100.09854389                1.00000000               -0.00687465               -0.08896988                0.10670955               -0.00499174                0.04306060               -0.09457992
               5.82200027                0.88786209              100.10247709                1.00000000                0.00600800               -0.10820206                0.18236358               -0.02192590                0.03435213               -0.07640625
               6.82214112                0.88411754              100.10529193                1.00000000                0.01761780               -0.05203330                0.05373007               -0.08239918                0.02176089               -0.01878150
               7.82235263                0.87977877              100.10865328                1.00000000               -0.00354953               -0.02653467                0.15528206               -0.12678167                0.05856081               -0.07105004
               8.82207013                0.87544716              100.11168922                1.00000000               -0.04693182                0.03301641                0.19569436               -0.07989899                0.02426278               -0.06392909
               9.82141399                0.87215271              100.11437363                1.00000000               -0.06561386                0.02868148                0.16981942               -0.02098470               -0.02029206               -0.02461512
              -0.17619029                1.91618372              100.08530867                1.00000000               -0.00343363                0.04222787                0.07489189               -0.12002793                0.00664050               -0.06194161
               0.82377538                1.91233986              100.09083711                1.00000000                0.04748515                0.04576945                0.04739110               -0.20966984                0.00649537               -0.00811099
               1.82475942                1.90693055              100.09605703                1.00000000                0.14014929                0.13789531               -0.03550611               -0.44550806               -0.02013539               -0.02308174
               2.82657836                1.89961452              100.09932047                1.00000000                0.06650061                0.08065390                0.03504171               -0.30956614                0.03433336                0.07876627
               3.82608943                1.89498092              100.10149142                1.00000000               -0.04926475               -0.03080582                0.05977296               -0.09916510               -0.01979243                0.04207863
               4.82559307                1.89066762              100.10410790                1.00000000               -0.02971373               -0.05863622                0.05499962               -0.03887738               -0.00895436               -0.02117692
               5.82549515                1.88650253              100.10698464                1.00000000               -0.01646672               -0.10266745                0.08127435               -0.00416248                0.03784141               -0.10161915
               6.82526373                1.88330445              100.11056329                1.00000000               -0.03249533               -0.12083024                0.18545285                0.00170868                0.03266462               -0.06826220
               7.82484525                1.87957951              100.11365315                1.00000000               -0.03507165               -0.06637853                0.14452836               -0.00142546                0.05209850               -0.10330213
               8.82456230                1.87657349              100.11789987                1.00000000               -0.01309612               -0.00269953                0.06150080                0.00764039                0.05385632                0.05687954
               9.82458333                1.87300524              100.12155419                1.00000000                0.00210245               -0.04052942                0.12191878                0.01532736                0.05325353                0.02678481
              -0.17334430                2.91650246              100.08651980                1.00000000               -0.05127266                0.02044631                0.06563530               -0.07702889                0.00414184               -0.10330547
               0.82614298                2.91241470              100.09219171                1.00000000               -0.04738275                0.00814618                0.03845491               -0.09319101                0.01797645               -0.08650903
               1.82570805                2.90871460              100.09877860                1.00000000                0.08136191                0.06399286                0.03442164               -0.30800639                0.08283945                0.03025100
               2.82777022                2.90167801              100.10660528                1.00000000                0.16966581                0.16871104                0.00252482               -0.57372010                0.06218541                0.05820398
               3.82910137                2.89473647              100.10873509                1.00000000                0.09757934                0.07226284               -0.03798247               -0.33569986               -0.07740454                0.09951866
               4.82972180                2.89026701              100.11109149                1.00000000                0.00894110                0.01698158                0.04157162               -0.10933771                0.01243815                0.16638519
               5.82928019                2.88580874              100.11376794                1.00000000               -0.03117462               -0.05947402                0.06043090               -0.05845916               -0.01260727                0.02768519
               6.82909831                2.88170093              100.11614213                1.00000000               -0.01125558               -0.10486122                0.04009970                0.01439987               -0.00425128               -0.08877720
               7.82905508                2.87845120              100.11878589                1.00000000               -0.01505508               -0.11242072                0.07532066                0.09126279                0.02364163               -0.07672025
               8.82879721                2.87539317              100.12150765                1.00000000               -0.00990176               -0.11703452                0.11470983                0.06147731               -0.00927535               -0.10494866
               9.82885704                2.87134212              100.12357840                1.00000000                0.00598321               -0.12072287                0.06151938                0.01152189                0.00584548               -0.21234833
              -0.16955533                3.91659265              100.08877033                1.00000000               -0.07452436                0.01143760                0.09612522                0.01045374               -0.04897970               -0.02309855
               0.82969942                3.91250279              100.09406610                1.00000000               -0.05543463               -0.00312794                0.04871094               -0.02516196               -0.03944632               -0.02456603
               1.82933598                3.90821041              100.10054725                1.00000000               -0.03086681               -0.05087434                0.06005763               -0.09841416                0.04297471               -0.01872410
               2.82908209                3.90298874              100.10826516                1.00000000                0.07252274                0.09585664               -0.03818479               -0.33448425                0.09956459               -0.07985267
               3.83078643                3.89642618              100.11789959                1.00000000                0.16259786                0.16042667                0.03876329               -0.37193043                0.09700640                0.09785506
               4.83233405                3.89100725              100.12100955                1.00000000                0.10528108                0.09016998               -0.00609209               -0.30947531               -0.06495297                0.14531711
               5.83289205                3.88531305              100.12223256                1.00000000                0.02876117               -0.00016864                0.01624517               -0.17728852               -0.06818205                0.05434750
               6.83290927                3.88120722              100.12423181                1.00000000                0.00431067               -0.06070940                0.03436311               -0.02161768               -0.02568698                0.05879763
               7.83297827                3.87733110              100.12627736                1.00000000               -0.00041728               -0.09244615                0.06813495                0.05552156               -0.00854843                0.01552180
               8.83290092                3.87423280              100.12823317                1.00000000               -0.00312056               -0.09045192                0.08572659                0.06900976               -0.01668532                0.01917172
               9.83291585                3.87059078              100.13000568                1.00000000                0.00149309               -0.07822590                0.04949804                0.02715148               -0.00144773                0.01217224
              -0.16495551                4.91673121              100.09207901                1.00000000               -0.10225151                0.02529284                0.17262348                0.01541873               -0.10074516               -0.01207777
               0.83402198                4.91235214              100.09676591                1.00000000               -0.08953394               -0.01159210                0.10728757               -0.00128813               -0.09938158                0.04798853
               1.83325382                4.90769711              100.10278844                1.00000000               -0.05786087               -0.03150490                0.05547042               -0.03866744               -0.02176697               -0.00752129
               2.83286476                4.90359514              100.11022162                1.00000000                0.01952175                0.00844281                0.04160199               -0.11089383                0.17137499                0.01167052
               3.83364425                4.89794500              100.12066047                1.00000000                0.08903318                0.10551560               -0.00446378               -0.30916055                0.15477181               -0.06609694
               4.83464543                4.89207041              100.12718470                1.00000000                0.09450947                0.09822014               -0.00710309               -0.39191250                0.00110841                0.00550049
               5.83553444                4.88580536              100.13151897                1.00000000                0.10012414                0.09647370               -0.02325618               -0.31896899               -0.05759181                0.06092667
               6.83664791                4.88048674              100.13411425                1.00000000                0.08027461                0.15981022               -0.00551062               -0.14148082               -0.01257092                0.09433593
               7.83713993                4.87660228              100.13573971                1.00000000                0.01349056                0.20223682                0.01336359                0.02354354               -0.01159946                0.20120942
               8.83691772                4.87358413              100.13651032                1.00000000               -0.02279118               -0.00701043                0.08769938                0.06486231               -0.04618810                0.06666282
               9.83668411                4.86977761              100.13801987                1.00000000               -0.02336107               -0.04161095                0.05612975                0.00124866               -0.01162889                0.04444014
              -0.16048880                5.91709850              100.09465400                1.00000000               -0.08034285                0.02831318                0.09135481               -0.06356168               -0.00575841               -0.03214548
               0.83870777                5.91227095              100.10038569                1.00000000               -0.10957875                0.00211950                0.18349926               -0.01700406               -0.07685701                0.03654453
               1.83731962                5.90758031              100.10530221                1.00000000               -0.10457247               -0.01736577                0.08018719                0.00038903               -0.10177799                0.03928554
               2.83661632                5.90315760              100.11255593                1.00000000               -0.05958352               -0.03055007                0.06094823               -0.05784225                0.02964127               -0.01068693
               3.83612795                5.89853649              100.12150559                1.00000000                0.00095571                0.03123755                0.01372278               -0.17820135                0.05107930               -0.06801852
               4.83663543                5.89297165              100.13115488                1.00000000                0.09841947                0.10069988               -0.02280386               -0.31891664                0.05881816               -0.05393909
               5.83809634                5.88724252              100.13985401                1.00000000                0.13236536                0.13297761               -0.00443654               -0.03120979                0.08649870                0.08370494
               6.83928274                5.88440343              100.14581483                1.00000000                0.11277040                0.20205684                0.00958623                0.05332039                0.04499539                0.38317681
               7.84035175                5.88137583              100.14944413                1.00000000                0.08700504                0.21353747                0.04171852               -0.13374449               -0.26375567                0.57552589
               8.84102284                5.87409259              100.14500426                1.00000000                0.01010646                0.07001959                0.05800191               -0.18918417               -0.28418864                0.05649525
               9.84055388                5.86975856              100.14610863                1.00000000               -0.04689631                0.02936741                0.01904906               -0.05170640               -0.05707104                0.05154756
              -0.15657163                6.91729748              100.09661495                1.00000000               -0.02282803                0.00416242                0.12809716               -0.09523758               -0.05203720               -0.08830923
               0.84320009                6.91239453              100.10286878                1.00000000               -0.05267133                0.01692973                0.05161089               -0.07884065               -0.01889197                0.02309351
               1.84237495                6.90734979              100.10855040                1.00000000               -0.12241779               -0.03137386                0.18548715                0.00696248               -0.06674066                0.03374513
               2.84075174                6.90298414              100.11459144                1.00000000               -0.10543883               -0.01045015                0.04144743                0.01728164               -0.08744803               -0.00294053
               3.84026617                6.89856975              100.12311854                1.00000000               -0.05953393                0.00592608                0.03172674               -0.01981270                0.05811715               -0.02726022
               4.83956106                6.89408441              100.13339008                1.00000000                0.16061474                0.08113998               -0.00470331               -0.14130814                0.09340695               -0.01203091
               5.84347846                6.88846492              100.14544672                1.00000000                0.20099729                0.11690805                0.00996750                0.05054852                0.38342037                0.04271612
               6.84358100                6.88452788              100.14945731                1.00000000                0.06487075                0.06771147                0.00753352                0.06384327               -0.09483233               -0.09546998
               7.84477588                6.88087303              100.15136411                1.00000000                0.05851507               -0.01149249                0.00651738               -0.07363720               -0.06999804               -0.09860896
               8.84475131                6.87498452              100.15157975                1.00000000               -0.02289206                0.08276017                0.01420809               -0.16852188               -0.07045886               -0.01933412
               9.84431804                6.87036495              100.15369409                1.00000000               -0.04332673                0.05600481               -0.01512657               -0.09325684               -0.04113308                0.07227864
              -0.15258765                7.91718175              100.09770698                1.00000000               -0.03337060               -0.01482312                0.09731843               -0.05736975                0.05676426               -0.12786061
               0.84707864                7.91260954              100.10590708                1.00000000               -0.02715445               -0.00288914                0.15598696               -0.12322343               -0.07128044                0.05982824
               1.84686926                7.90695283              100.11128040                1.00000000               -0.06683242               -0.03324107                0.14291065                0.00305839               -0.10477163                0.05110702
               2.84574199                7.90294859              100.11685549                1.00000000               -0.11189137               -0.01328885                0.07483206                0.09432062               -0.07579955                0.02188591
               3.84463143                7.89865501              100.12476675                1.00000000               -0.09139429                0.00185213                0.06658776                0.05810808                0.01500041               -0.01313488
               4.84391411                7.89459445              100.13460987                1.00000000                0.20162050                0.01475066                0.01268674                0.02500888                0.19671072               -0.01367221
               5.84866384                7.88958068              100.14860843                1.00000000                0.21186948                0.08836511                0.04163439               -0.13430300                0.57043618               -0.25908400
               6.84815150                7.88575766              100.15093478                1.00000000               -0.01207392                0.05938415                0.00627468               -0.07493460               -0.09808259               -0.06684735
               7.84842236                7.88114598              100.15325404                1.00000000                0.00044900                0.00024492                0.00608169               -0.17570091               -0.04176978               -0.04272892
               8.84816048                7.87574780              100.15650231                1.00000000               -0.02472415                0.05153396                0.04305300               -0.17458131               -0.01493781               -0.01777856
               9.84792788                7.87087866              100.16010480                1.00000000               -0.02325972                0.02454199                0.01403649               -0.13533299               -0.01663266                0.08941920
              -0.14857460                8.91700102              100.09916204                1.00000000               -0.04608535               -0.01512398                0.07177650               -0.02987770                0.08016995               -0.07355978
               0.85096454                8.91233675              100.10855499                1.00000000                0.03358319               -0.04605090                0.19510625               -0.07640109               -0.06443474                0.02330378
               1.85209706                8.90668497              100.11511916                1.00000000               -0.00142869               -0.01283316                0.05959531                0.01315309                0.05473582                0.05383614
               2.85093597                8.90271836              100.11917278                1.00000000               -0.11572934               -0.00845210                0.11351838                0.06526012               -0.10247783               -0.00938449
               3.84978247                8.89860680              100.12628735                1.00000000               -0.09002042               -0.00196416                0.08522745                0.07012542                0.01754116               -0.01812145
               4.84913556                8.89437942              100.13491345                1.00000000               -0.00766399               -0.02273740                0.08843719                0.06394830                0.06516812               -0.04918251
               5.84962920                8.89023222              100.14378086                1.00000000                0.06907245                0.00936700                0.05780106               -0.18929879                0.05554265               -0.28327505
               6.85051701                8.88571556              100.15075689                1.00000000                0.08212646               -0.02398121                0.01485893               -0.16787344               -0.01907185               -0.06947843
               7.85127172                8.88087792              100.15608378                1.00000000                0.05049959               -0.02514197                0.04338320               -0.17306993               -0.01735807               -0.01564590
               8.85152700                8.87601520              100.16097934                1.00000000                0.00389632                0.00502518                0.04868435               -0.17718782                0.03262066                0.03100853
               9.85134965                8.87085579              100.16639462                1.00000000               -0.01773526               -0.08191419                0.09947696               -0.26163704                0.05601981                0.35035729
              -0.14385667                9.91687927              100.10140212                1.00000000               -0.02766718               -0.01217452                0.07661675               -0.04728118                0.04575945               -0.02636706
               0.85586666                9.91168852              100.11084282                1.00000000                0.03036826               -0.06482228                0.16845255               -0.01894336               -0.02430351               -0.02073262
               1.85675070                9.90669617              100.11840335                1.00000000               -0.03706458                0.00111948                0.11936385                0.01991523                0.02916402                0.05429599
               2.85512537                9.90277955              100.12085716                1.00000000               -0.11889092                0.00611859                0.06288024                0.01491799               -0.20984888                0.00668799
               3.85437288                9.89861573              100.12765602                1.00000000               -0.07788610                0.00089299                0.05002520                0.02704819                0.01043590               -0.00226252
               4.85356765                9.89413970              100.13602567                1.00000000               -0.04155789               -0.02397210                0.05484582                0.00082353                0.04117601               -0.01263949
               5.85354172                9.88976802              100.14448593                1.00000000                0.02903359               -0.04641967                0.01887774               -0.05183049                0.04951284               -0.05637027
               6.85414832                9.88527803              100.15247481                1.00000000                0.05598002               -0.04375287               -0.01523763               -0.09311296                0.07280609               -0.04127614
               7.85466132                9.88064314              100.15928057                1.00000000                0.02452650               -0.02347814                0.01361507               -0.13252678                0.08817247               -0.01697763
               8.85463885                9.87584830              100.16594170                1.00000000               -0.08236848               -0.01669031                0.09523901               -0.25895364                0.35183415                0.05381758
               9.85301395                9.86924038              100.17787281                1.00000000               -0.16248965               -0.16154186                0.29198216               -0.49436199                0.34976331                0.34737140
         1          2         13         12        122        123        134        133  
         2          3         14         13        123        124        135        134  
         3          4         15         14        124        125        136        135  
         4          5         16         15        125        126        137        136  
         5          6         17         16        126        127        138        137  
         6          7         18         17        127        128        139        138  
         7          8         19         18        128        129        140        139  
         8          9         20         19        129        130        141        140  
         9         10         21         20        130        131        142        141  
        10         11         22         21        131        132        143        142  
        12         13         24         23        133        134        145        144  
        13         14         25         24        134        135        146        145  
        14         15         26         25        135        136        147        146  
        15         16         27         26        136        137        148        147  
        16         17         28         27        137        138        149        148  
        17         18         29         28        138        139        150        149  
        18         19         30         29        139        140        151        150  
        19         20         31         30        140        141        152        151  
        20         21         32         31        141        142        153        152  
        21         22         33         32        142        143        154        153  
        23         24         35         34        144        145        156        155  
        24         25         36         35        145        146        157        156  
        25         26         37         36        146        147        158        157  
        26         27         38         37        147        148        159        158  
        27         28         39         38        148        149        160        159  
        28         29         40         39        149        150        161        160  
        29         30         41         40        150        151        162        161  
        30         31         42         41        151        152        163        162  
        31         32         43         42        152        153        164        163  
        32         33         44         43        153        154        165        164  
        34         35         46         45        155        156        167        166  
        35         36         47         46        156        157        168        167  
        36         37         48         47        157        158        169        168  
        37         38         49         48        158        159        170        169  
        38         39         50         49        159        160        171        170  
        39         40         51         50        160        161        172        171  
        40         41         52         51        161        162        173        172  
        41         42         53         52        162        163        174        173  
        42         43         54         53        163        164        175        174  
        43         44         55         54        164        165        176        175  
        45         46         57         56        166        167        178        177  
        46         47         58         57        167        168        179        178  
        47         48         59         58        168        169        180        179  
        48         49         60         59        169        170        181        180  
        49         50         61         60        170        171        182        181  
        50         51         62         61        171        172        183        182  
        51         52         63         62        172        173        184        183  
        52         53         64         63        173        174        185        184  
        53         54         65         64        174        175        186        185  
        54         55         66         65        175        176        187        186  
        56         57         68         67        177        178        189        188  
        57         58         69         68        178        179        190        189  
        58         59         70         69        179        180        191        190  
        59         60         71         70        180        181        192        191  
        60         61         72         71        181        182        193        192  
        61         62         73         72        182        183        194        193  
        62         63         74         73        183        184        195        194  
        63         64         75         74        184        185        196        195  
        64         65         76         75        185        186        197        196  
        65         66         77         76        186        187        198        197  
        67         68         79         78        188        189        200        199  
        68         69         80         79        189        190        201        200  
        69         70         81         80        190        191        202        201  
        70         71         82         81        191        192        203        202  
        71         72         83         82        192        193        204        203  
        72         73         84         83        193        194        205        204  
        73         74         85         84        194        195        206        205  
        74         75         86         85        195        196        207        206  
        75         76         87         86        196        197        208        207  
        76         77         88         87        197        198        209        208  
        78         79         90         89        199        200        211        210  
        79         80         91         90        200        201        212        211  
        80         81         92         91        201        202        213        212  
        81         82         93         92        202        203        214        213  
        82         83         94         93        203        204        215        214  
        83         84         95         94        204        205        216        215  
        84         85         96         95        205        206        217        216  
        85         86         97         96        206        207        218        217  
        86         87         98         97        207        208        219        218  
        87         88         99         98        208        209        220        219  
        89         90        101        100        210        211        222        221  
        90         91        102        101        211        212        223        222  
        91         92        103        102        212        213        224        223  
        92         93        104        103        213        214        225        224  
        93         94        105        104        214        215        226        225  
        94         95        106        105        215        216        227        226  
        95         96        107        106        216        217        228        227  
        96         97        108        107        217        218        229        228  
        97         98        109        108        218        219        230        229  
        98         99        110        109        219        220        231        230  
       100        101        112        111        221        222        233        232  
       101        102        113        112        222        223        234        233  
       102        103        114        113        223        224        235        234  
       103        104        115        114        224        225        236        235  
       104        105        116        115        225        226        237        236  
       105        106        117        116        226        227        238        237  
       106        107        118        117        227        228        239        238  
       107        108        119        118        228        229        240        239  
       108        109        120        119        229        230        241        240  
       109        110        121        120        230        231        242        241  
       122        123        134        133        243        244        255        254  
       123        124        135        134        244        245        256        255  
       124        125        136        135        245        246        257        256  
       125        126        137        136        246        247        258        257  
       126        127        138        137        247        248        259        258  
       127        128        139        138        248        249        260        259  
       128        129        140        139        249        250        261        260  
       129        130        141        140        250        251        262        261  
       130        131        142        141        251        252        263        262  
       131        132        143        142        252        253        264        263  
       133        134        145        144        254        255        266        265  
       134        135        146        145        255        256        267        266  
       135        136        147        146        256        257        268        267  
       136        137        148        147        257        258        269        268  
       137        138        149        148        258        259        270        269  
       138        139        150        149        259        260        271        270  
       139        140        151        150        260        261        272        271  
       140        141        152        151        261        262        273        272  
       141        142        153        152        262        263        274        273  
       142        143        154        153        263        264        275        274  
       144        145        156        155        265        266        277        276  
       145        146        157        156        266        267        278        277  
       146        147        158        157        267        268        279        278  
       147        148        159        158        268        269        280        279  
       148        149        160        159        269        270        281        280  
       149        150        161        160        270        271        282        281  
       150        151        162        161        271        272        283        282  
       151        152        163        162        272        273        284        283  
       152        153        164        163        273        274        285        284  
       153        154        165        164        274        275        286        285  
       155        156        167        166        276        277        288        287  
       156        157        168        167        277        278        289        288  
       157        158        169        168        278        279        290        289  
       158        159        170        169        279        280        291        290  
       159        160        171        170        280        281        292        291  
       160        161        172        171        281        282        293        292  
       161        162        173        172        282        283        294        293  
       162        163        174        173        283        284        295        294  
       163        164        175        174        284        285        296        295  
       164        165        176        175        285        286        297        296  
       166        167        178        177        287        288        299        298  
       167        168        179        178        288        289        300        299  
       168        169        180        179        289        290        301        300  
       169        170        181        180        290        291        302        301  
       170        171        182        181        291        292        303        302  
       171        172        183        182        292        293        304        303  
       172        173        184        183        293        294        305        304  
       173        174        185        184        294        295        306        305  
       174        175        186        185        295        296        307        306  
       175        176        187        186        296        297        308        307  
       177        178        189        188        298        299        310        309  
       178        179        190        189        299        300        311        310  
       179        180        191        190        300        301        312        311  
       180        181        192        191        301        302        313        312  
       181        182        193        192        302        303        314        313  
       182        183        194        193        303        304        315        314  
       183        184        195        194        304        305        316        315  
       184        185        196        195        305        306        317        316  
       185        186        197        196        306        307        318        317  
       186        187        198        197        307        308        319        318  
       188        189        200        199        309        310        321        320  
       189        190        201        200        310        311        322        321  
       190        191        202        201        311        312        323        322  
       191        192        203        202        312        313        324        323  
       192        193        204        203        313        314        325        324  
       193        194        205        204        314        315        326        325  
       194        195        206        205        315        316        327        326  
       195        196        207        206        316        317        328        327  
       196        197        208        207        317        318        329        328  
       197        198        209        208        318        319        330        329  
       199        200        211        210        320        321        332        331  
       200        201        212        211        321        322        333        332  
       201        202        213        212        322        323        334        333  
       202        203        214        213        323        324        335        334  
       203        204        215        214        324        325        336        335  
       204        205        216        215        325        326        337        336  
       205        206        217        216        326        327        338        337  
       206        207        218        217        327        328        339        338  
       207        208        219        218        328        329        340        339  
       208        209        220        219        329        330        341        340  
       210        211        222        221        331        332        343        342  
       211        212        223        222        332        333        344        343  
       212        213        224        223        333        334        345        344  
       213        214        225        224        334        335        346        345  
       214        215        226        225        335        336        347        346  
       215        216        227        226        336        337        348        347  
       216        217        228        227        337        338        349        348  
       217        218        229        228        338        339        350        349  
       218        219        230        229        339        340        351        350  
       219        220        231        230        340        341        352        351  
       221        222        233        232        342        343        354        353  
       222        223        234        233        343        344        355        354  
       223        224        235        234        344        345        356        355  
       224        225        236        235        345        346        357        356  
       225        226        237        236        346        347        358        357  
       226        227        238        237        347        348        359        358  
       227        228        239        238        348        349        360        359  
       228        229        240        239        349        350        361        360  
       229        230        241        240        350        351        362        361  
       230        231        242        241        351        352        363        362  
       243        244        255        254        364        365        376        375  
       244        245        256        255        365        366        377        376  
       245        246        257        256        366        367        378        377  
       246        247        258        257        367        368        379        378  
       247        248        259        258        368        369        380        379  
       248        249        260        259        369        370        381        380  
       249        250        261        260        370        371        382        381  
       250        251        262        261        371        372        383        382  
       251        252        263        262        372        373        384        383  
       252        253        264        263        373        374        385        384  
       254        255        266        265        375        376        387        386  
       255        256        267        266        376        377        388        387  
       256        257        268        267        377        378        389        388  
       257        258        269        268        378        379        390        389  
       258        259        270        269        379        380        391        390  
       259        260        271        270        380        381        392        391  
       260        261        272        271        381        382        393        392  
       261        262        273        272        382        383        394        393  
       262        263        274        273        383        384        395        394  
       263        264        275        274        384        385        396        395  
       265        266        277        276        386        387        398        397  
       266        267        278        277        387        388        399        398  
       267        268        279        278        388        389        400        399  
       268        269        280        279        389        390        401        400  
       269        270        281        280        390        391        402        401  
       270        271        282        281        391        392        403        402  
       271        272        283        282        392        393        404        403  
       272        273        284        283        393        394        405        404  
       273        274        285        284        394        395        406        405  
       274        275        286        285        395        396        407        406  
       276        277        288        287        397        398        409        408  
       277        278        289        288        398        399        410        409  
       278        279        290        289        399        400        411        410  
       279        280        291        290        400        401        412        411  
       280        281        292        291        401        402        413        412  
       281        282        293        292        402        403        414        413  
       282        283        294        293        403        404        415        414  
       283        284        295        294        404        405        416        415  
       284        285        296        295        405        406        417        416  
       285        286        297        296        406        407        418        417  
       287        288        299        298        408        409        420        419  
       288        289        300        299        409        410        421        420  
       289        290        301        300        410        411        422        421  
       290        291        302        301        411        412        423        422  
       291        292        303        302        412        413        424        423  
       292        293        304        303        413        414        425        424  
       293        294        305        304        414        415        426        425  
       294        295        306        305        415        416        427        426  
       295        296        307        306        416        417        428        427  
       296        297        308        307        417        418        429        428  
       298        299        310        309        419        420        431        430  
       299        300        311        310        420        421        432        431  
       300        301        312        311        421        422        433        432  
       301        302        313        312        422        423        434        433  
       302        303        314        313        423        424        435        434  
       303        304        315        314        424        425        436        435  
       304        305        316        315        425        426        437        436  
       305        306        317        316        426        427        438        437  
       306        307        318        317        427        428        439        438  
       307        308        319        318        428        429        440        439  
       309        310        321        320        430        431        442        441  
       310        311        322        321        431        432        443        442  
       311        312        323        322        432        433        444        443  
       312        313        324        323        433        434        445        444  
       313        314        325        324        434        435        446        445  
       314        315        326        325        435        436        447        446  
       315        316        327        326        436        437        448        447  
       316        317        328        327        437        438        449        448  
       317        318        329        328        438        439        450        449  
       318        319        330        329        439        440        451        450  
       320        321        332        331        441        442        453        452  
       321        322        333        332        442        443        454        453  
       322        323        334        333        443        444        455        454  
       323        324        335        334        444        445        456        455  
       324        325        336        335        445        446        457        456  
       325        326        337        336        446        447        458        457  
       326        327        338        337        447        448        459        458  
       327        328        339        338        448        449        460        459  
       328        329        340        339        449        450        461        460  
       329        330        341        340        450        451        462        461  
       331        332        343        342        452        453        464        463  
       332        333        344        343        453        454        465        464  
       333        334        345        344        454        455        466        465  
       334        335        346        345        455        456        467        466  
       335        336        347        346        456        457        468        467  
       336        337        348        347        457        458        469        468  
       337        338        349        348        458        459        470        469  
       338        339        350        349        459        460        471        470  
       339        340        351        350        460        461        472        471  
       340        341        352        351        461        462        473        472  
       342        343        354        353        463        464        475        474  
       343        344        355        354        464        465        476        475  
       344        345        356        355        465        466        477        476  
       345        346        357        356        466        467        478        477  
       346        347        358        357        467        468        479        478  
       347        348        359        358        468        469        480        479  
       348        349        360        359        469        470        481        480  
       349        350        361        360        470        471        482        481  
       350        351        362        361        471        472        483        482  
       351        352        363        362        472        473        484        483  
       364        365        376        375        485        486        497        496  
       365        366        377        376        486        487        498        497  
       366        367        378        377        487        488        499        498  
       367        368        379        378        488        489        500        499  
       368        369        380        379        489        490        501        500  
       369        370        381        380        490        491        502        501  
       370        371        382        381        491        492        503        502  
       371        372        383        382        492        493        504        503  
       372        373        384        383        493        494        505        504  
       373        374        385        384        494        495        506        505  
       375        376        387        386        496        497        508        507  
       376        377        388        387        497        498        509        508  
       377        378        389        388        498        499        510        509  
       378        379        390        389        499        500        511        510  
       379        380        391        390        500        501        512        511  
       380        381        392        391        501        502        513        512  
       381        382        393        392        502        503        514        513  
       382        383        394        393        503        504        515        514  
       383        384        395        394        504        505        516        515  
       384        385        396        395        505        506        517        516  
       386        387        398        397        507        508        519        518  
       387        388        399        398        508        509        520        519  
       388        389        400        399        509        510        521        520  
       389        390        401        400        510        511        522        521  
       390        391        402        401        511        512        523        522  
       391        392        403        402        512        513        524        523  
       392        393        404        403        513        514        525        524  
       393        394        405        404        514        515        526        525  
       394        395        406        405        515        516        527        526  
       395        396        407        406        516        517        528        527  
       397        398        409        408        518        519        530        529  
       398        399        410        409        519        520        531        530  
       399        400        411        410        520        521        532        531  
       400        401        412        411        521        522        533        532  
       401        402        413        412        522        523        534        533  
       402        403        414        413        523        524        535        534  
       403        404        415        414        524        525        536        535  
       404        405        416        415        525        526        537        536  
       405        406        417        416        526        527        538        537  
       406        407        418        417        527        528        539        538  
       408        409        420        419        529        530        541        540  
       409        410        421        420        530        531        542        541  
       410        411        422        421        531        532        543        542  
       411        412        423        422        532        533        544        543  
       412        413        424        423        533        534        545        544  
       413        414        425        424        534        535        546        545  
       414        415        426        425        535        536        547        546  
       415        416        427        426        536        537        548        547  
       416        417        428        427        537        538        549        548  
       417        418        429        428        538        539        550        549  
       419        420        431        430        540        541        552        551  
       420        421        432        431        541        542        553        552  
       421        422        433        432        542        543        554        553  
       422        423        434        433        543        544        555        554  
       423        424        435        434        544        545        556        555  
       424        425        436        435        545        546        557        556  
       425        426        437        436        546        547        558        557  
       426        427        438        437        547        548        559        558  
       427        428        439        438        548        549        560        559  
       428        429        440        439        549        550        561        560  
       430        431        442        441        551        552        563        562  
       431        432        443        442        552        553        564        563  
       432        433        444        443        553        554        565        564  
       433        434        445        444        554        555        566        565  
       434        435        446        445        555        556        567        566  
       435        436        447        446        556        557        568        567  
       436        437        448        447        557        558        569        568  
       437        438        449        448        558        559        570        569  
       438        439        450        449        559        560        571        570  
       439        440        451        450        560        561        572        571  
       441        442        453        452        562        563        574        573  
       442        443        454        453        563        564        575        574  
       443        444        455        454        564        565        576        575  
       444        445        456        455        565        566        577        576  
       445        446        457        456        566        567        578        577  
       446        447        458        457        567        568        579        578  
       447        448        459        458        568        569        580        579  
       448        449        460        459        569        570        581        580  
       449        450        461        460        570        571        582        581  
       450        451        462        461        571        572        583        582  
       452        453        464        463        573        574        585        584  
       453        454        465        464        574        575        586        585  
       454        455        466        465        575        576        587        586  
       455        456        467        466        576        577        588        587  
       456        457        468        467        577        578        589        588  
       457        458        469        468        578        579        590        589  
       458        459        470        469        579        580        591        590  
       459        460        471        470        580        581        592        591  
       460        461        472        471        581        582        593        592  
       461        462        473        472        582        583        594        593  
       463        464        475        474        584        585        596        595  
       464        465        476        475        585        586        597        596  
       465        466        477        476        586        587        598        597  
       466        467        478        477        587        588        599        598  
       467        468        479        478        588        589        600        599  
       468        469        480        479        589        590        601        600  
       469        470        481        480        590        591        602        601  
       470        471        482        481        591        592        603        602  
       471        472        483        482        592        593        604        603  
       472        473        484        483        593        594        605        604  
       485        486        497        496        606        607        618        617  
       486        487        498        497        607        608        619        618  
       487        488        499        498        608        609        620        619  
       488        489        500        499        609        610        621        620  
       489        490        501        500        610        611        622        621  
       490        491        502        501        611        612        623        622  
       491        492        503        502        612        613        624        623  
       492        493        504        503        613        614        625        624  
       493        494        505        504        614        615        626        625  
       494        495        506        505        615        616        627        626  
       496        497        508        507        617        618        629        628  
       497        498        509        508        618        619        630        629  
       498        499        510        509        619        620        631        630  
       499        500        511        510        620        621        632        631  
       500        501        512        511        621        622        633        632  
       501        502        513        512        622        623        634        633  
       502        503        514        513        623        624        635        634  
       503        504        515        514        624        625        636        635  
       504        505        516        515        625        626        637        636  
       505        506        517        516        626        627        638        637  
       507        508        519        518        628        629        640        639  
       508        509        520        519        629        630        641        640  
       509        510        521        520        630        631        642        641  
       510        511        522        521        631        632        643        642  
       511        512        523        522        632        633        644        643  
       512        513        524        523        633        634        645        644  
       513        514        525        524        634        635        646        645  
       514        515        526        525        635        636        647        646  
       515        516        527        526        636        637        648        647  
       516        517        528        527        637        638        649        648  
       518        519        530        529        639        640        651        650  
       519        520        531        530        640        641        652        651  
       520        521        532        531        641        642        653        652  
       521        522        533        532        642        643        654        653  
       522        523        534        533        643        644        655        654  
       523        524        535        534        644        645        656        655  
       524        525        536        535        645        646        657        656  
       525        526        537        536        646        647        658        657  
       526        527        538        537        647        648        659        658  
       527        528        539        538        648        649        660        659  
       529        530        541        540        650        651        662        661  
       530        531        542        541        651        652        663        662  
       531        532        543        542        652        653        664        663  
       532        533        544        543        653        654        665        664  
       533        534        545        544        654        655        666        665  
       534        535        546        545        655        656        667        666  
       535        536        547        546        656        657        668        667  
       536        537        548        547        657        658        669        668  
       537        538        549        548        658        659        670        669  
       538        539        550        549        659        660        671        670  
       540        541        552        551        661        662        673        672  
       541        542        553        552        662        663        674        673  
       542        543        554        553        663        664        675        674  
       543        544        555        554        664        665        676        675  
       544        545        556        555        665        666        677        676  
       545        546        557        556        666        667        678        677  
       546        547        558        557        667        668        679        678  
       547        548        559        558        668        669        680        679  
       548        549        560        559        669        670        681        680  
       549        550        561        560        670        671        682        681  
       551        552        563        562        672        673        684        683  
       552        553        564        563        673        674        685        684  
       553        554        565        564        674        675        686        685  
       554        555        566        565        675        676        687        686  
       555        556        567        566        676        677        688        687  
       556        557        568        567        677        678        689        688  
       557        558        569        568        678        679        690        689  
       558        559        570        569        679        680        691        690  
       559        560        571        570        680        681        692        691  
       560        561        572        571        681        682        693        692  
       562        563        574        573        683        684        695        694  
       563        564        575        574        684        685        696        695  
       564        565        576        575        685        686        697        696  
       565        566        577        576        686        687        698        697  
       566        567        578        577        687        688        699        698  
       567        568        579        578        688        689        700        699  
       568        569        580        579        689        690        701        700  
       569        570        581        580        690        691        702        701  
       570        571        582        581        691        692        703        702  
       571        572        583        582        692        693        704        703  
       573        574        585        584        694        695        706        705  
       574        575        586        585        695        696        707        706  
       575        576        587        586        696        697        708        707  
       576        577        588        587        697        698        709        708  
       577        578        589        588        698        699        710        709  
       578        579        590        589        699        700        711        710  
       579        580        591        590        700        701        712        711  
       580        581        592        591        701        702        713        712  
       581        582        593        592        702        703        714        713  
       582        583        594        593        703        704        715        714  
       584        585        596        595        705        706        717        716  
       585        586        597        596        706        707        718        717  
       586        587        598        597        707        708        719        718  
       587        588        599        598        708        709        720        719  
       588        589        600        599        709        710        721        720  
       589        590        601        600        710        711        722        721  
       590        591        602        601        711        712        723        722  
       591        592        603        602        712        713        724        723  
       592        593        604        603        713        714        725        724  
       593        594        605        604        714        715        726        725  
       606        607        618        617        727        728        739        738  
       607        608        619        618        728        729        740        739  
       608        609        620        619        729        730        741        740  
       609        610        621        620        730        731        742        741  
       610        611        622        621        731        732        743        742  
       611        612        623        622        732        733        744        743  
       612        613        624        623        733        734        745        744  
       613        614        625        624        734        735        746        745  
       614        615        626        625        735        736        747        746  
       615        616        627        626        736        737        748        747  
       617        618        629        628        738        739        750        749  
       618        619        630        629        739        740        751        750  
       619        620        631        630        740        741        752        751  
       620        621        632        631        741        742        753        752  
       621        622        633        632        742        743        754        753  
       622        623        634        633        743        744        755        754  
       623        624        635        634        744        745        756        755  
       624        625        636        635        745        746        757        756  
       625        626        637        636        746        747        758        757  
       626        627        638        637        747        748        759        758  
       628        629        640        639        749        750        761        760  
       629        630        641        640        750        751        762        761  
       630        631        642        641        751        752        763        762  
       631        632        643        642        752        753        764        763  
       632        633        644        643        753        754        765        764  
       633        634        645        644        754        755        766        765  
       634        635        646        645        755        756        767        766  
       635        636        647        646        756        757        768        767  
       636        637        648        647        757        758        769        768  
       637        638        649        648        758        759        770        769  
       639        640        651        650        760        761        772        771  
       640        641        652        651        761        762        773        772  
       641        642        653        652        762        763        774        773  
       642        643        654        653        763        764        775        774  
       643        644        655        654        764        765        776        775  
       644        645        656        655        765        766        777        776  
       645        646        657        656        766        767        778        777  
       646        647        658        657        767        768        779        778  
       647        648        659        658        768        769        780        779  
       648        649        660        659        769        770        781        780  
       650        651        662        661        771        772        783        782  
       651        652        663        662        772        773        784        783  
       652        653        664        663        773        774        785        784  
       653        654        665        664        774        775        786        785  
       654        655        666        665        775        776        787        786  
       655        656        667        666        776        777        788        787  
       656        657        668        667        777        778        789        788  
       657        658        669        668        778        779        790        789  
       658        659        670        669        779        780        791        790  
       659        660        671        670        780        781        792        791  
       661        662        673        672        782        783        794        793  
       662        663        674        673        783        784        795        794  
       663        664        675        674        784        785        796        795  
       664        665        676        675        785        786        797        796  
       665        666        677        676        786        787        798        797  
       666        667        678        677        787        788        799        798  
       667        668        679        678        788        789        800        799  
       668        669        680        679        789        790        801        800  
       669        670        681        680        790        791        802        801  
       670        671        682        681        791        792        803        802  
       672        673        684        683        793        794        805        804  
       673        674        685        684        794        795        806        805  
       674        675        686        685        795        796        807        806  
       675        676        687        686        796        797        808        807  
       676        677        688        687        797        798        809        808  
       677        678        689        688        798        799        810        809  
       678        679        690        689        799        800        811        810  
       679        680        691        690        800        801        812        811  
       680        681        692        691        801        802        813        812  
       681        682        693        692        802        803        814        813  
       683        684        695        694        804        805        816        815  
       684        685        696        695        805        806        817        816  
       685        686        697        696        806        807        818        817  
       686        687        698        697        807        808        819        818  
       687        688        699        698        808        809        820        819  
       688        689        700        699        809        810        821        820  
       689        690        701        700        810        811        822        821  
       690        691        702        701        811        812        823        822  
       691        692        703        702        812        813        824        823  
       692        693        704        703        813        814        825        824  
       694        695        706        705        815        816        827        826  
       695        696        707        706        816        817        828        827  
       696        697        708        707        817        818        829        828  
       697        698        709        708        818        819        830        829  
       698        699        710        709        819        820        831        830  
       699        700        711        710        820        821        832        831  
       700        701        712        711        821        822        833        832  
       701        702        713        712        822        823        834        833  
       702        703        714        713        823        824        835        834  
       703        704        715        714        824        825        836        835  
       705        706        717        716        826        827        838        837  
       706        707        718        717        827        828        839        838  
       707        708        719        718        828        829        840        839  
       708        709        720        719        829        830        841        840  
       709        710        721        720        830        831        842        841  
       710        711        722        721        831        832        843        842  
       711        712        723        722        832        833        844        843  
       712        713        724        723        833        834        845        844  
       713        714        725        724        834        835        846        845  
       714        715        726        725        835        836        847        846  
       727        728        739        738        848        849        860        859  
       728        729        740        739        849        850        861        860  
       729        730        741        740        850        851        862        861  
       730        731        742        741        851        852        863        862  
       731        732        743        742        852        853        864        863  
       732        733        744        743        853        854        865        864  
       733        734        745        744        854        855        866        865  
       734        735        746        745        855        856        867        866  
       735        736        747        746        856        857        868        867  
       736        737        748        747        857        858        869        868  
       738        739        750        749        859        860        871        870  
       739        740        751        750        860        861        872        871  
       740        741        752        751        861        862        873        872  
       741        742        753        752        862        863        874        873  
       742        743        754        753        863        864        875        874  
       743        744        755        754        864        865        876        875  
       744        745        756        755        865        866        877        876  
       745        746        757        756        866        867        878        877  
       746        747        758        757        867        868        879        878  
       747        748        759        758        868        869        880        879  
       749        750        761        760        870        871        882        881  
       750        751        762        761        871        872        883        882  
       751        752        763        762        872        873        884        883  
       752        753        764        763        873        874        885        884  
       753        754        765        764        874        875        886        885  
       754        755        766        765        875        876        887        886  
       755        756        767        766        876        877        888        887  
       756        757        768        767        877        878        889        888  
       757        758        769        768        878        879        890        889  
       758        759        770        769        879        880        891        890  
       760        761        772        771        881        882        893        892  
       761        762        773        772        882        883        894        893  
       762        763        774        773        883        884        895        894  
       763        764        775        774        884        885        896        895  
       764        765        776        775        885        886        897        896  
       765        766        777        776        886        887        898        897  
       766        767        778        777        887        888        899        898  
       767        768        779        778        888        889        900        899  
       768        769        780        779        889        890        901        900  
       769        770        781        780        890        891        902        901  
       771        772        783        782        892        893        904        903  
       772        773        784        783        893        894        905        904  
       773        774        785        784        894        895        906        905  
       774        775        786        785        895        896        907        906  
       775        776        787        786        896        897        908        907  
       776        777        788        787        897        898        909        908  
       777        778        789        788        898        899        910        909  
       778        779        790        789        899        900        911        910  
       779        780        791        790        900        901        912        911  
       780        781        792        791        901        902        913        912  
       782        783        794        793        903        904        915        914  
       783        784        795        794        904        905        916        915  
       784        785        796        795        905        906        917        916  
       785        786        797        796        906        907        918        917  
       786        787        798        797        907        908        919        918  
       787        788        799        798        908        909        920        919  
       788        789        800        799        909        910        921        920  
       789        790        801        800        910        911        922        921  
       790        791        802        801        911        912        923        922  
       791        792        803        802        912        913        924        923  
       793        794        805        804        914        915        926        925  
       794        795        806        805        915        916        927        926  
       795        796        807        806        916        917        928        927  
       796        797        808        807        917        918        929        928  
       797        798        809        808        918        919        930        929  
       798        799        810        809        919        920        931        930  
       799        800        811        810        920        921        932        931  
       800        801        812        811        921        922        933        932  
       801        802        813        812        922        923        934        933  
       802        803        814        813        923        924        935        934  
       804        805        816        815        925        926        937        936  
       805        806        817        816        926        927        938        937  
       806        807        818        817        927        928        939        938  
       807        808        819        818        928        929        940        939  
       808        809        820        819        929        930        941        940  
       809        810        821        820        930        931        942        941  
       810        811        822        821        931        932        943        942  
       811        812        823        822        932        933        944        943  
       812        813        824        823        933        934        945        944  
       813        814        825        824        934        935        946        945  
       815        816        827        826        936        937        948        947  
       816        817        828        827        937        938        949        948  
       817        818        829        828        938        939        950        949  
       818        819        830        829        939        940        951        950  
       819        820        831        830        940        941        952        951  
       820        821        832        831        941        942        953        952  
       821        822        833        832        942        943        954        953  
       822        823        834        833        943        944        955        954  
       823        824        835        834        944        945        956        955  
       824        825        836        835        945        946        957        956  
       826        827        838        837        947        948        959        958  
       827        828        839        838        948        949        960        959  
       828        829        840        839        949        950        961        960  
       829        830        841        840        950        951        962        961  
       830        831        842        841        951        952        963        962  
       831        832        843        842        952        953        964        963  
       832        833        844        843        953        954        965        964  
       833        834        845        844        954        955        966        965  
       834        835        846        845        955        956        967        966  
       835        836        847        846        956        957        968        967  
       848        849        860        859        969        970        981        980  
       849        850        861        860        970        971        982        981  
       850        851        862        861        971        972        983        982  
       851        852        863        862        972        973        984        983  
       852        853        864        863        973        974        985        984  
       853        854        865        864        974        975        986        985  
       854        855        866        865        975        976        987        986  
       855        856        867        866        976        977        988        987  
       856        857        868        867        977        978        989        988  
       857        858        869        868        978        979        990        989  
       859        860        871        870        980        981        992        991  
       860        861        872        871        981        982        993        992  
       861        862        873        872        982        983        994        993  
       862        863        874        873        983        984        995        994  
       863        864        875        874        984        985        996        995  
       864        865        876        875        985        986        997        996  
       865        866        877        876        986        987        998        997  
       866        867        878        877        987        988        999        998  
       867        868        879        878        988        989       1000        999  
       868        869        880        879        989        990       1001       1000  
       870        871        882        881        991        992       1003       1002  
       871        872        883        882        992        993       1004       1003  
       872        873        884        883        993        994       1005       1004  
       873        874        885        884        994        995       1006       1005  
       874        875        886        885        995        996       1007       1006  
       875        876        887        886        996        997       1008       1007  
       876        877        888        887        997        998       1009       1008  
       877        878        889        888        998        999       1010       1009  
       878        879        890        889        999       1000       1011       1010  
       879        880        891        890       1000       1001       1012       1011  
       881        882        893        892       1002       1003       1014       1013  
       882        883        894        893       1003       1004       1015       1014  
       883        884        895        894       1004       1005       1016       1015  
       884        885        896        895       1005       1006       1017       1016  
       885        886        897        896       1006       1007       1018       1017  
       886        887        898        897       1007       1008       1019       1018  
       887        888        899        898       1008       1009       1020       1019  
       888        889        900        899       1009       1010       1021       1020  
       889        890        901        900       1010       1011       1022       1021  
       890        891        902        901       1011       1012       1023       1022  
       892        893        904        903       1013       1014       1025       1024  
       893        894        905        904       1014       1015       1026       1025  
       894        895        906        905       1015       1016       1027       1026  
       895        896        907        906       1016       1017       1028       1027  
       896        897        908        907       1017       1018       1029       1028  
       897        898        909        908       1018       1019       1030       1029  
       898        899        910        909       1019       1020       1031       1030  
       899        900        911        910       1020       1021       1032       1031  
       900        901        912        911       1021       1022       1033       1032  
       901        902        913        912       1022       1023       1034       1033  
       903        904        915        914       1024       1025       1036       1035  
       904        905        916        915       1025       1026       1037       1036  
       905        906        917        916       1026       1027       1038       1037  
       906        907        918        917       1027       1028       1039       1038  
       907        908        919        918       1028       1029       1040       1039  
       908        909        920        919       1029       1030       1041       1040  
       909        910        921        920       1030       1031       1042       1041  
       910        911        922        921       1031       1032       1043       1042  
       911        912        923        922       1032       1033       1044       1043  
       912        913        924        923       1033       1034       1045       1044  
       914        915        926        925       1035       1036       1047       1046  
       915        916        927        926       1036       1037       1048       1047  
       916        917        928        927       1037       1038       1049       1048  
       917        918        929        928       1038       1039       1050       1049  
       918        919        930        929       1039       1040       1051       1050  
       919        920        931        930       1040       1041       1052       1051  
       920        921        932        931       1041       1042       1053       1052  
       921        922        933        932       1042       1043       1054       1053  
       922        923        934        933       1043       1044       1055       1054  
       923        924        935        934       1044       1045       1056       1055  
       925        926        937        936       1046       1047       1058       1057  
       926        927        938        937       1047       1048       1059       1058  
       927        928        939        938       1048       1049       1060       1059  
       928        929        940        939       1049       1050       1061       1060  
       929        930        941        940       1050       1051       1062       1061  
       930        931        942        941       1051       1052       1063       1062  
       931        932        943        942       1052       1053       1064       1063  
       932        933        944        943       1053       1054       1065       1064  
       933        934        945        944       1054       1055       1066       1065  
       934        935        946        945       1055       1056       1067       1066  
       936        937        948        947       1057       1058       1069       1068  
       937        938        949        948       1058       1059       1070       1069  
       938        939        950        949       1059       1060       1071       1070  
       939        940        951        950       1060       1061       1072       1071  
       940        941        952        951       1061       1062       1073       1072  
       941        942        953        952       1062       1063       1074       1073  
       942        943        954        953       1063       1064       1075       1074  
       943        944        955        954       1064       1065       1076       1075  
       944        945        956        955       1065       1066       1077       1076  
       945        946        957        956       1066       1067       1078       1077  
       947        948        959        958       1068       1069       1080       1079  
       948        949        960        959       1069       1070       1081       1080  
       949        950        961        960       1070       1071       1082       1081  
       950        951        962        961       1071       1072       1083       1082  
       951        952        963        962       1072       1073       1084       1083  
       952        953        964        963       1073       1074       1085       1084  
       953        954        965        964       1074       1075       1086       1085  
       954        955        966        965       1075       1076       1087       1086  
       955        956        967        966       1076       1077       1088       1087  
       956        957        968        967       1077       1078       1089       1088  
       969        970        981        980       1090       1091       1102       1101  
       970        971        982        981       1091       1092       1103       1102  
       971        972        983        982       1092       1093       1104       1103  
       972        973        984        983       1093       1094       1105       1104  
       973        974        985        984       1094       1095       1106       1105  
       974        975        986        985       1095       1096       1107       1106  
       975        976        987        986       1096       1097       1108       1107  
       976        977        988        987       1097       1098       1109       1108  
       977        978        989        988       1098       1099       1110       1109  
       978        979        990        989       1099       1100       1111       1110  
       980        981        992        991       1101       1102       1113       1112  
       981        982        993        992       1102       1103       1114       1113  
       982        983        994        993       1103       1104       1115       1114  
       983        984        995        994       1104       1105       1116       1115  
       984        985        996        995       1105       1106       1117       1116  
       985        986        997        996       1106       1107       1118       1117  
       986        987        998        997       1107       1108       1119       1118  
       987        988        999        998       1108       1109       1120       1119  
       988        989       1000        999       1109       1110       1121       1120  
       989        990       1001       1000       1110       1111       1122       1121  
       991        992       1003       1002       1112       1113       1124       1123  
       992        993       1004       1003       1113       1114       1125       1124  
       993        994       1005       1004       1114       1115       1126       1125  
       994        995       1006       1005       1115       1116       1127       1126  
       995        996       1007       1006       1116       1117       1128       1127  
       996        997       1008       1007       1117       1118       1129       1128  
       997        998       1009       1008       1118       1119       1130       1129  
       998        999       1010       1009       1119       1120       1131       1130  
       999       1000       1011       1010       1120       1121       1132       1131  
      1000       1001       1012       1011       1121       1122       1133       1132  
      1002       1003       1014       1013       1123       1124       1135       1134  
      1003       1004       1015       1014       1124       1125       1136       1135  
      1004       1005       1016       1015       1125       1126       1137       1136  
      1005       1006       1017       1016       1126       1127       1138       1137  
      1006       1007       1018       1017       1127       1128       1139       1138  
      1007       1008       1019       1018       1128       1129       1140       1139  
      1008       1009       1020       1019       1129       1130       1141       1140  
      1009       1010       1021       1020       1130       1131       1142       1141  
      1010       1011       1022       1021       1131       1132       1143       1142  
      1011       1012       1023       1022       1132       1133       1144       1143  
      1013       1014       1025       1024       1134       1135       1146       1145  
      1014       1015       1026       1025       1135       1136       1147       1146  
      1015       1016       1027       1026       1136       1137       1148       1147  
      1016       1017       1028       1027       1137       1138       1149       1148  
      1017       1018       1029       1028       1138       1139       1150       1149  
      1018       1019       1030       1029       1139       1140       1151       1150  
      1019       1020       1031       1030       1140       1141       1152       1151  
      1020       1021       1032       1031       1141       1142       1153       1152  
      1021       1022       1033       1032       1142       1143       1154       1153  
      1022       1023       1034       1033       1143       1144       1155       1154  
      1024       1025       1036       1035       1145       1146       1157       1156  
      1025       1026       1037       1036       1146       1147       1158       1157  
      1026       1027       1038       1037       1147       1148       1159       1158  
      1027       1028       1039       1038       1148       1149       1160       1159  
      1028       1029       1040       1039       1149       1150       1161       1160  
      1029       1030       1041       1040       1150       1151       1162       1161  
      1030       1031       1042       1041       1151       1152       1163       1162  
      1031       1032       1043       1042       1152       1153       1164       1163  
      1032       1033       1044       1043       1153       1154       1165       1164  
      1033       1034       1045       1044       1154       1155       1166       1165  
      1035       1036       1047       1046       1156       1157       1168       1167  
      1036       1037       1048       1047       1157       1158       1169       1168  
      1037       1038       1049       1048       1158       1159       1170       1169  
      1038       1039       1050       1049       1159       1160       1171       1170  
      1039       1040       1051       1050       1160       1161       1172       1171  
      1040       1041       1052       1051       1161       1162       1173       1172  
      1041       1042       1053       1052       1162       1163       1174       1173  
      1042       1043       1054       1053       1163       1164       1175       1174  
      1043       1044       1055       1054       1164       1165       1176       1175  
      1044       1045       1056       1055       1165       1166       1177       1176  
      1046       1047       1058       1057       1167       1168       1179       1178  
      1047       1048       1059       1058       1168       1169       1180       1179  
      1048       1049       1060       1059       1169       1170       1181       1180  
      1049       1050       1061       1060       1170       1171       1182       1181  
      1050       1051       1062       1061       1171       1172       1183       1182  
      1051       1052       1063       1062       1172       1173       1184       1183  
      1052       1053       1064       1063       1173       1174       1185       1184  
      1053       1054       1065       1064       1174       1175       1186       1185  
      1054       1055       1066       1065       1175       1176       1187       1186  
      1055       1056       1067       1066       1176       1177       1188       1187  
      1057       1058       1069       1068       1178       1179       1190       1189  
      1058       1059       1070       1069       1179       1180       1191       1190  
      1059       1060       1071       1070       1180       1181       1192       1191  
      1060       1061       1072       1071       1181       1182       1193       1192  
      1061       1062       1073       1072       1182       1183       1194       1193  
      1062       1063       1074       1073       1183       1184       1195       1194  
      1063       1064       1075       1074       1184       1185       1196       1195  
      1064       1065       1076       1075       1185       1186       1197       1196  
      1065       1066       1077       1076       1186       1187       1198       1197  
      1066       1067       1078       1077       1187       1188       1199       1198  
      1068       1069       1080       1079       1189       1190       1201       1200  
      1069       1070       1081       1080       1190       1191       1202       1201  
      1070       1071       1082       1081       1191       1192       1203       1202  
      1071       1072       1083       1082       1192       1193       1204       1203  
      1072       1073       1084       1083       1193       1194       1205       1204  
      1073       1074       1085       1084       1194       1195       1206       1205  
      1074       1075       1086       1085       1195       1196       1207       1206  
      1075       1076       1087       1086       1196       1197       1208       1207  
      1076       1077       1088       1087       1197       1198       1209       1208  
      1077       1078       1089       1088       1198       1199       1210       1209  
      1090       1091       1102       1101       1211       1212       1223       1222  
      1091       1092       1103       1102       1212       1213       1224       1223  
      1092       1093       1104       1103       1213       1214       1225       1224  
      1093       1094       1105       1104       1214       1215       1226       1225  
      1094       1095       1106       1105       1215       1216       1227       1226  
      1095       1096       1107       1106       1216       1217       1228       1227  
      1096       1097       1108       1107       1217       1218       1229       1228  
      1097       1098       1109       1108       1218       1219       1230       1229  
      1098       1099       1110       1109       1219       1220       1231       1230  
      1099       1100       1111       1110       1220       1221       1232       1231  
      1101       1102       1113       1112       1222       1223       1234       1233  
      1102       1103       1114       1113       1223       1224       1235       1234  
      1103       1104       1115       1114       1224       1225       1236       1235  
      1104       1105       1116       1115       1225       1226       1237       1236  
      1105       1106       1117       1116       1226       1227       1238       1237  
      1106       1107       1118       1117       1227       1228       1239       1238  
      1107       1108       1119       1118       1228       1229       1240       1239  
      1108       1109       1120       1119       1229       1230       1241       1240  
      1109       1110       1121       1120       1230       1231       1242       1241  
      1110       1111       1122       1121       1231       1232       1243       1242  
      1112       1113       1124       1123       1233       1234       1245       1244  
      1113       1114       1125       1124       1234       1235       1246       1245  
      1114       1115       1126       1125       1235       1236       1247       1246  
      1115       1116       1127       1126       1236       1237       1248       1247  
      1116       1117       1128       1127       1237       1238       1249       1248  
      1117       1118       1129       1128       1238       1239       1250       1249  
      1118       1119       1130       1129       1239       1240       1251       1250  
      1119       1120       1131       1130       1240       1241       1252       1251  
      1120       1121       1132       1131       1241       1242       1253       1252  
      1121       1122       1133       1132       1242       1243       1254       1253  
      1123       1124       1135       1134       1244       1245       1256       1255  
      1124       1125       1136       1135       1245       1246       1257       1256  
      1125       1126       1137       1136       1246       1247       1258       1257  
      1126       1127       1138       1137       1247       1248       1259       1258  
      1127       1128       1139       1138       1248       1249       1260       1259  
      1128       1129       1140       1139       1249       1250       1261       1260  
      1129       1130       1141       1140       1250       1251       1262       1261  
      1130       1131       1142       1141       1251       1252       1263       1262  
      1131       1132       1143       1142       1252       1253       1264       1263  
      1132       1133       1144       1143       1253       1254       1265       1264  
      1134       1135       1146       1145       1255       1256       1267       1266  
      1135       1136       1147       1146       1256       1257       1268       1267  
      1136       1137       1148       1147       1257       1258       1269       1268  
      1137       1138       1149       1148       1258       1259       1270       1269  
      1138       1139       1150       1149       1259       1260       1271       1270  
      1139       1140       1151       1150       1260       1261       1272       1271  
      1140       1141       1152       1151       1261       1262       1273       1272  
      1141       1142       1153       1152       1262       1263       1274       1273  
      1142       1143       1154       1153       1263       1264       1275       1274  
      1143       1144       1155       1154       1264       1265       1276       1275  
      1145       1146       1157       1156       1266       1267       1278       1277  
      1146       1147       1158       1157       1267       1268       1279       1278  
      1147       1148       1159       1158       1268       1269       1280       1279  
      1148       1149       1160       1159       1269       1270       1281       1280  
      1149       1150       1161       1160       1270       1271       1282       1281  
      1150       1151       1162       1161       1271       1272       1283       1282  
      1151       1152       1163       1162       1272       1273       1284       1283  
      1152       1153       1164       1163       1273       1274       1285       1284  
      1153       1154       1165       1164       1274       1275       1286       1285  
      1154       1155       1166       1165       1275       1276       1287       1286  
      1156       1157       1168       1167       1277       1278       1289       1288  
      1157       1158       1169       1168       1278       1279       1290       1289  
      1158       1159       1170       1169       1279       1280       1291       1290  
      1159       1160       1171       1170       1280       1281       1292       1291  
      1160       1161       1172       1171       1281       1282       1293       1292  
      1161       1162       1173       1172       1282       1283       1294       1293  
      1162       1163       1174       1173       1283       1284       1295       1294  
      1163       1164       1175       1174       1284       1285       1296       1295  
      1164       1165       1176       1175       1285       1286       1297       1296  
      1165       1166       1177       1176       1286       1287       1298       1297  
      1167       1168       1179       1178       1288       1289       1300       1299  
      1168       1169       1180       1179       1289       1290       1301       1300  
      1169       1170       1181       1180       1290       1291       1302       1301  
      1170       1171       1182       1181       1291       1292       1303       1302  
      1171       1172       1183       1182       1292       1293       1304       1303  
      1172       1173       1184       1183       1293       1294       1305       1304  
      1173       1174       1185       1184       1294       1295       1306       1305  
      1174       1175       1186       1185       1295       1296       1307       1306  
      1175       1176       1187       1186       1296       1297       1308       1307  
      1176       1177       1188       1187       1297       1298       1309       1308  
      1178       1179       1190       1189       1299       1300       1311       1310  
      1179       1180       1191       1190       1300       1301       1312       1311  
      1180       1181       1192       1191       1301       1302       1313       1312  
      1181       1182       1193       1192       1302       1303       1314       1313  
      1182       1183       1194       1193       1303       1304       1315       1314  
      1183       1184       1195       1194       1304       1305       1316       1315  
      1184       1185       1196       1195       1305       1306       1317       1316  
      1185       1186       1197       1196       1306       1307       1318       1317  
      1186       1187       1198       1197       1307       1308       1319       1318  
      1187       1188       1199       1198       1308       1309       1320       1319  
      1189       1190       1201       1200       1310       1311       1322       1321  
      1190       1191       1202       1201       1311       1312       1323       1322  
      1191       1192       1203       1202       1312       1313       1324       1323  
      1192       1193       1204       1203       1313       1314       1325       1324  
      1193       1194       1205       1204       1314       1315       1326       1325  
      1194       1195       1206       1205       1315       1316       1327       1326  
      1195       1196       1207       1206       1316       1317       1328       1327  
      1196       1197       1208       1207       1317       1318       1329       1328  
      1197       1198       1209       1208       1318       1319       1330       1329  
      1198       1199       1210       1209       1319       1320       1331       1330  
      1211       1212       1223       1222       1332       1333       1344       1343  
      1212       1213       1224       1223       1333       1334       1345       1344  
      1213       1214       1225       1224       1334       1335       1346       1345  
      1214       1215       1226       1225       1335       1336       1347       1346  
      1215       1216       1227       1226       1336       1337       1348       1347  
      1216       1217       1228       1227       1337       1338       1349       1348  
      1217       1218       1229       1228       1338       1339       1350       1349  
      1218       1219       1230       1229       1339       1340       1351       1350  
      1219       1220       1231       1230       1340       1341       1352       1351  
      1220       1221       1232       1231       1341       1342       1353       1352  
      1222       1223       1234       1233       1343       1344       1355       1354  
      1223       1224       1235       1234       1344       1345       1356       1355  
      1224       1225       1236       1235       1345       1346       1357       1356  
      1225       1226       1237       1236       1346       1347       1358       1357  
      1226       1227       1238       1237       1347       1348       1359       1358  
      1227       1228       1239       1238       1348       1349       1360       1359  
      1228       1229       1240       1239       1349       1350       1361       1360  
      1229       1230       1241       1240       1350       1351       1362       1361  
      1230       1231       1242       1241       1351       1352       1363       1362  
      1231       1232       1243       1242       1352       1353       1364       1363  
      1233       1234       1245       1244       1354       1355       1366       1365  
      1234       1235       1246       1245       1355       1356       1367       1366  
      1235       1236       1247       1246       1356       1357       1368       1367  
      1236       1237       1248       1247       1357       1358       1369       1368  
      1237       1238       1249       1248       1358       1359       1370       1369  
      1238       1239       1250       1249       1359       1360       1371       1370  
      1239       1240       1251       1250       1360       1361       1372       1371  
      1240       1241       1252       1251       1361       1362       1373       1372  
      1241       1242       1253       1252       1362       1363       1374       1373  
      1242       1243       1254       1253       1363       1364       1375       1374  
      1244       1245       1256       1255       1365       1366       1377       1376  
      1245       1246       1257       1256       1366       1367       1378       1377  
      1246       1247       1258       1257       1367       1368       1379       1378  
      1247       1248       1259       1258       1368       1369       1380       1379  
      1248       1249       1260       1259       1369       1370       1381       1380  
      1249       1250       1261       1260       1370       1371       1382       1381  
      1250       1251       1262       1261       1371       1372       1383       1382  
      1251       1252       1263       1262       1372       1373       1384       1383  
      1252       1253       1264       1263       1373       1374       1385       1384  
      1253       1254       1265       1264       1374       1375       1386       1385  
      1255       1256       1267       1266       1376       1377       1388       1387  
      1256       1257       1268       1267       1377       1378       1389       1388  
      1257       1258       1269       1268       1378       1379       1390       1389  
      1258       1259       1270       1269       1379       1380       1391       1390  
      1259       1260       1271       1270       1380       1381       1392       1391  
      1260       1261       1272       1271       1381       1382       1393       1392  
      1261       1262       1273       1272       1382       1383       1394       1393  
      1262       1263       1274       1273       1383       1384       1395       1394  
      1263       1264       1275       1274       1384       1385       1396       1395  
      1264       1265       1276       1275       1385       1386       1397       1396  
      1266       1267       1278       1277       1387       1388       1399       1398  
      1267       1268       1279       1278       1388       1389       1400       1399  
      1268       1269       1280       1279       1389       1390       1401       1400  
      1269       1270       1281       1280       1390       1391       1402       1401  
      1270       1271       1282       1281       1391       1392       1403       1402  
      1271       1272       1283       1282       1392       1393       1404       1403  
      1272       1273       1284       1283       1393       1394       1405       1404  
      1273       1274       1285       1284       1394       1395       1406       1405  
      1274       1275       1286       1285       1395       1396       1407       1406  
      1275       1276       1287       1286       1396       1397       1408       1407  
      1277       1278       1289       1288       1398       1399       1410       1409  
      1278       1279       1290       1289       1399       1400       1411       1410  
      1279       1280       1291       1290       1400       1401       1412       1411  
      1280       1281       1292       1291       1401       1402       1413       1412  
      1281       1282       1293       1292       1402       1403       1414       1413  
      1282       1283       1294       1293       1403       1404       1415       1414  
      1283       1284       1295       1294       1404       1405       1416       1415  
      1284       1285       1296       1295       1405       1406       1417       1416  
      1285       1286       1297       1296       1406       1407       1418       1417  
      1286       1287       1298       1297       1407       1408       1419       1418  
      1288       1289       1300       1299       1409       1410       1421       1420  
      1289       1290       1301       1300       1410       1411       1422       1421  
      1290       1291       1302       1301       1411       1412       1423       1422  
      1291       1292       1303       1302       1412       1413       1424       1423  
      1292       1293       1304       1303       1413       1414       1425       1424  
      1293       1294       1305       1304       1414       1415       1426       1425  
      1294       1295       1306       1305       1415       1416       1427       1426  
      1295       1296       1307       1306       1416       1417       1428       1427  
      1296       1297       1308       1307       1417       1418       1429       1428  
      1297       1298       1309       1308       1418       1419       1430       1429  
      1299       1300       1311       1310       1420       1421       1432       1431  
      1300       1301       1312       1311       1421       1422       1433       1432  
      1301       1302       1313       1312       1422       1423       1434       1433  
      1302       1303       1314       1313       1423       1424       1435       1434  
      1303       1304       1315       1314       1424       1425       1436       1435  
      1304       1305       1316       1315       1425       1426       1437       1436  
      1305       1306       1317       1316       1426       1427       1438       1437  
      1306       1307       1318       1317       1427       1428       1439       1438  
      1307       1308       1319       1318       1428       1429       1440       1439  
      1308       1309       1320       1319       1429       1430       1441       1440  
      1310       1311       1322       1321       1431       1432       1443       1442  
      1311       1312       1323       1322       1432       1433       1444       1443  
      1312       1313       1324       1323       1433       1434       1445       1444  
      1313       1314       1325       1324       1434       1435       1446       1445  
      1314       1315       1326       1325       1435       1436       1447       1446  
      1315       1316       1327       1326       1436       1437       1448       1447  
      1316       1317       1328       1327       1437       1438       1449       1448  
      1317       1318       1329       1328       1438       1439       1450       1449  
      1318       1319       1330       1329       1439       1440       1451       1450  
      1319       1320       1331       1330       1440       1441       1452       1451  
      1332       1333       1344       1343       1453       1454       1465       1464  
      1333       1334       1345       1344       1454       1455       1466       1465  
      1334       1335       1346       1345       1455       1456       1467       1466  
      1335       1336       1347       1346       1456       1457       1468       1467  
      1336       1337       1348       1347       1457       1458       1469       1468  
      1337       1338       1349       1348       1458       1459       1470       1469  
      1338       1339       1350       1349       1459       1460       1471       1470  
      1339       1340       1351       1350       1460       1461       1472       1471  
      1340       1341       1352       1351       1461       1462       1473       1472  
      1341       1342       1353       1352       1462       1463       1474       1473  
      1343       1344       1355       1354       1464       1465       1476       1475  
      1344       1345       1356       1355       1465       1466       1477       1476  
      1345       1346       1357       1356       1466       1467       1478       1477  
      1346       1347       1358       1357       1467       1468       1479       1478  
      1347       1348       1359       1358       1468       1469       1480       1479  
      1348       1349       1360       1359       1469       1470       1481       1480  
      1349       1350       1361       1360       1470       1471       1482       1481  
      1350       1351       1362       1361       1471       1472       1483       1482  
      1351       1352       1363       1362       1472       1473       1484       1483  
      1352       1353       1364       1363       1473       1474       1485       1484  
      1354       1355       1366       1365       1475       1476       1487       1486  
      1355       1356       1367       1366       1476       1477       1488       1487  
      1356       1357       1368       1367       1477       1478       1489       1488  
      1357       1358       1369       1368       1478       1479       1490       1489  
      1358       1359       1370       1369       1479       1480       1491       1490  
      1359       1360       1371       1370       1480       1481       1492       1491  
      1360       1361       1372       1371       1481       1482       1493       1492  
      1361       1362       1373       1372       1482       1483       1494       1493  
      1362       1363       1374       1373       1483       1484       1495       1494  
      1363       1364       1375       1374       1484       1485       1496       1495  
      1365       1366       1377       1376       1486       1487       1498       1497  
      1366       1367       1378       1377       1487       1488       1499       1498  
      1367       1368       1379       1378       1488       1489       1500       1499  
      1368       1369       1380       1379       1489       1490       1501       1500  
      1369       1370       1381       1380       1490       1491       1502       1501  
      1370       1371       1382       1381       1491       1492       1503       1502  
      1371       1372       1383       1382       1492       1493       1504       1503  
      1372       1373       1384       1383       1493       1494       1505       1504  
      1373       1374       1385       1384       1494       1495       1506       1505  
      1374       1375       1386       1385       1495       1496       1507       1506  
      1376       1377       1388       1387       1497       1498       1509       1508  
      1377       1378       1389       1388       1498       1499       1510       1509  
      1378       1379       1390       1389       1499       1500       1511       1510  
      1379       1380       1391       1390       1500       1501       1512       1511  
      1380       1381       1392       1391       1501       1502       1513       1512  
      1381       1382       1393       1392       1502       1503       1514       1513  
      1382       1383       1394       1393       1503       1504       1515       1514  
      1383       1384       1395       1394       1504       1505       1516       1515  
      1384       1385       1396       1395       1505       1506       1517       1516  
      1385       1386       1397       1396       1506       1507       1518       1517  
      1387       1388       1399       1398       1508       1509       1520       1519  
      1388       1389       1400       1399       1509       1510       1521       1520  
      1389       1390       1401       1400       1510       1511       1522       1521  
      1390       1391       1402       1401       1511       1512       1523       1522  
      1391       1392       1403       1402       1512       1513       1524       1523  
      1392       1393       1404       1403       1513       1514       1525       1524  
      1393       1394       1405       1404       1514       1515       1526       1525  
      1394       1395       1406       1405       1515       1516       1527       1526  
      1395       1396       1407       1406       1516       1517       1528       1527  
      1396       1397       1408       1407       1517       1518       1529       1528  
      1398       1399       1410       1409       1519       1520       1531       1530  
      1399       1400       1411       1410       1520       1521       1532       1531  
      1400       1401       1412       1411       1521       1522       1533       1532  
      1401       1402       1413       1412       1522       1523       1534       1533  
      1402       1403       1414       1413       1523       1524       1535       1534  
      1403       1404       1415       1414       1524       1525       1536       1535  
      1404       1405       1416       1415       1525       1526       1537       1536  
      1405       1406       1417       1416       1526       1527       1538       1537  
      1406       1407       1418       1417       1527       1528       1539       1538  
      1407       1408       1419       1418       1528       1529       1540       1539  
      1409       1410       1421       1420       1530       1531       1542       1541  
      1410       1411       1422       1421       1531       1532       1543       1542  
      1411       1412       1423       1422       1532       1533       1544       1543  
      1412       1413       1424       1423       1533       1534       1545       1544  
      1413       1414       1425       1424       1534       1535       1546       1545  
      1414       1415       1426       1425       1535       1536       1547       1546  
      1415       1416       1427       1426       1536       1537       1548       1547  
      1416       1417       1428       1427       1537       1538       1549       1548  
      1417       1418       1429       1428       1538       1539       1550       1549  
      1418       1419       1430       1429       1539       1540       1551       1550  
      1420       1421       1432       1431       1541       1542       1553       1552  
      1421       1422       1433       1432       1542       1543       1554       1553  
      1422       1423       1434       1433       1543       1544       1555       1554  
      1423       1424       1435       1434       1544       1545       1556       1555  
      1424       1425       1436       1435       1545       1546       1557       1556  
      1425       1426       1437       1436       1546       1547       1558       1557  
      1426       1427       1438       1437       1547       1548       1559       1558  
      1427       1428       1439       1438       1548       1549       1560       1559  
      1428       1429       1440       1439       1549       1550       1561       1560  
      1429       1430       1441       1440       1550       1551       1562       1561  
      1431       1432       1443       1442       1552       1553       1564       1563  
      1432       1433       1444       1443       1553       1554       1565       1564  
      1433       1434       1445       1444       1554       1555       1566       1565  
      1434       1435       1446       1445       1555       1556       1567       1566  
      1435       1436       1447       1446       1556       1557       1568       1567  
      1436       1437       1448       1447       1557       1558       1569       1568  
      1437       1438       1449       1448       1558       1559       1570       1569  
      1438       1439       1450       1449       1559       1560       1571       1570  
      1439       1440       1451       1450       1560       1561       1572       1571  
      1440       1441       1452       1451       1561       1562       1573       1572  
      1453       1454       1465       1464       1574       1575       1586       1585  
      1454       1455       1466       1465       1575       1576       1587       1586  
      1455       1456       1467       1466       1576       1577       1588       1587  
      1456       1457       1468       1467       1577       1578       1589       1588  
      1457       1458       1469       1468       1578       1579       1590       1589  
      1458       1459       1470       1469       1579       1580       1591       1590  
      1459       1460       1471       1470       1580       1581       1592       1591  
      1460       1461       1472       1471       1581       1582       1593       1592  
      1461       1462       1473       1472       1582       1583       1594       1593  
      1462       1463       1474       1473       1583       1584       1595       1594  
      1464       1465       1476       1475       1585       1586       1597       1596  
      1465       1466       1477       1476       1586       1587       1598       1597  
      1466       1467       1478       1477       1587       1588       1599       1598  
      1467       1468       1479       1478       1588       1589       1600       1599  
      1468       1469       1480       1479       1589       1590       1601       1600  
      1469       1470       1481       1480       1590       1591       1602       1601  
      1470       1471       1482       1481       1591       1592       1603       1602  
      1471       1472       1483       1482       1592       1593       1604       1603  
      1472       1473       1484       1483       1593       1594       1605       1604  
      1473       1474       1485       1484       1594       1595       1606       1605  
      1475       1476       1487       1486       1596       1597       1608       1607  
      1476       1477       1488       1487       1597       1598       1609       1608  
      1477       1478       1489       1488       1598       1599       1610       1609  
      1478       1479       1490       1489       1599       1600       1611       1610  
      1479       1480       1491       1490       1600       1601       1612       1611  
      1480       1481       1492       1491       1601       1602       1613       1612  
      1481       1482       1493       1492       1602       1603       1614       1613  
      1482       1483       1494       1493       1603       1604       1615       1614  
      1483       1484       1495       1494       1604       1605       1616       1615  
      1484       1485       1496       1495       1605       1606       1617       1616  
      1486       1487       1498       1497       1607       1608       1619       1618  
      1487       1488       1499       1498       1608       1609       1620       1619  
      1488       1489       1500       1499       1609       1610       1621       1620  
      1489       1490       1501       1500       1610       1611       1622       1621  
      1490       1491       1502       1501       1611       1612       1623       1622  
      1491       1492       1503       1502       1612       1613       1624       1623  
      1492       1493       1504       1503       1613       1614       1625       1624  
      1493       1494       1505       1504       1614       1615       1626       1625  
      1494       1495       1506       1505       1615       1616       1627       1626  
      1495       1496       1507       1506       1616       1617       1628       1627  
      1497       1498       1509       1508       1618       1619       1630       1629  
      1498       1499       1510       1509       1619       1620       1631       1630  
      1499       1500       1511       1510       1620       1621       1632       1631  
      1500       1501       1512       1511       1621       1622       1633       1632  
      1501       1502       1513       1512       1622       1623       1634       1633  
      1502       1503       1514       1513       1623       1624       1635       1634  
      1503       1504       1515       1514       1624       1625       1636       1635  
      1504       1505       1516       1515       1625       1626       1637       1636  
      1505       1506       1517       1516       1626       1627       1638       1637  
      1506       1507       1518       1517       1627       1628       1639       1638  
      1508       1509       1520       1519       1629       1630       1641       1640  
      1509       1510       1521       1520       1630       1631       1642       1641  
      1510       1511       1522       1521       1631       1632       1643       1642  
      1511       1512       1523       1522       1632       1633       1644       1643  
      1512       1513       1524       1523       1633       1634       1645       1644  
      1513       1514       1525       1524       1634       1635       1646       1645  
      1514       1515       1526       1525       1635       1636       1647       1646  
      1515       1516       1527       1526       1636       1637       1648       1647  
      1516       1517       1528       1527       1637       1638       1649       1648  
      1517       1518       1529       1528       1638       1639       1650       1649  
      1519       1520       1531       1530       1640       1641       1652       1651  
      1520       1521       1532       1531       1641       1642       1653       1652  
      1521       1522       1533       1532       1642       1643       1654       1653  
      1522       1523       1534       1533       1643       1644       1655       1654  
      1523       1524       1535       1534       1644       1645       1656       1655  
      1524       1525       1536       1535       1645       1646       1657       1656  
      1525       1526       1537       1536       1646       1647       1658       1657  
      1526       1527       1538       1537       1647       1648       1659       1658  
      1527       1528       1539       1538       1648       1649       1660       1659  
      1528       1529       1540       1539       1649       1650       1661       1660  
      1530       1531       1542       1541       1651       1652       1663       1662  
      1531       1532       1543       1542       1652       1653       1664       1663  
      1532       1533       1544       1543       1653       1654       1665       1664  
      1533       1534       1545       1544       1654       1655       1666       1665  
      1534       1535       1546       1545       1655       1656       1667       1666  
      1535       1536       1547       1546       1656       1657       1668       1667  
      1536       1537       1548       1547       1657       1658       1669       1668  
      1537       1538       1549       1548       1658       1659       1670       1669  
      1538       1539       1550       1549       1659       1660       1671       1670  
      1539       1540       1551       1550       1660       1661       1672       1671  
      1541       1542       1553       1552       1662       1663       1674       1673  
      1542       1543       1554       1553       1663       1664       1675       1674  
      1543       1544       1555       1554       1664       1665       1676       1675  
      1544       1545       1556       1555       1665       1666       1677       1676  
      1545       1546       1557       1556       1666       1667       1678       1677  
      1546       1547       1558       1557       1667       1668       1679       1678  
      1547       1548       1559       1558       1668       1669       1680       1679  
      1548       1549       1560       1559       1669       1670       1681       1680  
      1549       1550       1561       1560       1670       1671       1682       1681  
      1550       1551       1562       1561       1671       1672       1683       1682  
      1552       1553       1564       1563       1673       1674       1685       1684  
      1553       1554       1565       1564       1674       1675       1686       1685  
      1554       1555       1566       1565       1675       1676       1687       1686  
      1555       1556       1567       1566       1676       1677       1688       1687  
      1556       1557       1568       1567       1677       1678       1689       1688  
      1557       1558       1569       1568       1678       1679       1690       1689  
      1558       1559       1570       1569       1679       1680       1691       1690  
      1559       1560       1571       1570       1680       1681       1692       1691  
      1560       1561       1572       1571       1681       1682       1693       1692  
      1561       1562       1573       1572       1682       1683       1694       1693  
      1574       1575       1586       1585       1695       1696       1707       1706  
      1575       1576       1587       1586       1696       1697       1708       1707  
      1576       1577       1588       1587       1697       1698       1709       1708  
      1577       1578       1589       1588       1698       1699       1710       1709  
      1578       1579       1590       1589       1699       1700       1711       1710  
      1579       1580       1591       1590       1700       1701       1712       1711  
      1580       1581       1592       1591       1701       1702       1713       1712  
      1581       1582       1593       1592       1702       1703       1714       1713  
      1582       1583       1594       1593       1703       1704       1715       1714  
      1583       1584       1595       1594       1704       1705       1716       1715  
      1585       1586       1597       1596       1706       1707       1718       1717  
      1586       1587       1598       1597       1707       1708       1719       1718  
      1587       1588       1599       1598       1708       1709       1720       1719  
      1588       1589       1600       1599       1709       1710       1721       1720  
      1589       1590       1601       1600       1710       1711       1722       1721  
      1590       1591       1602       1601       1711       1712       1723       1722  
      1591       1592       1603       1602       1712       1713       1724       1723  
      1592       1593       1604       1603       1713       1714       1725       1724  
      1593       1594       1605       1604       1714       1715       1726       1725  
      1594       1595       1606       1605       1715       1716       1727       1726  
      1596       1597       1608       1607       1717       1718       1729       1728  
      1597       1598       1609       1608       1718       1719       1730       1729  
      1598       1599       1610       1609       1719       1720       1731       1730  
      1599       1600       1611       1610       1720       1721       1732       1731  
      1600       1601       1612       1611       1721       1722       1733       1732  
      1601       1602       1613       1612       1722       1723       1734       1733  
      1602       1603       1614       1613       1723       1724       1735       1734  
      1603       1604       1615       1614       1724       1725       1736       1735  
      1604       1605       1616       1615       1725       1726       1737       1736  
      1605       1606       1617       1616       1726       1727       1738       1737  
      1607       1608       1619       1618       1728       1729       1740       1739  
      1608       1609       1620       1619       1729       1730       1741       1740  
      1609       1610       1621       1620       1730       1731       1742       1741  
      1610       1611       1622       1621       1731       1732       1743       1742  
      1611       1612       1623       1622       1732       1733       1744       1743  
      1612       1613       1624       1623       1733       1734       1745       1744  
      1613       1614       1625       1624       1734       1735       1746       1745  
      1614       1615       1626       1625       1735       1736       1747       1746  
      1615       1616       1627       1626       1736       1737       1748       1747  
      1616       1617       1628       1627       1737       1738       1749       1748  
      1618       1619       1630       1629       1739       1740       1751       1750  
      1619       1620       1631       1630       1740       1741       1752       1751  
      1620       1621       1632       1631       1741       1742       1753       1752  
      1621       1622       1633       1632       1742       1743       1754       1753  
      1622       1623       1634       1633       1743       1744       1755       1754  
      1623       1624       1635       1634       1744       1745       1756       1755  
      1624       1625       1636       1635       1745       1746       1757       1756  
      1625       1626       1637       1636       1746       1747       1758       1757  
      1626       1627       1638       1637       1747       1748       1759       1758  
      1627       1628       1639       1638       1748       1749       1760       1759  
      1629       1630       1641       1640       1750       1751       1762       1761  
      1630       1631       1642       1641       1751       1752       1763       1762  
      1631       1632       1643       1642       1752       1753       1764       1763  
      1632       1633       1644       1643       1753       1754       1765       1764  
      1633       1634       1645       1644       1754       1755       1766       1765  
      1634       1635       1646       1645       1755       1756       1767       1766  
      1635       1636       1647       1646       1756       1757       1768       1767  
      1636       1637       1648       1647       1757       1758       1769       1768  
      1637       1638       1649       1648       1758       1759       1770       1769  
      1638       1639       1650       1649       1759       1760       1771       1770  
      1640       1641       1652       1651       1761       1762       1773       1772  
      1641       1642       1653       1652       1762       1763       1774       1773  
      1642       1643       1654       1653       1763       1764       1775       1774  
      1643       1644       1655       1654       1764       1765       1776       1775  
      1644       1645       1656       1655       1765       1766       1777       1776  
      1645       1646       1657       1656       1766       1767       1778       1777  
      1646       1647       1658       1657       1767       1768       1779       1778  
      1647       1648       1659       1658       1768       1769       1780       1779  
      1648       1649       1660       1659       1769       1770       1781       1780  
      1649       1650       1661       1660       1770       1771       1782       1781  
      1651       1652       1663       1662       1772       1773       1784       1783  
      1652       1653       1664       1663       1773       1774       1785       1784  
      1653       1654       1665       1664       1774       1775       1786       1785  
      1654       1655       1666       1665       1775       1776       1787       1786  
      1655       1656       1667       1666       1776       1777       1788       1787  
      1656       1657       1668       1667       1777       1778       1789       1788  
      1657       1658       1669       1668       1778       1779       1790       1789  
      1658       1659       1670       1669       1779       1780       1791       1790  
      1659       1660       1671       1670       1780       1781       1792       1791  
      1660       1661       1672       1671       1781       1782       1793       1792  
      1662       1663       1674       1673       1783       1784       1795       1794  
      1663       1664       1675       1674       1784       1785       1796       1795  
      1664       1665       1676       1675       1785       1786       1797       1796  
      1665       1666       1677       1676       1786       1787       1798       1797  
      1666       1667       1678       1677       1787       1788       1799       1798  
      1667       1668       1679       1678       1788       1789       1800       1799  
      1668       1669       1680       1679       1789       1790       1801       1800  
      1669       1670       1681       1680       1790       1791       1802       1801  
      1670       1671       1682       1681       1791       1792       1803       1802  
      1671       1672       1683       1682       1792       1793       1804       1803  
      1673       1674       1685       1684       1794       1795       1806       1805  
      1674       1675       1686       1685       1795       1796       1807       1806  
      1675       1676       1687       1686       1796       1797       1808       1807  
      1676       1677       1688       1687       1797       1798       1809       1808  
      1677       1678       1689       1688       1798       1799       1810       1809  
      1678       1679       1690       1689       1799       1800       1811       1810  
      1679       1680       1691       1690       1800       1801       1812       1811  
      1680       1681       1692       1691       1801       1802       1813       1812  
      1681       1682       1693       1692       1802       1803       1814       1813  
      1682       1683       1694       1693       1803       1804       1815       1814  
      1695       1696       1707       1706       1816       1817       1828       1827  
      1696       1697       1708       1707       1817       1818       1829       1828  
      1697       1698       1709       1708       1818       1819       1830       1829  
      1698       1699       1710       1709       1819       1820       1831       1830  
      1699       1700       1711       1710       1820       1821       1832       1831  
      1700       1701       1712       1711       1821       1822       1833       1832  
      1701       1702       1713       1712       1822       1823       1834       1833  
      1702       1703       1714       1713       1823       1824       1835       1834  
      1703       1704       1715       1714       1824       1825       1836       1835  
      1704       1705       1716       1715       1825       1826       1837       1836  
      1706       1707       1718       1717       1827       1828       1839       1838  
      1707       1708       1719       1718       1828       1829       1840       1839  
      1708       1709       1720       1719       1829       1830       1841       1840  
      1709       1710       1721       1720       1830       1831       1842       1841  
      1710       1711       1722       1721       1831       1832       1843       1842  
      1711       1712       1723       1722       1832       1833       1844       1843  
      1712       1713       1724       1723       1833       1834       1845       1844  
      1713       1714       1725       1724       1834       1835       1846       1845  
      1714       1715       1726       1725       1835       1836       1847       1846  
      1715       1716       1727       1726       1836       1837       1848       1847  
      1717       1718       1729       1728       1838       1839       1850       1849  
      1718       1719       1730       1729       1839       1840       1851       1850  
      1719       1720       1731       1730       1840       1841       1852       1851  
      1720       1721       1732       1731       1841       1842       1853       1852  
      1721       1722       1733       1732       1842       1843       1854       1853  
      1722       1723       1734       1733       1843       1844       1855       1854  
      1723       1724       1735       1734       1844       1845       1856       1855  
      1724       1725       1736       1735       1845       1846       1857       1856  
      1725       1726       1737       1736       1846       1847       1858       1857  
      1726       1727       1738       1737       1847       1848       1859       1858  
      1728       1729       1740       1739       1849       1850       1861       1860  
      1729       1730       1741       1740       1850       1851       1862       1861  
      1730       1731       1742       1741       1851       1852       1863       1862  
      1731       1732       1743       1742       1852       1853       1864       1863  
      1732       1733       1744       1743       1853       1854       1865       1864  
      1733       1734       1745       1744       1854       1855       1866       1865  
      1734       1735       1746       1745       1855       1856       1867       1866  
      1735       1736       1747       1746       1856       1857       1868       1867  
      1736       1737       1748       1747       1857       1858       1869       1868  
      1737       1738       1749       1748       1858       1859       1870       1869  
      1739       1740       1751       1750       1860       1861       1872       1871  
      1740       1741       1752       1751       1861       1862       1873       1872  
      1741       1742       1753       1752       1862       1863       1874       1873  
      1742       1743       1754       1753       1863       1864       1875       1874  
      1743       1744       1755       1754       1864       1865       1876       1875  
      1744       1745       1756       1755       1865       1866       1877       1876  
      1745       1746       1757       1756       1866       1867       1878       1877  
      1746       1747       1758       1757       1867       1868       1879       1878  
      1747       1748       1759       1758       1868       1869       1880       1879  
      1748       1749       1760       1759       1869       1870       1881       1880  
      1750       1751       1762       1761       1871       1872       1883       1882  
      1751       1752       1763       1762       1872       1873       1884       1883  
      1752       1753       1764       1763       1873       1874       1885       1884  
      1753       1754       1765       1764       1874       1875       1886       1885  
      1754       1755       1766       1765       1875       1876       1887       1886  
      1755       1756       1767       1766       1876       1877       1888       1887  
      1756       1757       1768       1767       1877       1878       1889       1888  
      1757       1758       1769       1768       1878       1879       1890       1889  
      1758       1759       1770       1769       1879       1880       1891       1890  
      1759       1760       1771       1770       1880       1881       1892       1891  
      1761       1762       1773       1772       1882       1883       1894       1893  
      1762       1763       1774       1773       1883       1884       1895       1894  
      1763       1764       1775       1774       1884       1885       1896       1895  
      1764       1765       1776       1775       1885       1886       1897       1896  
      1765       1766       1777       1776       1886       1887       1898       1897  
      1766       1767       1778       1777       1887       1888       1899       1898  
      1767       1768       1779       1778       1888       1889       1900       1899  
      1768       1769       1780       1779       1889       1890       1901       1900  
      1769       1770       1781       1780       1890       1891       1902       1901  
      1770       1771       1782       1781       1891       1892       1903       1902  
      1772       1773       1784       1783       1893       1894       1905       1904  
      1773       1774       1785       1784       1894       1895       1906       1905  
      1774       1775       1786       1785       1895       1896       1907       1906  
      1775       1776       1787       1786       1896       1897       1908       1907  
      1776       1777       1788       1787       1897       1898       1909       1908  
      1777       1778       1789       1788       1898       1899       1910       1909  
      1778       1779       1790       1789       1899       1900       1911       1910  
      1779       1780       1791       1790       1900       1901       1912       1911  
      1780       1781       1792       1791       1901       1902       1913       1912  
      1781       1782       1793       1792       1902       1903       1914       1913  
      1783       1784       1795       1794       1904       1905       1916       1915  
      1784       1785       1796       1795       1905       1906       1917       1916  
      1785       1786       1797       1796       1906       1907       1918       1917  
      1786       1787       1798       1797       1907       1908       1919       1918  
      1787       1788       1799       1798       1908       1909       1920       1919  
      1788       1789       1800       1799       1909       1910       1921       1920  
      1789       1790       1801       1800       1910       1911       1922       1921  
      1790       1791       1802       1801       1911       1912       1923       1922  
      1791       1792       1803       1802       1912       1913       1924       1923  
      1792       1793       1804       1803       1913       1914       1925       1924  
      1794       1795       1806       1805       1915       1916       1927       1926  
      1795       1796       1807       1806       1916       1917       1928       1927  
      1796       1797       1808       1807       1917       1918       1929       1928  
      1797       1798       1809       1808       1918       1919       1930       1929  
      1798       1799       1810       1809       1919       1920       1931       1930  
      1799       1800       1811       1810       1920       1921       1932       1931  
      1800       1801       1812       1811       1921       1922       1933       1932  
      1801       1802       1813       1812       1922       1923       1934       1933  
      1802       1803       1814       1813       1923       1924       1935       1934  
      1803       1804       1815       1814       1924       1925       1936       1935  
      1816       1817       1828       1827       1937       1938       1949       1948  
      1817       1818       1829       1828       1938       1939       1950       1949  
      1818       1819       1830       1829       1939       1940       1951       1950  
      1819       1820       1831       1830       1940       1941       1952       1951  
      1820       1821       1832       1831       1941       1942       1953       1952  
      1821       1822       1833       1832       1942       1943       1954       1953  
      1822       1823       1834       1833       1943       1944       1955       1954  
      1823       1824       1835       1834       1944       1945       1956       1955  
      1824       1825       1836       1835       1945       1946       1957       1956  
      1825       1826       1837       1836       1946       1947       1958       1957  
      1827       1828       1839       1838       1948       1949       1960       1959  
      1828       1829       1840       1839       1949       1950       1961       1960  
      1829       1830       1841       1840       1950       1951       1962       1961  
      1830       1831       1842       1841       1951       1952       1963       1962  
      1831       1832       1843       1842       1952       1953       1964       1963  
      1832       1833       1844       1843       1953       1954       1965       1964  
      1833       1834       1845       1844       1954       1955       1966       1965  
      1834       1835       1846       1845       1955       1956       1967       1966  
      1835       1836       1847       1846       1956       1957       1968       1967  
      1836       1837       1848       1847       1957       1958       1969       1968  
      1838       1839       1850       1849       1959       1960       1971       1970  
      1839       1840       1851       1850       1960       1961       1972       1971  
      1840       1841       1852       1851       1961       1962       1973       1972  
      1841       1842       1853       1852       1962       1963       1974       1973  
      1842       1843       1854       1853       1963       1964       1975       1974  
      1843       1844       1855       1854       1964       1965       1976       1975  
      1844       1845       1856       1855       1965       1966       1977       1976  
      1845       1846       1857       1856       1966       1967       1978       1977  
      1846       1847       1858       1857       1967       1968       1979       1978  
      1847       1848       1859       1858       1968       1969       1980       1979  
      1849       1850       1861       1860       1970       1971       1982       1981  
      1850       1851       1862       1861       1971       1972       1983       1982  
      1851       1852       1863       1862       1972       1973       1984       1983  
      1852       1853       1864       1863       1973       1974       1985       1984  
      1853       1854       1865       1864       1974       1975       1986       1985  
      1854       1855       1866       1865       1975       1976       1987       1986  
      1855       1856       1867       1866       1976       1977       1988       1987  
      1856       1857       1868       1867       1977       1978       1989       1988  
      1857       1858       1869       1868       1978       1979       1990       1989  
      1858       1859       1870       1869       1979       1980       1991       1990  
      1860       1861       1872       1871       1981       1982       1993       1992  
      1861       1862       1873       1872       1982       1983       1994       1993  
      1862       1863       1874       1873       1983       1984       1995       1994  
      1863       1864       1875       1874       1984       1985       1996       1995  
      1864       1865       1876       1875       1985       1986       1997       1996  
      1865       1866       1877       1876       1986       1987       1998       1997  
      1866       1867       1878       1877       1987       1988       1999       1998  
      1867       1868       1879       1878       1988       1989       2000       1999  
      1868       1869       1880       1879       1989       1990       2001       2000  
      1869       1870       1881       1880       1990       1991       2002       2001  
      1871       1872       1883       1882       1992       1993       2004       2003  
      1872       1873       1884       1883       1993       1994       2005       2004  
      1873       1874       1885       1884       1994       1995       2006       2005  
      1874       1875       1886       1885       1995       1996       2007       2006  
      1875       1876       1887       1886       1996       1997       2008       2007  
      1876       1877       1888       1887       1997       1998       2009       2008  
      1877       1878       1889       1888       1998       1999       2010       2009  
      1878       1879       1890       1889       1999       2000       2011       2010  
      1879       1880       1891       1890       2000       2001       2012       2011  
      1880       1881       1892       1891       2001       2002       2013       2012  
      1882       1883       1894       1893       2003       2004       2015       2014  
      1883       1884       1895       1894       2004       2005       2016       2015  
      1884       1885       1896       1895       2005       2006       2017       2016  
      1885       1886       1897       1896       2006       2007       2018       2017  
      1886       1887       1898       1897       2007       2008       2019       2018  
      1887       1888       1899       1898       2008       2009       2020       2019  
      1888       1889       1900       1899       2009       2010       2021       2020  
      1889       1890       1901       1900       2010       2011       2022       2021  
      1890       1891       1902       1901       2011       2012       2023       2022  
      1891       1892       1903       1902       2012       2013       2024       2023  
      1893       1894       1905       1904       2014       2015       2026       2025  
      1894       1895       1906       1905       2015       2016       2027       2026  
      1895       1896       1907       1906       2016       2017       2028       2027  
      1896       1897       1908       1907       2017       2018       2029       2028  
      1897       1898       1909       1908       2018       2019       2030       2029  
      1898       1899       1910       1909       2019       2020       2031       2030  
      1899       1900       1911       1910       2020       2021       2032       2031  
      1900       1901       1912       1911       2021       2022       2033       2032  
      1901       1902       1913       1912       2022       2023       2034       2033  
      1902       1903       1914       1913       2023       2024       2035       2034  
      1904       1905       1916       1915       2025       2026       2037       2036  
      1905       1906       1917       1916       2026       2027       2038       2037  
      1906       1907       1918       1917       2027       2028       2039       2038  
      1907       1908       1919       1918       2028       2029       2040       2039  
      1908       1909       1920       1919       2029       2030       2041       2040  
      1909       1910       1921       1920       2030       2031       2042       2041  
      1910       1911       1922       1921       2031       2032       2043       2042  
      1911       1912       1923       1922       2032       2033       2044       2043  
      1912       1913       1924       1923       2033       2034       2045       2044  
      1913       1914       1925       1924       2034       2035       2046       2045  
      1915       1916       1927       1926       2036       2037       2048       2047  
      1916       1917       1928       1927       2037       2038       2049       2048  
      1917       1918       1929       1928       2038       2039       2050       2049  
      1918       1919       1930       1929       2039       2040       2051       2050  
      1919       1920       1931       1930       2040       2041       2052       2051  
      1920       1921       1932       1931       2041       2042       2053       2052  
      1921       1922       1933       1932       2042       2043       2054       2053  
      1922       1923       1934       1933       2043       2044       2055       2054  
      1923       1924       1935       1934       2044       2045       2056       2055  
      1924       1925       1936       1935       2045       2046       2057       2056  
      1937       1938       1949       1948       2058       2059       2070       2069  
      1938       1939       1950       1949       2059       2060       2071       2070  
      1939       1940       1951       1950       2060       2061       2072       2071  
      1940       1941       1952       1951       2061       2062       2073       2072  
      1941       1942       1953       1952       2062       2063       2074       2073  
      1942       1943       1954       1953       2063       2064       2075       2074  
      1943       1944       1955       1954       2064       2065       2076       2075  
      1944       1945       1956       1955       2065       2066       2077       2076  
      1945       1946       1957       1956       2066       2067       2078       2077  
      1946       1947       1958       1957       2067       2068       2079       2078  
      1948       1949       1960       1959       2069       2070       2081       2080  
      1949       1950       1961       1960       2070       2071       2082       2081  
      1950       1951       1962       1961       2071       2072       2083       2082  
      1951       1952       1963       1962       2072       2073       2084       2083  
      1952       1953       1964       1963       2073       2074       2085       2084  
      1953       1954       1965       1964       2074       2075       2086       2085  
      1954       1955       1966       1965       2075       2076       2087       2086  
      1955       1956       1967       1966       2076       2077       2088       2087  
      1956       1957       1968       1967       2077       2078       2089       2088  
      1957       1958       1969       1968       2078       2079       2090       2089  
      1959       1960       1971       1970       2080       2081       2092       2091  
      1960       1961       1972       1971       2081       2082       2093       2092  
      1961       1962       1973       1972       2082       2083       2094       2093  
      1962       1963       1974       1973       2083       2084       2095       2094  
      1963       1964       1975       1974       2084       2085       2096       2095  
      1964       1965       1976       1975       2085       2086       2097       2096  
      1965       1966       1977       1976       2086       2087       2098       2097  
      1966       1967       1978       1977       2087       2088       2099       2098  
      1967       1968       1979       1978       2088       2089       2100       2099  
      1968       1969       1980       1979       2089       2090       2101       2100  
      1970       1971       1982       1981       2091       2092       2103       2102  
      1971       1972       1983       1982       2092       2093       2104       2103  
      1972       1973       1984       1983       2093       2094       2105       2104  
      1973       1974       1985       1984       2094       2095       2106       2105  
      1974       1975       1986       1985       2095       2096       2107       2106  
      1975       1976       1987       1986       2096       2097       2108       2107  
      1976       1977       1988       1987       2097       2098       2109       2108  
      1977       1978       1989       1988       2098       2099       2110       2109  
      1978       1979       1990       1989       2099       2100       2111       2110  
      1979       1980       1991       1990       2100       2101       2112       2111  
      1981       1982       1993       1992       2102       2103       2114       2113  
      1982       1983       1994       1993       2103       2104       2115       2114  
      1983       1984       1995       1994       2104       2105       2116       2115  
      1984       1985       1996       1995       2105       2106       2117       2116  
      1985       1986       1997       1996       2106       2107       2118       2117  
      1986       1987       1998       1997       2107       2108       2119       2118  
      1987       1988       1999       1998       2108       2109       2120       2119  
      1988       1989       2000       1999       2109       2110       2121       2120  
      1989       1990       2001       2000       2110       2111       2122       2121  
      1990       1991       2002       2001       2111       2112       2123       2122  
      1992       1993       2004       2003       2113       2114       2125       2124  
      1993       1994       2005       2004       2114       2115       2126       2125  
      1994       1995       2006       2005       2115       2116       2127       2126  
      1995       1996       2007       2006       2116       2117       2128       2127  
      1996       1997       2008       2007       2117       2118       2129       2128  
      1997       1998       2009       2008       2118       2119       2130       2129  
      1998       1999       2010       2009       2119       2120       2131       2130  
      1999       2000       2011       2010       2120       2121       2132       2131  
      2000       2001       2012       2011       2121       2122       2133       2132  
      2001       2002       2013       2012       2122       2123       2134       2133  
      2003       2004       2015       2014       2124       2125       2136       2135  
      2004       2005       2016       2015       2125       2126       2137       2136  
      2005       2006       2017       2016       2126       2127       2138       2137  
      2006       2007       2018       2017       2127       2128       2139       2138  
      2007       2008       2019       2018       2128       2129       2140       2139  
      2008       2009       2020       2019       2129       2130       2141       2140  
      2009       2010       2021       2020       2130       2131       2142       2141  
      2010       2011       2022       2021       2131       2132       2143       2142  
      2011       2012       2023       2022       2132       2133       2144       2143  
      2012       2013       2024       2023       2133       2134       2145       2144  
      2014       2015       2026       2025       2135       2136       2147       2146  
      2015       2016       2027       2026       2136       2137       2148       2147  
      2016       2017       2028       2027       2137       2138       2149       2148  
      2017       2018       2029       2028       2138       2139       2150       2149  
      2018       2019       2030       2029       2139       2140       2151       2150  
      2019       2020       2031       2030       2140       2141       2152       2151  
      2020       2021       2032       2031       2141       2142       2153       2152  
      2021       2022       2033       2032       2142       2143       2154       2153  
      2022       2023       2034       2033       2143       2144       2155       2154  
      2023       2024       2035       2034       2144       2145       2156       2155  
      2025       2026       2037       2036       2146       2147       2158       2157  
      2026       2027       2038       2037       2147       2148       2159       2158  
      2027       2028       2039       2038       2148       2149       2160       2159  
      2028       2029       2040       2039       2149       2150       2161       2160  
      2029       2030       2041       2040       2150       2151       2162       2161  
      2030       2031       2042       2041       2151       2152       2163       2162  
      2031       2032       2043       2042       2152       2153       2164       2163  
      2032       2033       2044       2043       2153       2154       2165       2164  
      2033       2034       2045       2044       2154       2155       2166       2165  
      2034       2035       2046       2045       2155       2156       2167       2166  
      2036       2037       2048       2047       2157       2158       2169       2168  
      2037       2038       2049       2048       2158       2159       2170       2169  
      2038       2039       2050       2049       2159       2160       2171       2170  
      2039       2040       2051       2050       2160       2161       2172       2171  
      2040       2041       2052       2051       2161       2162       2173       2172  
      2041       2042       2053       2052       2162       2163       2174       2173  
      2042       2043       2054       2053       2163       2164       2175       2174  
      2043       2044       2055       2054       2164       2165       2176       2175  
      2044       2045       2056       2055       2165       2166       2177       2176  
      2045       2046       2057       2056       2166       2167       2178       2177  
      2058       2059       2070       2069       2179       2180       2191       2190  
      2059       2060       2071       2070       2180       2181       2192       2191  
      2060       2061       2072       2071       2181       2182       2193       2192  
      2061       2062       2073       2072       2182       2183       2194       2193  
      2062       2063       2074       2073       2183       2184       2195       2194  
      2063       2064       2075       2074       2184       2185       2196       2195  
      2064       2065       2076       2075       2185       2186       2197       2196  
      2065       2066       2077       2076       2186       2187       2198       2197  
      2066       2067       2078       2077       2187       2188       2199       2198  
      2067       2068       2079       2078       2188       2189       2200       2199  
      2069       2070       2081       2080       2190       2191       2202       2201  
      2070       2071       2082       2081       2191       2192       2203       2202  
      2071       2072       2083       2082       2192       2193       2204       2203  
      2072       2073       2084       2083       2193       2194       2205       2204  
      2073       2074       2085       2084       2194       2195       2206       2205  
      2074       2075       2086       2085       2195       2196       2207       2206  
      2075       2076       2087       2086       2196       2197       2208       2207  
      2076       2077       2088       2087       2197       2198       2209       2208  
      2077       2078       2089       2088       2198       2199       2210       2209  
      2078       2079       2090       2089       2199       2200       2211       2210  
      2080       2081       2092       2091       2201       2202       2213       2212  
      2081       2082       2093       2092       2202       2203       2214       2213  
      2082       2083       2094       2093       2203       2204       2215       2214  
      2083       2084       2095       2094       2204       2205       2216       2215  
      2084       2085       2096       2095       2205       2206       2217       2216  
      2085       2086       2097       2096       2206       2207       2218       2217  
      2086       2087       2098       2097       2207       2208       2219       2218  
      2087       2088       2099       2098       2208       2209       2220       2219  
      2088       2089       2100       2099       2209       2210       2221       2220  
      2089       2090       2101       2100       2210       2211       2222       2221  
      2091       2092       2103       2102       2212       2213       2224       2223  
      2092       2093       2104       2103       2213       2214       2225       2224  
      2093       2094       2105       2104       2214       2215       2226       2225  
      2094       2095       2106       2105       2215       2216       2227       2226  
      2095       2096       2107       2106       2216       2217       2228       2227  
      2096       2097       2108       2107       2217       2218       2229       2228  
      2097       2098       2109       2108       2218       2219       2230       2229  
      2098       2099       2110       2109       2219       2220       2231       2230  
      2099       2100       2111       2110       2220       2221       2232       2231  
      2100       2101       2112       2111       2221       2222       2233       2232  
      2102       2103       2114       2113       2223       2224       2235       2234  
      2103       2104       2115       2114       2224       2225       2236       2235  
      2104       2105       2116       2115       2225       2226       2237       2236  
      2105       2106       2117       2116       2226       2227       2238       2237  
      2106       2107       2118       2117       2227       2228       2239       2238  
      2107       2108       2119       2118       2228       2229       2240       2239  
      2108       2109       2120       2119       2229       2230       2241       2240  
      2109       2110       2121       2120       2230       2231       2242       2241  
      2110       2111       2122       2121       2231       2232       2243       2242  
      2111       2112       2123       2122       2232       2233       2244       2243  
      2113       2114       2125       2124       2234       2235       2246       2245  
      2114       2115       2126       2125       2235       2236       2247       2246  
      2115       2116       2127       2126       2236       2237       2248       2247  
      2116       2117       2128       2127       2237       2238       2249       2248  
      2117       2118       2129       2128       2238       2239       2250       2249  
      2118       2119       2130       2129       2239       2240       2251       2250  
      2119       2120       2131       2130       2240       2241       2252       2251  
      2120       2121       2132       2131       2241       2242       2253       2252  
      2121       2122       2133       2132       2242       2243       2254       2253  
      2122       2123       2134       2133       2243       2244       2255       2254  
      2124       2125       2136       2135       2245       2246       2257       2256  
      2125       2126       2137       2136       2246       2247       2258       2257  
      2126       2127       2138       2137       2247       2248       2259       2258  
      2127       2128       2139       2138       2248       2249       2260       2259  
      2128       2129       2140       2139       2249       2250       2261       2260  
      2129       2130       2141       2140       2250       2251       2262       2261  
      2130       2131       2142       2141       2251       2252       2263       2262  
      2131       2132       2143       2142       2252       2253       2264       2263  
      2132       2133       2144       2143       2253       2254       2265       2264  
      2133       2134       2145       2144       2254       2255       2266       2265  
      2135       2136       2147       2146       2256       2257       2268       2267  
      2136       2137       2148       2147       2257       2258       2269       2268  
      2137       2138       2149       2148       2258       2259       2270       2269  
      2138       2139       2150       2149       2259       2260       2271       2270  
      2139       2140       2151       2150       2260       2261       2272       2271  
      2140       2141       2152       2151       2261       2262       2273       2272  
      2141       2142       2153       2152       2262       2263       2274       2273  
      2142       2143       2154       2153       2263       2264       2275       2274  
      2143       2144       2155       2154       2264       2265       2276       2275  
      2144       2145       2156       2155       2265       2266       2277       2276  
      2146       2147       2158       2157       2267       2268       2279       2278  
      2147       2148       2159       2158       2268       2269       2280       2279  
      2148       2149       2160       2159       2269       2270       2281       2280  
      2149       2150       2161       2160       2270       2271       2282       2281  
      2150       2151       2162       2161       2271       2272       2283       2282  
      2151       2152       2163       2162       2272       2273       2284       2283  
      2152       2153       2164       2163       2273       2274       2285       2284  
      2153       2154       2165       2164       2274       2275       2286       2285  
      2154       2155       2166       2165       2275       2276       2287       2286  
      2155       2156       2167       2166       2276       2277       2288       2287  
      2157       2158       2169       2168       2278       2279       2290       2289  
      2158       2159       2170       2169       2279       2280       2291       2290  
      2159       2160       2171       2170       2280       2281       2292       2291  
      2160       2161       2172       2171       2281       2282       2293       2292  
      2161       2162       2173       2172       2282       2283       2294       2293  
      2162       2163       2174       2173       2283       2284       2295       2294  
      2163       2164       2175       2174       2284       2285       2296       2295  
      2164       2165       2176       2175       2285       2286       2297       2296  
      2165       2166       2177       2176       2286       2287       2298       2297  
      2166       2167       2178       2177       2287       2288       2299       2298  
      2179       2180       2191       2190       2300       2301       2312       2311  
      2180       2181       2192       2191       2301       2302       2313       2312  
      2181       2182       2193       2192       2302       2303       2314       2313  
      2182       2183       2194       2193       2303       2304       2315       2314  
      2183       2184       2195       2194       2304       2305       2316       2315  
      2184       2185       2196       2195       2305       2306       2317       2316  
      2185       2186       2197       2196       2306       2307       2318       2317  
      2186       2187       2198       2197       2307       2308       2319       2318  
      2187       2188       2199       2198       2308       2309       2320       2319  
      2188       2189       2200       2199       2309       2310       2321       2320  
      2190       2191       2202       2201       2311       2312       2323       2322  
      2191       2192       2203       2202       2312       2313       2324       2323  
      2192       2193       2204       2203       2313       2314       2325       2324  
      2193       2194       2205       2204       2314       2315       2326       2325  
      2194       2195       2206       2205       2315       2316       2327       2326  
      2195       2196       2207       2206       2316       2317       2328       2327  
      2196       2197       2208       2207       2317       2318       2329       2328  
      2197       2198       2209       2208       2318       2319       2330       2329  
      2198       2199       2210       2209       2319       2320       2331       2330  
      2199       2200       2211       2210       2320       2321       2332       2331  
      2201       2202       2213       2212       2322       2323       2334       2333  
      2202       2203       2214       2213       2323       2324       2335       2334  
      2203       2204       2215       2214       2324       2325       2336       2335  
      2204       2205       2216       2215       2325       2326       2337       2336  
      2205       2206       2217       2216       2326       2327       2338       2337  
      2206       2207       2218       2217       2327       2328       2339       2338  
      2207       2208       2219       2218       2328       2329       2340       2339  
      2208       2209       2220       2219       2329       2330       2341       2340  
      2209       2210       2221       2220       2330       2331       2342       2341  
      2210       2211       2222       2221       2331       2332       2343       2342  
      2212       2213       2224       2223       2333       2334       2345       2344  
      2213       2214       2225       2224       2334       2335       2346       2345  
      2214       2215       2226       2225       2335       2336       2347       2346  
      2215       2216       2227       2226       2336       2337       2348       2347  
      2216       2217       2228       2227       2337       2338       2349       2348  
      2217       2218       2229       2228       2338       2339       2350       2349  
      2218       2219       2230       2229       2339       2340       2351       2350  
      2219       2220       2231       2230       2340       2341       2352       2351  
      2220       2221       2232       2231       2341       2342       2353       2352  
      2221       2222       2233       2232       2342       2343       2354       2353  
      2223       2224       2235       2234       2344       2345       2356       2355  
      2224       2225       2236       2235       2345       2346       2357       2356  
      2225       2226       2237       2236       2346       2347       2358       2357  
      2226       2227       2238       2237       2347       2348       2359       2358  
      2227       2228       2239       2238       2348       2349       2360       2359  
      2228       2229       2240       2239       2349       2350       2361       2360  
      2229       2230       2241       2240       2350       2351       2362       2361  
      2230       2231       2242       2241       2351       2352       2363       2362  
      2231       2232       2243       2242       2352       2353       2364       2363  
      2232       2233       2244       2243       2353       2354       2365       2364  
      2234       2235       2246       2245       2355       2356       2367       2366  
      2235       2236       2247       2246       2356       2357       2368       2367  
      2236       2237       2248       2247       2357       2358       2369       2368  
      2237       2238       2249       2248       2358       2359       2370       2369  
      2238       2239       2250       2249       2359       2360       2371       2370  
      2239       2240       2251       2250       2360       2361       2372       2371  
      2240       2241       2252       2251       2361       2362       2373       2372  
      2241       2242       2253       2252       2362       2363       2374       2373  
      2242       2243       2254       2253       2363       2364       2375       2374  
      2243       2244       2255       2254       2364       2365       2376       2375  
      2245       2246       2257       2256       2366       2367       2378       2377  
      2246       2247       2258       2257       2367       2368       2379       2378  
      2247       2248       2259       2258       2368       2369       2380       2379  
      2248       2249       2260       2259       2369       2370       2381       2380  
      2249       2250       2261       2260       2370       2371       2382       2381  
      2250       2251       2262       2261       2371       2372       2383       2382  
      2251       2252       2263       2262       2372       2373       2384       2383  
      2252       2253       2264       2263       2373       2374       2385       2384  
      2253       2254       2265       2264       2374       2375       2386       2385  
      2254       2255       2266       2265       2375       2376       2387       2386  
      2256       2257       2268       2267       2377       2378       2389       2388  
      2257       2258       2269       2268       2378       2379       2390       2389  
      2258       2259       2270       2269       2379       2380       2391       2390  
      2259       2260       2271       2270       2380       2381       2392       2391  
      2260       2261       2272       2271       2381       2382       2393       2392  
      2261       2262       2273       2272       2382       2383       2394       2393  
      2262       2263       2274       2273       2383       2384       2395       2394  
      2263       2264       2275       2274       2384       2385       2396       2395  
      2264       2265       2276       2275       2385       2386       2397       2396  
      2265       2266       2277       2276       2386       2387       2398       2397  
      2267       2268       2279       2278       2388       2389       2400       2399  
      2268       2269       2280       2279       2389       2390       2401       2400  
      2269       2270       2281       2280       2390       2391       2402       2401  
      2270       2271       2282       2281       2391       2392       2403       2402  
      2271       2272       2283       2282       2392       2393       2404       2403  
      2272       2273       2284       2283       2393       2394       2405       2404  
      2273       2274       2285       2284       2394       2395       2406       2405  
      2274       2275       2286       2285       2395       2396       2407       2406  
      2275       2276       2287       2286       2396       2397       2408       2407  
      2276       2277       2288       2287       2397       2398       2409       2408  
      2278       2279       2290       2289       2399       2400       2411       2410  
      2279       2280       2291       2290       2400       2401       2412       2411  
      2280       2281       2292       2291       2401       2402       2413       2412  
      2281       2282       2293       2292       2402       2403       2414       2413  
      2282       2283       2294       2293       2403       2404       2415       2414  
      2283       2284       2295       2294       2404       2405       2416       2415  
      2284       2285       2296       2295       2405       2406       2417       2416  
      2285       2286       2297       2296       2406       2407       2418       2417  
      2286       2287       2298       2297       2407       2408       2419       2418  
      2287       2288       2299       2298       2408       2409       2420       2419  
      2300       2301       2312       2311       2421       2422       2433       2432  
      2301       2302       2313       2312       2422       2423       2434       2433  
      2302       2303       2314       2313       2423       2424       2435       2434  
      2303       2304       2315       2314       2424       2425       2436       2435  
      2304       2305       2316       2315       2425       2426       2437       2436  
      2305       2306       2317       2316       2426       2427       2438       2437  
      2306       2307       2318       2317       2427       2428       2439       2438  
      2307       2308       2319       2318       2428       2429       2440       2439  
      2308       2309       2320       2319       2429       2430       2441       2440  
      2309       2310       2321       2320       2430       2431       2442       2441  
      2311       2312       2323       2322       2432       2433       2444       2443  
      2312       2313       2324       2323       2433       2434       2445       2444  
      2313       2314       2325       2324       2434       2435       2446       2445  
      2314       2315       2326       2325       2435       2436       2447       2446  
      2315       2316       2327       2326       2436       2437       2448       2447  
      2316       2317       2328       2327       2437       2438       2449       2448  
      2317       2318       2329       2328       2438       2439       2450       2449  
      2318       2319       2330       2329       2439       2440       2451       2450  
      2319       2320       2331       2330       2440       2441       2452       2451  
      2320       2321       2332       2331       2441       2442       2453       2452  
      2322       2323       2334       2333       2443       2444       2455       2454  
      2323       2324       2335       2334       2444       2445       2456       2455  
      2324       2325       2336       2335       2445       2446       2457       2456  
      2325       2326       2337       2336       2446       2447       2458       2457  
      2326       2327       2338       2337       2447       2448       2459       2458  
      2327       2328       2339       2338       2448       2449       2460       2459  
      2328       2329       2340       2339       2449       2450       2461       2460  
      2329       2330       2341       2340       2450       2451       2462       2461  
      2330       2331       2342       2341       2451       2452       2463       2462  
      2331       2332       2343       2342       2452       2453       2464       2463  
      2333       2334       2345       2344       2454       2455       2466       2465  
      2334       2335       2346       2345       2455       2456       2467       2466  
      2335       2336       2347       2346       2456       2457       2468       2467  
      2336       2337       2348       2347       2457       2458       2469       2468  
      2337       2338       2349       2348       2458       2459       2470       2469  
      2338       2339       2350       2349       2459       2460       2471       2470  
      2339       2340       2351       2350       2460       2461       2472       2471  
      2340       2341       2352       2351       2461       2462       2473       2472  
      2341       2342       2353       2352       2462       2463       2474       2473  
      2342       2343       2354       2353       2463       2464       2475       2474  
      2344       2345       2356       2355       2465       2466       2477       2476  
      2345       2346       2357       2356       2466       2467       2478       2477  
      2346       2347       2358       2357       2467       2468       2479       2478  
      2347       2348       2359       2358       2468       2469       2480       2479  
      2348       2349       2360       2359       2469       2470       2481       2480  
      2349       2350       2361       2360       2470       2471       2482       2481  
      2350       2351       2362       2361       2471       2472       2483       2482  
      2351       2352       2363       2362       2472       2473       2484       2483  
      2352       2353       2364       2363       2473       2474       2485       2484  
      2353       2354       2365       2364       2474       2475       2486       2485  
      2355       2356       2367       2366       2476       2477       2488       2487  
      2356       2357       2368       2367       2477       2478       2489       2488  
      2357       2358       2369       2368       2478       2479       2490       2489  
      2358       2359       2370       2369       2479       2480       2491       2490  
      2359       2360       2371       2370       2480       2481       2492       2491  
      2360       2361       2372       2371       2481       2482       2493       2492  
      2361       2362       2373       2372       2482       2483       2494       2493  
      2362       2363       2374       2373       2483       2484       2495       2494  
      2363       2364       2375       2374       2484       2485       2496       2495  
      2364       2365       2376       2375       2485       2486       2497       2496  
      2366       2367       2378       2377       2487       2488       2499       2498  
      2367       2368       2379       2378       2488       2489       2500       2499  
      2368       2369       2380       2379       2489       2490       2501       2500  
      2369       2370       2381       2380       2490       2491       2502       2501  
      2370       2371       2382       2381       2491       2492       2503       2502  
      2371       2372       2383       2382       2492       2493       2504       2503  
      2372       2373       2384       2383       2493       2494       2505       2504  
      2373       2374       2385       2384       2494       2495       2506       2505  
      2374       2375       2386       2385       2495       2496       2507       2506  
      2375       2376       2387       2386       2496       2497       2508       2507  
      2377       2378       2389       2388       2498       2499       2510       2509  
      2378       2379       2390       2389       2499       2500       2511       2510  
      2379       2380       2391       2390       2500       2501       2512       2511  
      2380       2381       2392       2391       2501       2502       2513       2512  
      2381       2382       2393       2392       2502       2503       2514       2513  
      2382       2383       2394       2393       2503       2504       2515       2514  
      2383       2384       2395       2394       2504       2505       2516       2515  
      2384       2385       2396       2395       2505       2506       2517       2516  
      2385       2386       2397       2396       2506       2507       2518       2517  
      2386       2387       2398       2397       2507       2508       2519       2518  
      2388       2389       2400       2399       2509       2510       2521       2520  
      2389       2390       2401       2400       2510       2511       2522       2521  
      2390       2391       2402       2401       2511       2512       2523       2522  
      2391       2392       2403       2402       2512       2513       2524       2523  
      2392       2393       2404       2403       2513       2514       2525       2524  
      2393       2394       2405       2404       2514       2515       2526       2525  
      2394       2395       2406       2405       2515       2516       2527       2526  
      2395       2396       2407       2406       2516       2517       2528       2527  
      2396       2397       2408       2407       2517       2518       2529       2528  
      2397       2398       2409       2408       2518       2519       2530       2529  
      2399       2400       2411       2410       2520       2521       2532       2531  
      2400       2401       2412       2411       2521       2522       2533       2532  
      2401       2402       2413       2412       2522       2523       2534       2533  
      2402       2403       2414       2413       2523       2524       2535       2534  
      2403       2404       2415       2414       2524       2525       2536       2535  
      2404       2405       2416       2415       2525       2526       2537       2536  
      2405       2406       2417       2416       2526       2527       2538       2537  
      2406       2407       2418       2417       2527       2528       2539       2538  
      2407       2408       2419       2418       2528       2529       2540       2539  
      2408       2409       2420       2419       2529       2530       2541       2540  
      2421       2422       2433       2432       2542       2543       2554       2553  
      2422       2423       2434       2433       2543       2544       2555       2554  
      2423       2424       2435       2434       2544       2545       2556       2555  
      2424       2425       2436       2435       2545       2546       2557       2556  
      2425       2426       2437       2436       2546       2547       2558       2557  
      2426       2427       2438       2437       2547       2548       2559       2558  
      2427       2428       2439       2438       2548       2549       2560       2559  
      2428       2429       2440       2439       2549       2550       2561       2560  
      2429       2430       2441       2440       2550       2551       2562       2561  
      2430       2431       2442       2441       2551       2552       2563       2562  
      2432       2433       2444       2443       2553       2554       2565       2564  
      2433       2434       2445       2444       2554       2555       2566       2565  
      2434       2435       2446       2445       2555       2556       2567       2566  
      2435       2436       2447       2446       2556       2557       2568       2567  
      2436       2437       2448       2447       2557       2558       2569       2568  
      2437       2438       2449       2448       2558       2559       2570       2569  
      2438       2439       2450       2449       2559       2560       2571       2570  
      2439       2440       2451       2450       2560       2561       2572       2571  
      2440       2441       2452       2451       2561       2562       2573       2572  
      2441       2442       2453       2452       2562       2563       2574       2573  
      2443       2444       2455       2454       2564       2565       2576       2575  
      2444       2445       2456       2455       2565       2566       2577       2576  
      2445       2446       2457       2456       2566       2567       2578       2577  
      2446       2447       2458       2457       2567       2568       2579       2578  
      2447       2448       2459       2458       2568       2569       2580       2579  
      2448       2449       2460       2459       2569       2570       2581       2580  
      2449       2450       2461       2460       2570       2571       2582       2581  
      2450       2451       2462       2461       2571       2572       2583       2582  
      2451       2452       2463       2462       2572       2573       2584       2583  
      2452       2453       2464       2463       2573       2574       2585       2584  
      2454       2455       2466       2465       2575       2576       2587       2586  
      2455       2456       2467       2466       2576       2577       2588       2587  
      2456       2457       2468       2467       2577       2578       2589       2588  
      2457       2458       2469       2468       2578       2579       2590       2589  
      2458       2459       2470       2469       2579       2580       2591       2590  
      2459       2460       2471       2470       2580       2581       2592       2591  
      2460       2461       2472       2471       2581       2582       2593       2592  
      2461       2462       2473       2472       2582       2583       2594       2593  
      2462       2463       2474       2473       2583       2584       2595       2594  
      2463       2464       2475       2474       2584       2585       2596       2595  
      2465       2466       2477       2476       2586       2587       2598       2597  
      2466       2467       2478       2477       2587       2588       2599       2598  
      2467       2468       2479       2478       2588       2589       2600       2599  
      2468       2469       2480       2479       2589       2590       2601       2600  
      2469       2470       2481       2480       2590       2591       2602       2601  
      2470       2471       2482       2481       2591       2592       2603       2602  
      2471       2472       2483       2482       2592       2593       2604       2603  
      2472       2473       2484       2483       2593       2594       2605       2604  
      2473       2474       2485       2484       2594       2595       2606       2605  
      2474       2475       2486       2485       2595       2596       2607       2606  
      2476       2477       2488       2487       2597       2598       2609       2608  
      2477       2478       2489       2488       2598       2599       2610       2609  
      2478       2479       2490       2489       2599       2600       2611       2610  
      2479       2480       2491       2490       2600       2601       2612       2611  
      2480       2481       2492       2491       2601       2602       2613       2612  
      2481       2482       2493       2492       2602       2603       2614       2613  
      2482       2483       2494       2493       2603       2604       2615       2614  
      2483       2484       2495       2494       2604       2605       2616       2615  
      2484       2485       2496       2495       2605       2606       2617       2616  
      2485       2486       2497       2496       2606       2607       2618       2617  
      2487       2488       2499       2498       2608       2609       2620       2619  
      2488       2489       2500       2499       2609       2610       2621       2620  
      2489       2490       2501       2500       2610       2611       2622       2621  
      2490       2491       2502       2501       2611       2612       2623       2622  
      2491       2492       2503       2502       2612       2613       2624       2623  
      2492       2493       2504       2503       2613       2614       2625       2624  
      2493       2494       2505       2504       2614       2615       2626       2625  
      2494       2495       2506       2505       2615       2616       2627       2626  
      2495       2496       2507       2506       2616       2617       2628       2627  
      2496       2497       2508       2507       2617       2618       2629       2628  
      2498       2499       2510       2509       2619       2620       2631       2630  
      2499       2500       2511       2510       2620       2621       2632       2631  
      2500       2501       2512       2511       2621       2622       2633       2632  
      2501       2502       2513       2512       2622       2623       2634       2633  
      2502       2503       2514       2513       2623       2624       2635       2634  
      2503       2504       2515       2514       2624       2625       2636       2635  
      2504       2505       2516       2515       2625       2626       2637       2636  
      2505       2506       2517       2516       2626       2627       2638       2637  
      2506       2507       2518       2517       2627       2628       2639       2638  
      2507       2508       2519       2518       2628       2629       2640       2639  
      2509       2510       2521       2520       2630       2631       2642       2641  
      2510       2511       2522       2521       2631       2632       2643       2642  
      2511       2512       2523       2522       2632       2633       2644       2643  
      2512       2513       2524       2523       2633       2634       2645       2644  
      2513       2514       2525       2524       2634       2635       2646       2645  
      2514       2515       2526       2525       2635       2636       2647       2646  
      2515       2516       2527       2526       2636       2637       2648       2647  
      2516       2517       2528       2527       2637       2638       2649       2648  
      2517       2518       2529       2528       2638       2639       2650       2649  
      2518       2519       2530       2529       2639       2640       2651       2650  
      2520       2521       2532       2531       2641       2642       2653       2652  
      2521       2522       2533       2532       2642       2643       2654       2653  
      2522       2523       2534       2533       2643       2644       2655       2654  
      2523       2524       2535       2534       2644       2645       2656       2655  
      2524       2525       2536       2535       2645       2646       2657       2656  
      2525       2526       2537       2536       2646       2647       2658       2657  
      2526       2527       2538       2537       2647       2648       2659       2658  
      2527       2528       2539       2538       2648       2649       2660       2659  
      2528       2529       2540       2539       2649       2650       2661       2660  
      2529       2530       2541       2540       2650       2651       2662       2661  
      2542       2543       2554       2553       2663       2664       2675       2674  
      2543       2544       2555       2554       2664       2665       2676       2675  
      2544       2545       2556       2555       2665       2666       2677       2676  
      2545       2546       2557       2556       2666       2667       2678       2677  
      2546       2547       2558       2557       2667       2668       2679       2678  
      2547       2548       2559       2558       2668       2669       2680       2679  
      2548       2549       2560       2559       2669       2670       2681       2680  
      2549       2550       2561       2560       2670       2671       2682       2681  
      2550       2551       2562       2561       2671       2672       2683       2682  
      2551       2552       2563       2562       2672       2673       2684       2683  
      2553       2554       2565       2564       2674       2675       2686       2685  
      2554       2555       2566       2565       2675       2676       2687       2686  
      2555       2556       2567       2566       2676       2677       2688       2687  
      2556       2557       2568       2567       2677       2678       2689       2688  
      2557       2558       2569       2568       2678       2679       2690       2689  
      2558       2559       2570       2569       2679       2680       2691       2690  
      2559       2560       2571       2570       2680       2681       2692       2691  
      2560       2561       2572       2571       2681       2682       2693       2692  
      2561       2562       2573       2572       2682       2683       2694       2693  
      2562       2563       2574       2573       2683       2684       2695       2694  
      2564       2565       2576       2575       2685       2686       2697       2696  
      2565       2566       2577       2576       2686       2687       2698       2697  
      2566       2567       2578       2577       2687       2688       2699       2698  
      2567       2568       2579       2578       2688       2689       2700       2699  
      2568       2569       2580       2579       2689       2690       2701       2700  
      2569       2570       2581       2580       2690       2691       2702       2701  
      2570       2571       2582       2581       2691       2692       2703       2702  
      2571       2572       2583       2582       2692       2693       2704       2703  
      2572       2573       2584       2583       2693       2694       2705       2704  
      2573       2574       2585       2584       2694       2695       2706       2705  
      2575       2576       2587       2586       2696       2697       2708       2707  
      2576       2577       2588       2587       2697       2698       2709       2708  
      2577       2578       2589       2588       2698       2699       2710       2709  
      2578       2579       2590       2589       2699       2700       2711       2710  
      2579       2580       2591       2590       2700       2701       2712       2711  
      2580       2581       2592       2591       2701       2702       2713       2712  
      2581       2582       2593       2592       2702       2703       2714       2713  
      2582       2583       2594       2593       2703       2704       2715       2714  
      2583       2584       2595       2594       2704       2705       2716       2715  
      2584       2585       2596       2595       2705       2706       2717       2716  
      2586       2587       2598       2597       2707       2708       2719       2718  
      2587       2588       2599       2598       2708       2709       2720       2719  
      2588       2589       2600       2599       2709       2710       2721       2720  
      2589       2590       2601       2600       2710       2711       2722       2721  
      2590       2591       2602       2601       2711       2712       2723       2722  
      2591       2592       2603       2602       2712       2713       2724       2723  
      2592       2593       2604       2603       2713       2714       2725       2724  
      2593       2594       2605       2604       2714       2715       2726       2725  
      2594       2595       2606       2605       2715       2716       2727       2726  
      2595       2596       2607       2606       2716       2717       2728       2727  
      2597       2598       2609       2608       2718       2719       2730       2729  
      2598       2599       2610       2609       2719       2720       2731       2730  
      2599       2600       2611       2610       2720       2721       2732       2731  
      2600       2601       2612       2611       2721       2722       2733       2732  
      2601       2602       2613       2612       2722       2723       2734       2733  
      2602       2603       2614       2613       2723       2724       2735       2734  
      2603       2604       2615       2614       2724       2725       2736       2735  
      2604       2605       2616       2615       2725       2726       2737       2736  
      2605       2606       2617       2616       2726       2727       2738       2737  
      2606       2607       2618       2617       2727       2728       2739       2738  
      2608       2609       2620       2619       2729       2730       2741       2740  
      2609       2610       2621       2620       2730       2731       2742       2741  
      2610       2611       2622       2621       2731       2732       2743       2742  
      2611       2612       2623       2622       2732       2733       2744       2743  
      2612       2613       2624       2623       2733       2734       2745       2744  
      2613       2614       2625       2624       2734       2735       2746       2745  
      2614       2615       2626       2625       2735       2736       2747       2746  
      2615       2616       2627       2626       2736       2737       2748       2747  
      2616       2617       2628       2627       2737       2738       2749       2748  
      2617       2618       2629       2628       2738       2739       2750       2749  
      2619       2620       2631       2630       2740       2741       2752       2751  
      2620       2621       2632       2631       2741       2742       2753       2752  
      2621       2622       2633       2632       2742       2743       2754       2753  
      2622       2623       2634       2633       2743       2744       2755       2754  
      2623       2624       2635       2634       2744       2745       2756       2755  
      2624       2625       2636       2635       2745       2746       2757       2756  
      2625       2626       2637       2636       2746       2747       2758       2757  
      2626       2627       2638       2637       2747       2748       2759       2758  
      2627       2628       2639       2638       2748       2749       2760       2759  
      2628       2629       2640       2639       2749       2750       2761       2760  
      2630       2631       2642       2641       2751       2752       2763       2762  
      2631       2632       2643       2642       2752       2753       2764       2763  
      2632       2633       2644       2643       2753       2754       2765       2764  
      2633       2634       2645       2644       2754       2755       2766       2765  
      2634       2635       2646       2645       2755       2756       2767       2766  
      2635       2636       2647       2646       2756       2757       2768       2767  
      2636       2637       2648       2647       2757       2758       2769       2768  
      2637       2638       2649       2648       2758       2759       2770       2769  
      2638       2639       2650       2649       2759       2760       2771       2770  
      2639       2640       2651       2650       2760       2761       2772       2771  
      2641       2642       2653       2652       2762       2763       2774       2773  
      2642       2643       2654       2653       2763       2764       2775       2774  
      2643       2644       2655       2654       2764       2765       2776       2775  
      2644       2645       2656       2655       2765       2766       2777       2776  
      2645       2646       2657       2656       2766       2767       2778       2777  
      2646       2647       2658       2657       2767       2768       2779       2778  
      2647       2648       2659       2658       2768       2769       2780       2779  
      2648       2649       2660       2659       2769       2770       2781       2780  
      2649       2650       2661       2660       2770       2771       2782       2781  
      2650       2651       2662       2661       2771       2772       2783       2782  
      2663       2664       2675       2674       2784       2785       2796       2795  
      2664       2665       2676       2675       2785       2786       2797       2796  
      2665       2666       2677       2676       2786       2787       2798       2797  
      2666       2667       2678       2677       2787       2788       2799       2798  
      2667       2668       2679       2678       2788       2789       2800       2799  
      2668       2669       2680       2679       2789       2790       2801       2800  
      2669       2670       2681       2680       2790       2791       2802       2801  
      2670       2671       2682       2681       2791       2792       2803       2802  
      2671       2672       2683       2682       2792       2793       2804       2803  
      2672       2673       2684       2683       2793       2794       2805       2804  
      2674       2675       2686       2685       2795       2796       2807       2806  
      2675       2676       2687       2686       2796       2797       2808       2807  
      2676       2677       2688       2687       2797       2798       2809       2808  
      2677       2678       2689       2688       2798       2799       2810       2809  
      2678       2679       2690       2689       2799       2800       2811       2810  
      2679       2680       2691       2690       2800       2801       2812       2811  
      2680       2681       2692       2691       2801       2802       2813       2812  
      2681       2682       2693       2692       2802       2803       2814       2813  
      2682       2683       2694       2693       2803       2804       2815       2814  
      2683       2684       2695       2694       2804       2805       2816       2815  
      2685       2686       2697       2696       2806       2807       2818       2817  
      2686       2687       2698       2697       2807       2808       2819       2818  
      2687       2688       2699       2698       2808       2809       2820       2819  
      2688       2689       2700       2699       2809       2810       2821       2820  
      2689       2690       2701       2700       2810       2811       2822       2821  
      2690       2691       2702       2701       2811       2812       2823       2822  
      2691       2692       2703       2702       2812       2813       2824       2823  
      2692       2693       2704       2703       2813       2814       2825       2824  
      2693       2694       2705       2704       2814       2815       2826       2825  
      2694       2695       2706       2705       2815       2816       2827       2826  
      2696       2697       2708       2707       2817       2818       2829       2828  
      2697       2698       2709       2708       2818       2819       2830       2829  
      2698       2699       2710       2709       2819       2820       2831       2830  
      2699       2700       2711       2710       2820       2821       2832       2831  
      2700       2701       2712       2711       2821       2822       2833       2832  
      2701       2702       2713       2712       2822       2823       2834       2833  
      2702       2703       2714       2713       2823       2824       2835       2834  
      2703       2704       2715       2714       2824       2825       2836       2835  
      2704       2705       2716       2715       2825       2826       2837       2836  
      2705       2706       2717       2716       2826       2827       2838       2837  
      2707       2708       2719       2718       2828       2829       2840       2839  
      2708       2709       2720       2719       2829       2830       2841       2840  
      2709       2710       2721       2720       2830       2831       2842       2841  
      2710       2711       2722       2721       2831       2832       2843       2842  
      2711       2712       2723       2722       2832       2833       2844       2843  
      2712       2713       2724       2723       2833       2834       2845       2844  
      2713       2714       2725       2724       2834       2835       2846       2845  
      2714       2715       2726       2725       2835       2836       2847       2846  
      2715       2716       2727       2726       2836       2837       2848       2847  
      2716       2717       2728       2727       2837       2838       2849       2848  
      2718       2719       2730       2729       2839       2840       2851       2850  
      2719       2720       2731       2730       2840       2841       2852       2851  
      2720       2721       2732       2731       2841       2842       2853       2852  
      2721       2722       2733       2732       2842       2843       2854       2853  
      2722       2723       2734       2733       2843       2844       2855       2854  
      2723       2724       2735       2734       2844       2845       2856       2855  
      2724       2725       2736       2735       2845       2846       2857       2856  
      2725       2726       2737       2736       2846       2847       2858       2857  
      2726       2727       2738       2737       2847       2848       2859       2858  
      2727       2728       2739       2738       2848       2849       2860       2859  
      2729       2730       2741       2740       2850       2851       2862       2861  
      2730       2731       2742       2741       2851       2852       2863       2862  
      2731       2732       2743       2742       2852       2853       2864       2863  
      2732       2733       2744       2743       2853       2854       2865       2864  
      2733       2734       2745       2744       2854       2855       2866       2865  
      2734       2735       2746       2745       2855       2856       2867       2866  
      2735       2736       2747       2746       2856       2857       2868       2867  
      2736       2737       2748       2747       2857       2858       2869       2868  
      2737       2738       2749       2748       2858       2859       2870       2869  
      2738       2739       2750       2749       2859       2860       2871       2870  
      2740       2741       2752       2751       2861       2862       2873       2872  
      2741       2742       2753       2752       2862       2863       2874       2873  
      2742       2743       2754       2753       2863       2864       2875       2874  
      2743       2744       2755       2754       2864       2865       2876       2875  
      2744       2745       2756       2755       2865       2866       2877       2876  
      2745       2746       2757       2756       2866       2867       2878       2877  
      2746       2747       2758       2757       2867       2868       2879       2878  
      2747       2748       2759       2758       2868       2869       2880       2879  
      2748       2749       2760       2759       2869       2870       2881       2880  
      2749       2750       2761       2760       2870       2871       2882       2881  
      2751       2752       2763       2762       2872       2873       2884       2883  
      2752       2753       2764       2763       2873       2874       2885       2884  
      2753       2754       2765       2764       2874       2875       2886       2885  
      2754       2755       2766       2765       2875       2876       2887       2886  
      2755       2756       2767       2766       2876       2877       2888       2887  
      2756       2757       2768       2767       2877       2878       2889       2888  
      2757       2758       2769       2768       2878       2879       2890       2889  
      2758       2759       2770       2769       2879       2880       2891       2890  
      2759       2760       2771       2770       2880       2881       2892       2891  
      2760       2761       2772       2771       2881       2882       2893       2892  
      2762       2763       2774       2773       2883       2884       2895       2894  
      2763       2764       2775       2774       2884       2885       2896       2895  
      2764       2765       2776       2775       2885       2886       2897       2896  
      2765       2766       2777       2776       2886       2887       2898       2897  
      2766       2767       2778       2777       2887       2888       2899       2898  
      2767       2768       2779       2778       2888       2889       2900       2899  
      2768       2769       2780       2779       2889       2890       2901       2900  
      2769       2770       2781       2780       2890       2891       2902       2901  
      2770       2771       2782       2781       2891       2892       2903       2902  
      2771       2772       2783       2782       2892       2893       2904       2903  
      2784       2785       2796       2795       2905       2906       2917       2916  
      2785       2786       2797       2796       2906       2907       2918       2917  
      2786       2787       2798       2797       2907       2908       2919       2918  
      2787       2788       2799       2798       2908       2909       2920       2919  
      2788       2789       2800       2799       2909       2910       2921       2920  
      2789       2790       2801       2800       2910       2911       2922       2921  
      2790       2791       2802       2801       2911       2912       2923       2922  
      2791       2792       2803       2802       2912       2913       2924       2923  
      2792       2793       2804       2803       2913       2914       2925       2924  
      2793       2794       2805       2804       2914       2915       2926       2925  
      2795       2796       2807       2806       2916       2917       2928       2927  
      2796       2797       2808       2807       2917       2918       2929       2928  
      2797       2798       2809       2808       2918       2919       2930       2929  
      2798       2799       2810       2809       2919       2920       2931       2930  
      2799       2800       2811       2810       2920       2921       2932       2931  
      2800       2801       2812       2811       2921       2922       2933       2932  
      2801       2802       2813       2812       2922       2923       2934       2933  
      2802       2803       2814       2813       2923       2924       2935       2934  
      2803       2804       2815       2814       2924       2925       2936       2935  
      2804       2805       2816       2815       2925       2926       2937       2936  
      2806       2807       2818       2817       2927       2928       2939       2938  
      2807       2808       2819       2818       2928       2929       2940       2939  
      2808       2809       2820       2819       2929       2930       2941       2940  
      2809       2810       2821       2820       2930       2931       2942       2941  
      2810       2811       2822       2821       2931       2932       2943       2942  
      2811       2812       2823       2822       2932       2933       2944       2943  
      2812       2813       2824       2823       2933       2934       2945       2944  
      2813       2814       2825       2824       2934       2935       2946       2945  
      2814       2815       2826       2825       2935       2936       2947       2946  
      2815       2816       2827       2826       2936       2937       2948       2947  
      2817       2818       2829       2828       2938       2939       2950       2949  
      2818       2819       2830       2829       2939       2940       2951       2950  
      2819       2820       2831       2830       2940       2941       2952       2951  
      2820       2821       2832       2831       2941       2942       2953       2952  
      2821       2822       2833       2832       2942       2943       2954       2953  
      2822       2823       2834       2833       2943       2944       2955       2954  
      2823       2824       2835       2834       2944       2945       2956       2955  
      2824       2825       2836       2835       2945       2946       2957       2956  
      2825       2826       2837       2836       2946       2947       2958       2957  
      2826       2827       2838       2837       2947       2948       2959       2958  
      2828       2829       2840       2839       2949       2950       2961       2960  
      2829       2830       2841       2840       2950       2951       2962       2961  
      2830       2831       2842       2841       2951       2952       2963       2962  
      2831       2832       2843       2842       2952       2953       2964       2963  
      2832       2833       2844       2843       2953       2954       2965       2964  
      2833       2834       2845       2844       2954       2955       2966       2965  
      2834       2835       2846       2845       2955       2956       2967       2966  
      2835       2836       2847       2846       2956       2957       2968       2967  
      2836       2837       2848       2847       2957       2958       2969       2968  
      2837       2838       2849       2848       2958       2959       2970       2969  
      2839       2840       2851       2850       2960       2961       2972       2971  
      2840       2841       2852       2851       2961       2962       2973       2972  
      2841       2842       2853       2852       2962       2963       2974       2973  
      2842       2843       2854       2853       2963       2964       2975       2974  
      2843       2844       2855       2854       2964       2965       2976       2975  
      2844       2845       2856       2855       2965       2966       2977       2976  
      2845       2846       2857       2856       2966       2967       2978       2977  
      2846       2847       2858       2857       2967       2968       2979       2978  
      2847       2848       2859       2858       2968       2969       2980       2979  
      2848       2849       2860       2859       2969       2970       2981       2980  
      2850       2851       2862       2861       2971       2972       2983       2982  
      2851       2852       2863       2862       2972       2973       2984       2983  
      2852       2853       2864       2863       2973       2974       2985       2984  
      2853       2854       2865       2864       2974       2975       2986       2985  
      2854       2855       2866       2865       2975       2976       2987       2986  
      2855       2856       2867       2866       2976       2977       2988       2987  
      2856       2857       2868       2867       2977       2978       2989       2988  
      2857       2858       2869       2868       2978       2979       2990       2989  
      2858       2859       2870       2869       2979       2980       2991       2990  
      2859       2860       2871       2870       2980       2981       2992       2991  
      2861       2862       2873       2872       2982       2983       2994       2993  
      2862       2863       2874       2873       2983       2984       2995       2994  
      2863       2864       2875       2874       2984       2985       2996       2995  
      2864       2865       2876       2875       2985       2986       2997       2996  
      2865       2866       2877       2876       2986       2987       2998       2997  
      2866       2867       2878       2877       2987       2988       2999       2998  
      2867       2868       2879       2878       2988       2989       3000       2999  
      2868       2869       2880       2879       2989       2990       3001       3000  
      2869       2870       2881       2880       2990       2991       3002       3001  
      2870       2871       2882       2881       2991       2992       3003       3002  
      2872       2873       2884       2883       2993       2994       3005       3004  
      2873       2874       2885       2884       2994       2995       3006       3005  
      2874       2875       2886       2885       2995       2996       3007       3006  
      2875       2876       2887       2886       2996       2997       3008       3007  
      2876       2877       2888       2887       2997       2998       3009       3008  
      2877       2878       2889       2888       2998       2999       3010       3009  
      2878       2879       2890       2889       2999       3000       3011       3010  
      2879       2880       2891       2890       3000       3001       3012       3011  
      2880       2881       2892       2891       3001       3002       3013       3012  
      2881       2882       2893       2892       3002       3003       3014       3013  
      2883       2884       2895       2894       3004       3005       3016       3015  
      2884       2885       2896       2895       3005       3006       3017       3016  
      2885       2886       2897       2896       3006       3007       3018       3017  
      2886       2887       2898       2897       3007       3008       3019       3018  
      2887       2888       2899       2898       3008       3009       3020       3019  
      2888       2889       2900       2899       3009       3010       3021       3020  
      2889       2890       2901       2900       3010       3011       3022       3021  
      2890       2891       2902       2901       3011       3012       3023       3022  
      2891       2892       2903       2902       3012       3013       3024       3023  
      2892       2893       2904       2903       3013       3014       3025       3024  
      2905       2906       2917       2916       3026       3027       3038       3037  
      2906       2907       2918       2917       3027       3028       3039       3038  
      2907       2908       2919       2918       3028       3029       3040       3039  
      2908       2909       2920       2919       3029       3030       3041       3040  
      2909       2910       2921       2920       3030       3031       3042       3041  
      2910       2911       2922       2921       3031       3032       3043       3042  
      2911       2912       2923       2922       3032       3033       3044       3043  
      2912       2913       2924       2923       3033       3034       3045       3044  
      2913       2914       2925       2924       3034       3035       3046       3045  
      2914       2915       2926       2925       3035       3036       3047       3046  
      2916       2917       2928       2927       3037       3038       3049       3048  
      2917       2918       2929       2928       3038       3039       3050       3049  
      2918       2919       2930       2929       3039       3040       3051       3050  
      2919       2920       2931       2930       3040       3041       3052       3051  
      2920       2921       2932       2931       3041       3042       3053       3052  
      2921       2922       2933       2932       3042       3043       3054       3053  
      2922       2923       2934       2933       3043       3044       3055       3054  
      2923       2924       2935       2934       3044       3045       3056       3055  
      2924       2925       2936       2935       3045       3046       3057       3056  
      2925       2926       2937       2936       3046       3047       3058       3057  
      2927       2928       2939       2938       3048       3049       3060       3059  
      2928       2929       2940       2939       3049       3050       3061       3060  
      2929       2930       2941       2940       3050       3051       3062       3061  
      2930       2931       2942       2941       3051       3052       3063       3062  
      2931       2932       2943       2942       3052       3053       3064       3063  
      2932       2933       2944       2943       3053       3054       3065       3064  
      2933       2934       2945       2944       3054       3055       3066       3065  
      2934       2935       2946       2945       3055       3056       3067       3066  
      2935       2936       2947       2946       3056       3057       3068       3067  
      2936       2937       2948       2947       3057       3058       3069       3068  
      2938       2939       2950       2949       3059       3060       3071       3070  
      2939       2940       2951       2950       3060       3061       3072       3071  
      2940       2941       2952       2951       3061       3062       3073       3072  
      2941       2942       2953       2952       3062       3063       3074       3073  
      2942       2943       2954       2953       3063       3064       3075       3074  
      2943       2944       2955       2954       3064       3065       3076       3075  
      2944       2945       2956       2955       3065       3066       3077       3076  
      2945       2946       2957       2956       3066       3067       3078       3077  
      2946       2947       2958       2957       3067       3068       3079       3078  
      2947       2948       2959       2958       3068       3069       3080       3079  
      2949       2950       2961       2960       3070       3071       3082       3081  
      2950       2951       2962       2961       3071       3072       3083       3082  
      2951       2952       2963       2962       3072       3073       3084       3083  
      2952       2953       2964       2963       3073       3074       3085       3084  
      2953       2954       2965       2964       3074       3075       3086       3085  
      2954       2955       2966       2965       3075       3076       3087       3086  
      2955       2956       2967       2966       3076       3077       3088       3087  
      2956       2957       2968       2967       3077       3078       3089       3088  
      2957       2958       2969       2968       3078       3079       3090       3089  
      2958       2959       2970       2969       3079       3080       3091       3090  
      2960       2961       2972       2971       3081       3082       3093       3092  
      2961       2962       2973       2972       3082       3083       3094       3093  
      2962       2963       2974       2973       3083       3084       3095       3094  
      2963       2964       2975       2974       3084       3085       3096       3095  
      2964       2965       2976       2975       3085       3086       3097       3096  
      2965       2966       2977       2976       3086       3087       3098       3097  
      2966       2967       2978       2977       3087       3088       3099       3098  
      2967       2968       2979       2978       3088       3089       3100       3099  
      2968       2969       2980       2979       3089       3090       3101       3100  
      2969       2970       2981       2980       3090       3091       3102       3101  
      2971       2972       2983       2982       3092       3093       3104       3103  
      2972       2973       2984       2983       3093       3094       3105       3104  
      2973       2974       2985       2984       3094       3095       3106       3105  
      2974       2975       2986       2985       3095       3096       3107       3106  
      2975       2976       2987       2986       3096       3097       3108       3107  
      2976       2977       2988       2987       3097       3098       3109       3108  
      2977       2978       2989       2988       3098       3099       3110       3109  
      2978       2979       2990       2989       3099       3100       3111       3110  
      2979       2980       2991       2990       3100       3101       3112       3111  
      2980       2981       2992       2991       3101       3102       3113       3112  
      2982       2983       2994       2993       3103       3104       3115       3114  
      2983       2984       2995       2994       3104       3105       3116       3115  
      2984       2985       2996       2995       3105       3106       3117       3116  
      2985       2986       2997       2996       3106       3107       3118       3117  
      2986       2987       2998       2997       3107       3108       3119       3118  
      2987       2988       2999       2998       3108       3109       3120       3119  
      2988       2989       3000       2999       3109       3110       3121       3120  
      2989       2990       3001       3000       3110       3111       3122       3121  
      2990       2991       3002       3001       3111       3112       3123       3122  
      2991       2992       3003       3002       3112       3113       3124       3123  
      2993       2994       3005       3004       3114       3115       3126       3125  
      2994       2995       3006       3005       3115       3116       3127       3126  
      2995       2996       3007       3006       3116       3117       3128       3127  
      2996       2997       3008       3007       3117       3118       3129       3128  
      2997       2998       3009       3008       3118       3119       3130       3129  
      2998       2999       3010       3009       3119       3120       3131       3130  
      2999       3000       3011       3010       3120       3121       3132       3131  
      3000       3001       3012       3011       3121       3122       3133       3132  
      3001       3002       3013       3012       3122       3123       3134       3133  
      3002       3003       3014       3013       3123       3124       3135       3134  
      3004       3005       3016       3015       3125       3126       3137       3136  
      3005       3006       3017       3016       3126       3127       3138       3137  
      3006       3007       3018       3017       3127       3128       3139       3138  
      3007       3008       3019       3018       3128       3129       3140       3139  
      3008       3009       3020       3019       3129       3130       3141       3140  
      3009       3010       3021       3020       3130       3131       3142       3141  
      3010       3011       3022       3021       3131       3132       3143       3142  
      3011       3012       3023       3022       3132       3133       3144       3143  
      3012       3013       3024       3023       3133       3134       3145       3144  
      3013       3014       3025       3024       3134       3135       3146       3145  
      3026       3027       3038       3037       3147       3148       3159       3158  
      3027       3028       3039       3038       3148       3149       3160       3159  
      3028       3029       3040       3039       3149       3150       3161       3160  
      3029       3030       3041       3040       3150       3151       3162       3161  
      3030       3031       3042       3041       3151       3152       3163       3162  
      3031       3032       3043       3042       3152       3153       3164       3163  
      3032       3033       3044       3043       3153       3154       3165       3164  
      3033       3034       3045       3044       3154       3155       3166       3165  
      3034       3035       3046       3045       3155       3156       3167       3166  
      3035       3036       3047       3046       3156       3157       3168       3167  
      3037       3038       3049       3048       3158       3159       3170       3169  
      3038       3039       3050       3049       3159       3160       3171       3170  
      3039       3040       3051       3050       3160       3161       3172       3171  
      3040       3041       3052       3051       3161       3162       3173       3172  
      3041       3042       3053       3052       3162       3163       3174       3173  
      3042       3043       3054       3053       3163       3164       3175       3174  
      3043       3044       3055       3054       3164       3165       3176       3175  
      3044       3045       3056       3055       3165       3166       3177       3176  
      3045       3046       3057       3056       3166       3167       3178       3177  
      3046       3047       3058       3057       3167       3168       3179       3178  
      3048       3049       3060       3059       3169       3170       3181       3180  
      3049       3050       3061       3060       3170       3171       3182       3181  
      3050       3051       3062       3061       3171       3172       3183       3182  
      3051       3052       3063       3062       3172       3173       3184       3183  
      3052       3053       3064       3063       3173       3174       3185       3184  
      3053       3054       3065       3064       3174       3175       3186       3185  
      3054       3055       3066       3065       3175       3176       3187       3186  
      3055       3056       3067       3066       3176       3177       3188       3187  
      3056       3057       3068       3067       3177       3178       3189       3188  
      3057       3058       3069       3068       3178       3179       3190       3189  
      3059       3060       3071       3070       3180       3181       3192       3191  
      3060       3061       3072       3071       3181       3182       3193       3192  
      3061       3062       3073       3072       3182       3183       3194       3193  
      3062       3063       3074       3073       3183       3184       3195       3194  
      3063       3064       3075       3074       3184       3185       3196       3195  
      3064       3065       3076       3075       3185       3186       3197       3196  
      3065       3066       3077       3076       3186       3187       3198       3197  
      3066       3067       3078       3077       3187       3188       3199       3198  
      3067       3068       3079       3078       3188       3189       3200       3199  
      3068       3069       3080       3079       3189       3190       3201       3200  
      3070       3071       3082       3081       3191       3192       3203       3202  
      3071       3072       3083       3082       3192       3193       3204       3203  
      3072       3073       3084       3083       3193       3194       3205       3204  
      3073       3074       3085       3084       3194       3195       3206       3205  
      3074       3075       3086       3085       3195       3196       3207       3206  
      3075       3076       3087       3086       3196       3197       3208       3207  
      3076       3077       3088       3087       3197       3198       3209       3208  
      3077       3078       3089       3088       3198       3199       3210       3209  
      3078       3079       3090       3089       3199       3200       3211       3210  
      3079       3080       3091       3090       3200       3201       3212       3211  
      3081       3082       3093       3092       3202       3203       3214       3213  
      3082       3083       3094       3093       3203       3204       3215       3214  
      3083       3084       3095       3094       3204       3205       3216       3215  
      3084       3085       3096       3095       3205       3206       3217       3216  
      3085       3086       3097       3096       3206       3207       3218       3217  
      3086       3087       3098       3097       3207       3208       3219       3218  
      3087       3088       3099       3098       3208       3209       3220       3219  
      3088       3089       3100       3099       3209       3210       3221       3220  
      3089       3090       3101       3100       3210       3211       3222       3221  
      3090       3091       3102       3101       3211       3212       3223       3222  
      3092       3093       3104       3103       3213       3214       3225       3224  
      3093       3094       3105       3104       3214       3215       3226       3225  
      3094       3095       3106       3105       3215       3216       3227       3226  
      3095       3096       3107       3106       3216       3217       3228       3227  
      3096       3097       3108       3107       3217       3218       3229       3228  
      3097       3098       3109       3108       3218       3219       3230       3229  
      3098       3099       3110       3109       3219       3220       3231       3230  
      3099       3100       3111       3110       3220       3221       3232       3231  
      3100       3101       3112       3111       3221       3222       3233       3232  
      3101       3102       3113       3112       3222       3223       3234       3233  
      3103       3104       3115       3114       3224       3225       3236       3235  
      3104       3105       3116       3115       3225       3226       3237       3236  
      3105       3106       3117       3116       3226       3227       3238       3237  
      3106       3107       3118       3117       3227       3228       3239       3238  
      3107       3108       3119       3118       3228       3229       3240       3239  
      3108       3109       3120       3119       3229       3230       3241       3240  
      3109       3110       3121       3120       3230       3231       3242       3241  
      3110       3111       3122       3121       3231       3232       3243       3242  
      3111       3112       3123       3122       3232       3233       3244       3243  
      3112       3113       3124       3123       3233       3234       3245       3244  
      3114       3115       3126       3125       3235       3236       3247       3246  
      3115       3116       3127       3126       3236       3237       3248       3247  
      3116       3117       3128       3127       3237       3238       3249       3248  
      3117       3118       3129       3128       3238       3239       3250       3249  
      3118       3119       3130       3129       3239       3240       3251       3250  
      3119       3120       3131       3130       3240       3241       3252       3251  
      3120       3121       3132       3131       3241       3242       3253       3252  
      3121       3122       3133       3132       3242       3243       3254       3253  
      3122       3123       3134       3133       3243       3244       3255       3254  
      3123       3124       3135       3134       3244       3245       3256       3255  
      3125       3126       3137       3136       3246       3247       3258       3257  
      3126       3127       3138       3137       3247       3248       3259       3258  
      3127       3128       3139       3138       3248       3249       3260       3259  
      3128       3129       3140       3139       3249       3250       3261       3260  
      3129       3130       3141       3140       3250       3251       3262       3261  
      3130       3131       3142       3141       3251       3252       3263       3262  
      3131       3132       3143       3142       3252       3253       3264       3263  
      3132       3133       3144       3143       3253       3254       3265       3264  
      3133       3134       3145       3144       3254       3255       3266       3265  
      3134       3135       3146       3145       3255       3256       3267       3266  
      3147       3148       3159       3158       3268       3269       3280       3279  
      3148       3149       3160       3159       3269       3270       3281       3280  
      3149       3150       3161       3160       3270       3271       3282       3281  
      3150       3151       3162       3161       3271       3272       3283       3282  
      3151       3152       3163       3162       3272       3273       3284       3283  
      3152       3153       3164       3163       3273       3274       3285       3284  
      3153       3154       3165       3164       3274       3275       3286       3285  
      3154       3155       3166       3165       3275       3276       3287       3286  
      3155       3156       3167       3166       3276       3277       3288       3287  
      3156       3157       3168       3167       3277       3278       3289       3288  
      3158       3159       3170       3169       3279       3280       3291       3290  
      3159       3160       3171       3170       3280       3281       3292       3291  
      3160       3161       3172       3171       3281       3282       3293       3292  
      3161       3162       3173       3172       3282       3283       3294       3293  
      3162       3163       3174       3173       3283       3284       3295       3294  
      3163       3164       3175       3174       3284       3285       3296       3295  
      3164       3165       3176       3175       3285       3286       3297       3296  
      3165       3166       3177       3176       3286       3287       3298       3297  
      3166       3167       3178       3177       3287       3288       3299       3298  
      3167       3168       3179       3178       3288       3289       3300       3299  
      3169       3170       3181       3180       3290       3291       3302       3301  
      3170       3171       3182       3181       3291       3292       3303       3302  
      3171       3172       3183       3182       3292       3293       3304       3303  
      3172       3173       3184       3183       3293       3294       3305       3304  
      3173       3174       3185       3184       3294       3295       3306       3305  
      3174       3175       3186       3185       3295       3296       3307       3306  
      3175       3176       3187       3186       3296       3297       3308       3307  
      3176       3177       3188       3187       3297       3298       3309       3308  
      3177       3178       3189       3188       3298       3299       3310       3309  
      3178       3179       3190       3189       3299       3300       3311       3310  
      3180       3181       3192       3191       3301       3302       3313       3312  
      3181       3182       3193       3192       3302       3303       3314       3313  
      3182       3183       3194       3193       3303       3304       3315       3314  
      3183       3184       3195       3194       3304       3305       3316       3315  
      3184       3185       3196       3195       3305       3306       3317       3316  
      3185       3186       3197       3196       3306       3307       3318       3317  
      3186       3187       3198       3197       3307       3308       3319       3318  
      3187       3188       3199       3198       3308       3309       3320       3319  
      3188       3189       3200       3199       3309       3310       3321       3320  
      3189       3190       3201       3200       3310       3311       3322       3321  
      3191       3192       3203       3202       3312       3313       3324       3323  
      3192       3193       3204       3203       3313       3314       3325       3324  
      3193       3194       3205       3204       3314       3315       3326       3325  
      3194       3195       3206       3205       3315       3316       3327       3326  
      3195       3196       3207       3206       3316       3317       3328       3327  
      3196       3197       3208       3207       3317       3318       3329       3328  
      3197       3198       3209       3208       3318       3319       3330       3329  
      3198       3199       3210       3209       3319       3320       3331       3330  
      3199       3200       3211       3210       3320       3321       3332       3331  
      3200       3201       3212       3211       3321       3322       3333       3332  
      3202       3203       3214       3213       3323       3324       3335       3334  
      3203       3204       3215       3214       3324       3325       3336       3335  
      3204       3205       3216       3215       3325       3326       3337       3336  
      3205       3206       3217       3216       3326       3327       3338       3337  
      3206       3207       3218       3217       3327       3328       3339       3338  
      3207       3208       3219       3218       3328       3329       3340       3339  
      3208       3209       3220       3219       3329       3330       3341       3340  
      3209       3210       3221       3220       3330       3331       3342       3341  
      3210       3211       3222       3221       3331       3332       3343       3342  
      3211       3212       3223       3222       3332       3333       3344       3343  
      3213       3214       3225       3224       3334       3335       3346       3345  
      3214       3215       3226       3225       3335       3336       3347       3346  
      3215       3216       3227       3226       3336       3337       3348       3347  
      3216       3217       3228       3227       3337       3338       3349       3348  
      3217       3218       3229       3228       3338       3339       3350       3349  
      3218       3219       3230       3229       3339       3340       3351       3350  
      3219       3220       3231       3230       3340       3341       3352       3351  
      3220       3221       3232       3231       3341       3342       3353       3352  
      3221       3222       3233       3232       3342       3343       3354       3353  
      3222       3223       3234       3233       3343       3344       3355       3354  
      3224       3225       3236       3235       3345       3346       3357       3356  
      3225       3226       3237       3236       3346       3347       3358       3357  
      3226       3227       3238       3237       3347       3348       3359       3358  
      3227       3228       3239       3238       3348       3349       3360       3359  
      3228       3229       3240       3239       3349       3350       3361       3360  
      3229       3230       3241       3240       3350       3351       3362       3361  
      3230       3231       3242       3241       3351       3352       3363       3362  
      3231       3232       3243       3242       3352       3353       3364       3363  
      3232       3233       3244       3243       3353       3354       3365       3364  
      3233       3234       3245       3244       3354       3355       3366       3365  
      3235       3236       3247       3246       3356       3357       3368       3367  
      3236       3237       3248       3247       3357       3358       3369       3368  
      3237       3238       3249       3248       3358       3359       3370       3369  
      3238       3239       3250       3249       3359       3360       3371       3370  
      3239       3240       3251       3250       3360       3361       3372       3371  
      3240       3241       3252       3251       3361       3362       3373       3372  
      3241       3242       3253       3252       3362       3363       3374       3373  
      3242       3243       3254       3253       3363       3364       3375       3374  
      3243       3244       3255       3254       3364       3365       3376       3375  
      3244       3245       3256       3255       3365       3366       3377       3376  
      3246       3247       3258       3257       3367       3368       3379       3378  
      3247       3248       3259       3258       3368       3369       3380       3379  
      3248       3249       3260       3259       3369       3370       3381       3380  
      3249       3250       3261       3260       3370       3371       3382       3381  
      3250       3251       3262       3261       3371       3372       3383       3382  
      3251       3252       3263       3262       3372       3373       3384       3383  
      3252       3253       3264       3263       3373       3374       3385       3384  
      3253       3254       3265       3264       3374       3375       3386       3385  
      3254       3255       3266       3265       3375       3376       3387       3386  
      3255       3256       3267       3266       3376       3377       3388       3387  
      3268       3269       3280       3279       3389       3390       3401       3400  
      3269       3270       3281       3280       3390       3391       3402       3401  
      3270       3271       3282       3281       3391       3392       3403       3402  
      3271       3272       3283       3282       3392       3393       3404       3403  
      3272       3273       3284       3283       3393       3394       3405       3404  
      3273       3274       3285       3284       3394       3395       3406       3405  
      3274       3275       3286       3285       3395       3396       3407       3406  
      3275       3276       3287       3286       3396       3397       3408       3407  
      3276       3277       3288       3287       3397       3398       3409       3408  
      3277       3278       3289       3288       3398       3399       3410       3409  
      3279       3280       3291       3290       3400       3401       3412       3411  
      3280       3281       3292       3291       3401       3402       3413       3412  
      3281       3282       3293       3292       3402       3403       3414       3413  
      3282       3283       3294       3293       3403       3404       3415       3414  
      3283       3284       3295       3294       3404       3405       3416       3415  
      3284       3285       3296       3295       3405       3406       3417       3416  
      3285       3286       3297       3296       3406       3407       3418       3417  
      3286       3287       3298       3297       3407       3408       3419       3418  
      3287       3288       3299       3298       3408       3409       3420       3419  
      3288       3289       3300       3299       3409       3410       3421       3420  
      3290       3291       3302       3301       3411       3412       3423       3422  
      3291       3292       3303       3302       3412       3413       3424       3423  
      3292       3293       3304       3303       3413       3414       3425       3424  
      3293       3294       3305       3304       3414       3415       3426       3425  
      3294       3295       3306       3305       3415       3416       3427       3426  
      3295       3296       3307       3306       3416       3417       3428       3427  
      3296       3297       3308       3307       3417       3418       3429       3428  
      3297       3298       3309       3308       3418       3419       3430       3429  
      3298       3299       3310       3309       3419       3420       3431       3430  
      3299       3300       3311       3310       3420       3421       3432       3431  
      3301       3302       3313       3312       3422       3423       3434       3433  
      3302       3303       3314       3313       3423       3424       3435       3434  
      3303       3304       3315       3314       3424       3425       3436       3435  
      3304       3305       3316       3315       3425       3426       3437       3436  
      3305       3306       3317       3316       3426       3427       3438       3437  
      3306       3307       3318       3317       3427       3428       3439       3438  
      3307       3308       3319       3318       3428       3429       3440       3439  
      3308       3309       3320       3319       3429       3430       3441       3440  
      3309       3310       3321       3320       3430       3431       3442       3441  
      3310       3311       3322       3321       3431       3432       3443       3442  
      3312       3313       3324       3323       3433       3434       3445       3444  
      3313       3314       3325       3324       3434       3435       3446       3445  
      3314       3315       3326       3325       3435       3436       3447       3446  
      3315       3316       3327       3326       3436       3437       3448       3447  
      3316       3317       3328       3327       3437       3438       3449       3448  
      3317       3318       3329       3328       3438       3439       3450       3449  
      3318       3319       3330       3329       3439       3440       3451       3450  
      3319       3320       3331       3330       3440       3441       3452       3451  
      3320       3321       3332       3331       3441       3442       3453       3452  
      3321       3322       3333       3332       3442       3443       3454       3453  
      3323       3324       3335       3334       3444       3445       3456       3455  
      3324       3325       3336       3335       3445       3446       3457       3456  
      3325       3326       3337       3336       3446       3447       3458       3457  
      3326       3327       3338       3337       3447       3448       3459       3458  
      3327       3328       3339       3338       3448       3449       3460       3459  
      3328       3329       3340       3339       3449       3450       3461       3460  
      3329       3330       3341       3340       3450       3451       3462       3461  
      3330       3331       3342       3341       3451       3452       3463       3462  
      3331       3332       3343       3342       3452       3453       3464       3463  
      3332       3333       3344       3343       3453       3454       3465       3464  
      3334       3335       3346       3345       3455       3456       3467       3466  
      3335       3336       3347       3346       3456       3457       3468       3467  
      3336       3337       3348       3347       3457       3458       3469       3468  
      3337       3338       3349       3348       3458       3459       3470       3469  
      3338       3339       3350       3349       3459       3460       3471       3470  
      3339       3340       3351       3350       3460       3461       3472       3471  
      3340       3341       3352       3351       3461       3462       3473       3472  
      3341       3342       3353       3352       3462       3463       3474       3473  
      3342       3343       3354       3353       3463       3464       3475       3474  
      3343       3344       3355       3354       3464       3465       3476       3475  
      3345       3346       3357       3356       3466       3467       3478       3477  
      3346       3347       3358       3357       3467       3468       3479       3478  
      3347       3348       3359       3358       3468       3469       3480       3479  
      3348       3349       3360       3359       3469       3470       3481       3480  
      3349       3350       3361       3360       3470       3471       3482       3481  
      3350       3351       3362       3361       3471       3472       3483       3482  
      3351       3352       3363       3362       3472       3473       3484       3483  
      3352       3353       3364       3363       3473       3474       3485       3484  
      3353       3354       3365       3364       3474       3475       3486       3485  
      3354       3355       3366       3365       3475       3476       3487       3486  
      3356       3357       3368       3367       3477       3478       3489       3488  
      3357       3358       3369       3368       3478       3479       3490       3489  
      3358       3359       3370       3369       3479       3480       3491       3490  
      3359       3360       3371       3370       3480       3481       3492       3491  
      3360       3361       3372       3371       3481       3482       3493       3492  
      3361       3362       3373       3372       3482       3483       3494       3493  
      3362       3363       3374       3373       3483       3484       3495       3494  
      3363       3364       3375       3374       3484       3485       3496       3495  
      3364       3365       3376       3375       3485       3486       3497       3496  
      3365       3366       3377       3376       3486       3487       3498       3497  
      3367       3368       3379       3378       3488       3489       3500       3499  
      3368       3369       3380       3379       3489       3490       3501       3500  
      3369       3370       3381       3380       3490       3491       3502       3501  
      3370       3371       3382       3381       3491       3492       3503       3502  
      3371       3372       3383       3382       3492       3493       3504       3503  
      3372       3373       3384       3383       3493       3494       3505       3504  
      3373       3374       3385       3384       3494       3495       3506       3505  
      3374       3375       3386       3385       3495       3496       3507       3506  
      3375       3376       3387       3386       3496       3497       3508       3507  
      3376       3377       3388       3387       3497       3498       3509       3508  
      3389       3390       3401       3400       3510       3511       3522       3521  
      3390       3391       3402       3401       3511       3512       3523       3522  
      3391       3392       3403       3402       3512       3513       3524       3523  
      3392       3393       3404       3403       3513       3514       3525       3524  
      3393       3394       3405       3404       3514       3515       3526       3525  
      3394       3395       3406       3405       3515       3516       3527       3526  
      3395       3396       3407       3406       3516       3517       3528       3527  
      3396       3397       3408       3407       3517       3518       3529       3528  
      3397       3398       3409       3408       3518       3519       3530       3529  
      3398       3399       3410       3409       3519       3520       3531       3530  
      3400       3401       3412       3411       3521       3522       3533       3532  
      3401       3402       3413       3412       3522       3523       3534       3533  
      3402       3403       3414       3413       3523       3524       3535       3534  
      3403       3404       3415       3414       3524       3525       3536       3535  
      3404       3405       3416       3415       3525       3526       3537       3536  
      3405       3406       3417       3416       3526       3527       3538       3537  
      3406       3407       3418       3417       3527       3528       3539       3538  
      3407       3408       3419       3418       3528       3529       3540       3539  
      3408       3409       3420       3419       3529       3530       3541       3540  
      3409       3410       3421       3420       3530       3531       3542       3541  
      3411       3412       3423       3422       3532       3533       3544       3543  
      3412       3413       3424       3423       3533       3534       3545       3544  
      3413       3414       3425       3424       3534       3535       3546       3545  
      3414       3415       3426       3425       3535       3536       3547       3546  
      3415       3416       3427       3426       3536       3537       3548       3547  
      3416       3417       3428       3427       3537       3538       3549       3548  
      3417       3418       3429       3428       3538       3539       3550       3549  
      3418       3419       3430       3429       3539       3540       3551       3550  
      3419       3420       3431       3430       3540       3541       3552       3551  
      3420       3421       3432       3431       3541       3542       3553       3552  
      3422       3423       3434       3433       3543       3544       3555       3554  
      3423       3424       3435       3434       3544       3545       3556       3555  
      3424       3425       3436       3435       3545       3546       3557       3556  
      3425       3426       3437       3436       3546       3547       3558       3557  
      3426       3427       3438       3437       3547       3548       3559       3558  
      3427       3428       3439       3438       3548       3549       3560       3559  
      3428       3429       3440       3439       3549       3550       3561       3560  
      3429       3430       3441       3440       3550       3551       3562       3561  
      3430       3431       3442       3441       3551       3552       3563       3562  
      3431       3432       3443       3442       3552       3553       3564       3563  
      3433       3434       3445       3444       3554       3555       3566       3565  
      3434       3435       3446       3445       3555       3556       3567       3566  
      3435       3436       3447       3446       3556       3557       3568       3567  
      3436       3437       3448       3447       3557       3558       3569       3568  
      3437       3438       3449       3448       3558       3559       3570       3569  
      3438       3439       3450       3449       3559       3560       3571       3570  
      3439       3440       3451       3450       3560       3561       3572       3571  
      3440       3441       3452       3451       3561       3562       3573       3572  
      3441       3442       3453       3452       3562       3563       3574       3573  
      3442       3443       3454       3453       3563       3564       3575       3574  
      3444       3445       3456       3455       3565       3566       3577       3576  
      3445       3446       3457       3456       3566       3567       3578       3577  
      3446       3447       3458       3457       3567       3568       3579       3578  
      3447       3448       3459       3458       3568       3569       3580       3579  
      3448       3449       3460       3459       3569       3570       3581       3580  
      3449       3450       3461       3460       3570       3571       3582       3581  
      3450       3451       3462       3461       3571       3572       3583       3582  
      3451       3452       3463       3462       3572       3573       3584       3583  
      3452       3453       3464       3463       3573       3574       3585       3584  
      3453       3454       3465       3464       3574       3575       3586       3585  
      3455       3456       3467       3466       3576       3577       3588       3587  
      3456       3457       3468       3467       3577       3578       3589       3588  
      3457       3458       3469       3468       3578       3579       3590       3589  
      3458       3459       3470       3469       3579       3580       3591       3590  
      3459       3460       3471       3470       3580       3581       3592       3591  
      3460       3461       3472       3471       3581       3582       3593       3592  
      3461       3462       3473       3472       3582       3583       3594       3593  
      3462       3463       3474       3473       3583       3584       3595       3594  
      3463       3464       3475       3474       3584       3585       3596       3595  
      3464       3465       3476       3475       3585       3586       3597       3596  
      3466       3467       3478       3477       3587       3588       3599       3598  
      3467       3468       3479       3478       3588       3589       3600       3599  
      3468       3469       3480       3479       3589       3590       3601       3600  
      3469       3470       3481       3480       3590       3591       3602       3601  
      3470       3471       3482       3481       3591       3592       3603       3602  
      3471       3472       3483       3482       3592       3593       3604       3603  
      3472       3473       3484       3483       3593       3594       3605       3604  
      3473       3474       3485       3484       3594       3595       3606       3605  
      3474       3475       3486       3485       3595       3596       3607       3606  
      3475       3476       3487       3486       3596       3597       3608       3607  
      3477       3478       3489       3488       3598       3599       3610       3609  
      3478       3479       3490       3489       3599       3600       3611       3610  
      3479       3480       3491       3490       3600       3601       3612       3611  
      3480       3481       3492       3491       3601       3602       3613       3612  
      3481       3482       3493       3492       3602       3603       3614       3613  
      3482       3483       3494       3493       3603       3604       3615       3614  
      3483       3484       3495       3494       3604       3605       3616       3615  
      3484       3485       3496       3495       3605       3606       3617       3616  
      3485       3486       3497       3496       3606       3607       3618       3617  
      3486       3487       3498       3497       3607       3608       3619       3618  
      3488       3489       3500       3499       3609       3610       3621       3620  
      3489       3490       3501       3500       3610       3611       3622       3621  
      3490       3491       3502       3501       3611       3612       3623       3622  
      3491       3492       3503       3502       3612       3613       3624       3623  
      3492       3493       3504       3503       3613       3614       3625       3624  
      3493       3494       3505       3504       3614       3615       3626       3625  
      3494       3495       3506       3505       3615       3616       3627       3626  
      3495       3496       3507       3506       3616       3617       3628       3627  
      3496       3497       3508       3507       3617       3618       3629       3628  
      3497       3498       3509       3508       3618       3619       3630       3629  
      3510       3511       3522       3521       3631       3632       3643       3642  
      3511       3512       3523       3522       3632       3633       3644       3643  
      3512       3513       3524       3523       3633       3634       3645       3644  
      3513       3514       3525       3524       3634       3635       3646       3645  
      3514       3515       3526       3525       3635       3636       3647       3646  
      3515       3516       3527       3526       3636       3637       3648       3647  
      3516       3517       3528       3527       3637       3638       3649       3648  
      3517       3518       3529       3528       3638       3639       3650       3649  
      3518       3519       3530       3529       3639       3640       3651       3650  
      3519       3520       3531       3530       3640       3641       3652       3651  
      3521       3522       3533       3532       3642       3643       3654       3653  
      3522       3523       3534       3533       3643       3644       3655       3654  
      3523       3524       3535       3534       3644       3645       3656       3655  
      3524       3525       3536       3535       3645       3646       3657       3656  
      3525       3526       3537       3536       3646       3647       3658       3657  
      3526       3527       3538       3537       3647       3648       3659       3658  
      3527       3528       3539       3538       3648       3649       3660       3659  
      3528       3529       3540       3539       3649       3650       3661       3660  
      3529       3530       3541       3540       3650       3651       3662       3661  
      3530       3531       3542       3541       3651       3652       3663       3662  
      3532       3533       3544       3543       3653       3654       3665       3664  
      3533       3534       3545       3544       3654       3655       3666       3665  
      3534       3535       3546       3545       3655       3656       3667       3666  
      3535       3536       3547       3546       3656       3657       3668       3667  
      3536       3537       3548       3547       3657       3658       3669       3668  
      3537       3538       3549       3548       3658       3659       3670       3669  
      3538       3539       3550       3549       3659       3660       3671       3670  
      3539       3540       3551       3550       3660       3661       3672       3671  
      3540       3541       3552       3551       3661       3662       3673       3672  
      3541       3542       3553       3552       3662       3663       3674       3673  
      3543       3544       3555       3554       3664       3665       3676       3675  
      3544       3545       3556       3555       3665       3666       3677       3676  
      3545       3546       3557       3556       3666       3667       3678       3677  
      3546       3547       3558       3557       3667       3668       3679       3678  
      3547       3548       3559       3558       3668       3669       3680       3679  
      3548       3549       3560       3559       3669       3670       3681       3680  
      3549       3550       3561       3560       3670       3671       3682       3681  
      3550       3551       3562       3561       3671       3672       3683       3682  
      3551       3552       3563       3562       3672       3673       3684       3683  
      3552       3553       3564       3563       3673       3674       3685       3684  
      3554       3555       3566       3565       3675       3676       3687       3686  
      3555       3556       3567       3566       3676       3677       3688       3687  
      3556       3557       3568       3567       3677       3678       3689       3688  
      3557       3558       3569       3568       3678       3679       3690       3689  
      3558       3559       3570       3569       3679       3680       3691       3690  
      3559       3560       3571       3570       3680       3681       3692       3691  
      3560       3561       3572       3571       3681       3682       3693       3692  
      3561       3562       3573       3572       3682       3683       3694       3693  
      3562       3563       3574       3573       3683       3684       3695       3694  
      3563       3564       3575       3574       3684       3685       3696       3695  
      3565       3566       3577       3576       3686       3687       3698       3697  
      3566       3567       3578       3577       3687       3688       3699       3698  
      3567       3568       3579       3578       3688       3689       3700       3699  
      3568       3569       3580       3579       3689       3690       3701       3700  
      3569       3570       3581       3580       3690       3691       3702       3701  
      3570       3571       3582       3581       3691       3692       3703       3702  
      3571       3572       3583       3582       3692       3693       3704       3703  
      3572       3573       3584       3583       3693       3694       3705       3704  
      3573       3574       3585       3584       3694       3695       3706       3705  
      3574       3575       3586       3585       3695       3696       3707       3706  
      3576       3577       3588       3587       3697       3698       3709       3708  
      3577       3578       3589       3588       3698       3699       3710       3709  
      3578       3579       3590       3589       3699       3700       3711       3710  
      3579       3580       3591       3590       3700       3701       3712       3711  
      3580       3581       3592       3591       3701       3702       3713       3712  
      3581       3582       3593       3592       3702       3703       3714       3713  
      3582       3583       3594       3593       3703       3704       3715       3714  
      3583       3584       3595       3594       3704       3705       3716       3715  
      3584       3585       3596       3595       3705       3706       3717       3716  
      3585       3586       3597       3596       3706       3707       3718       3717  
      3587       3588       3599       3598       3708       3709       3720       3719  
      3588       3589       3600       3599       3709       3710       3721       3720  
      3589       3590       3601       3600       3710       3711       3722       3721  
      3590       3591       3602       3601       3711       3712       3723       3722  
      3591       3592       3603       3602       3712       3713       3724       3723  
      3592       3593       3604       3603       3713       3714       3725       3724  
      3593       3594       3605       3604       3714       3715       3726       3725  
      3594       3595       3606       3605       3715       3716       3727       3726  
      3595       3596       3607       3606       3716       3717       3728       3727  
      3596       3597       3608       3607       3717       3718       3729       3728  
      3598       3599       3610       3609       3719       3720       3731       3730  
      3599       3600       3611       3610       3720       3721       3732       3731  
      3600       3601       3612       3611       3721       3722       3733       3732  
      3601       3602       3613       3612       3722       3723       3734       3733  
      3602       3603       3614       3613       3723       3724       3735       3734  
      3603       3604       3615       3614       3724       3725       3736       3735  
      3604       3605       3616       3615       3725       3726       3737       3736  
      3605       3606       3617       3616       3726       3727       3738       3737  
      3606       3607       3618       3617       3727       3728       3739       3738  
      3607       3608       3619       3618       3728       3729       3740       3739  
      3609       3610       3621       3620       3730       3731       3742       3741  
      3610       3611       3622       3621       3731       3732       3743       3742  
      3611       3612       3623       3622       3732       3733       3744       3743  
      3612       3613       3624       3623       3733       3734       3745       3744  
      3613       3614       3625       3624       3734       3735       3746       3745  
      3614       3615       3626       3625       3735       3736       3747       3746  
      3615       3616       3627       3626       3736       3737       3748       3747  
      3616       3617       3628       3627       3737       3738       3749       3748  
      3617       3618       3629       3628       3738       3739       3750       3749  
      3618       3619       3630       3629       3739       3740       3751       3750  
      3631       3632       3643       3642       3752       3753       3764       3763  
      3632       3633       3644       3643       3753       3754       3765       3764  
      3633       3634       3645       3644       3754       3755       3766       3765  
      3634       3635       3646       3645       3755       3756       3767       3766  
      3635       3636       3647       3646       3756       3757       3768       3767  
      3636       3637       3648       3647       3757       3758       3769       3768  
      3637       3638       3649       3648       3758       3759       3770       3769  
      3638       3639       3650       3649       3759       3760       3771       3770  
      3639       3640       3651       3650       3760       3761       3772       3771  
      3640       3641       3652       3651       3761       3762       3773       3772  
      3642       3643       3654       3653       3763       3764       3775       3774  
      3643       3644       3655       3654       3764       3765       3776       3775  
      3644       3645       3656       3655       3765       3766       3777       3776  
      3645       3646       3657       3656       3766       3767       3778       3777  
      3646       3647       3658       3657       3767       3768       3779       3778  
      3647       3648       3659       3658       3768       3769       3780       3779  
      3648       3649       3660       3659       3769       3770       3781       3780  
      3649       3650       3661       3660       3770       3771       3782       3781  
      3650       3651       3662       3661       3771       3772       3783       3782  
      3651       3652       3663       3662       3772       3773       3784       3783  
      3653       3654       3665       3664       3774       3775       3786       3785  
      3654       3655       3666       3665       3775       3776       3787       3786  
      3655       3656       3667       3666       3776       3777       3788       3787  
      3656       3657       3668       3667       3777       3778       3789       3788  
      3657       3658       3669       3668       3778       3779       3790       3789  
      3658       3659       3670       3669       3779       3780       3791       3790  
      3659       3660       3671       3670       3780       3781       3792       3791  
      3660       3661       3672       3671       3781       3782       3793       3792  
      3661       3662       3673       3672       3782       3783       3794       3793  
      3662       3663       3674       3673       3783       3784       3795       3794  
      3664       3665       3676       3675       3785       3786       3797       3796  
      3665       3666       3677       3676       3786       3787       3798       3797  
      3666       3667       3678       3677       3787       3788       3799       3798  
      3667       3668       3679       3678       3788       3789       3800       3799  
      3668       3669       3680       3679       3789       3790       3801       3800  
      3669       3670       3681       3680       3790       3791       3802       3801  
      3670       3671       3682       3681       3791       3792       3803       3802  
      3671       3672       3683       3682       3792       3793       3804       3803  
      3672       3673       3684       3683       3793       3794       3805       3804  
      3673       3674       3685       3684       3794       3795       3806       3805  
      3675       3676       3687       3686       3796       3797       3808       3807  
      3676       3677       3688       3687       3797       3798       3809       3808  
      3677       3678       3689       3688       3798       3799       3810       3809  
      3678       3679       3690       3689       3799       3800       3811       3810  
      3679       3680       3691       3690       3800       3801       3812       3811  
      3680       3681       3692       3691       3801       3802       3813       3812  
      3681       3682       3693       3692       3802       3803       3814       3813  
      3682       3683       3694       3693       3803       3804       3815       3814  
      3683       3684       3695       3694       3804       3805       3816       3815  
      3684       3685       3696       3695       3805       3806       3817       3816  
      3686       3687       3698       3697       3807       3808       3819       3818  
      3687       3688       3699       3698       3808       3809       3820       3819  
      3688       3689       3700       3699       3809       3810       3821       3820  
      3689       3690       3701       3700       3810       3811       3822       3821  
      3690       3691       3702       3701       3811       3812       3823       3822  
      3691       3692       3703       3702       3812       3813       3824       3823  
      3692       3693       3704       3703       3813       3814       3825       3824  
      3693       3694       3705       3704       3814       3815       3826       3825  
      3694       3695       3706       3705       3815       3816       3827       3826  
      3695       3696       3707       3706       3816       3817       3828       3827  
      3697       3698       3709       3708       3818       3819       3830       3829  
      3698       3699       3710       3709       3819       3820       3831       3830  
      3699       3700       3711       3710       3820       3821       3832       3831  
      3700       3701       3712       3711       3821       3822       3833       3832  
      3701       3702       3713       3712       3822       3823       3834       3833  
      3702       3703       3714       3713       3823       3824       3835       3834  
      3703       3704       3715       3714       3824       3825       3836       3835  
      3704       3705       3716       3715       3825       3826       3837       3836  
      3705       3706       3717       3716       3826       3827       3838       3837  
      3706       3707       3718       3717       3827       3828       3839       3838  
      3708       3709       3720       3719       3829       3830       3841       3840  
      3709       3710       3721       3720       3830       3831       3842       3841  
      3710       3711       3722       3721       3831       3832       3843       3842  
      3711       3712       3723       3722       3832       3833       3844       3843  
      3712       3713       3724       3723       3833       3834       3845       3844  
      3713       3714       3725       3724       3834       3835       3846       3845  
      3714       3715       3726       3725       3835       3836       3847       3846  
      3715       3716       3727       3726       3836       3837       3848       3847  
      3716       3717       3728       3727       3837       3838       3849       3848  
      3717       3718       3729       3728       3838       3839       3850       3849  
      3719       3720       3731       3730       3840       3841       3852       3851  
      3720       3721       3732       3731       3841       3842       3853       3852  
      3721       3722       3733       3732       3842       3843       3854       3853  
      3722       3723       3734       3733       3843       3844       3855       3854  
      3723       3724       3735       3734       3844       3845       3856       3855  
      3724       3725       3736       3735       3845       3846       3857       3856  
      3725       3726       3737       3736       3846       3847       3858       3857  
      3726       3727       3738       3737       3847       3848       3859       3858  
      3727       3728       3739       3738       3848       3849       3860       3859  
      3728       3729       3740       3739       3849       3850       3861       3860  
      3730       3731       3742       3741       3851       3852       3863       3862  
      3731       3732       3743       3742       3852       3853       3864       3863  
      3732       3733       3744       3743       3853       3854       3865       3864  
      3733       3734       3745       3744       3854       3855       3866       3865  
      3734       3735       3746       3745       3855       3856       3867       3866  
      3735       3736       3747       3746       3856       3857       3868       3867  
      3736       3737       3748       3747       3857       3858       3869       3868  
      3737       3738       3749       3748       3858       3859       3870       3869  
      3738       3739       3750       3749       3859       3860       3871       3870  
      3739       3740       3751       3750       3860       3861       3872       3871  
      3752       3753       3764       3763       3873       3874       3885       3884  
      3753       3754       3765       3764       3874       3875       3886       3885  
      3754       3755       3766       3765       3875       3876       3887       3886  
      3755       3756       3767       3766       3876       3877       3888       3887  
      3756       3757       3768       3767       3877       3878       3889       3888  
      3757       3758       3769       3768       3878       3879       3890       3889  
      3758       3759       3770       3769       3879       3880       3891       3890  
      3759       3760       3771       3770       3880       3881       3892       3891  
      3760       3761       3772       3771       3881       3882       3893       3892  
      3761       3762       3773       3772       3882       3883       3894       3893  
      3763       3764       3775       3774       3884       3885       3896       3895  
      3764       3765       3776       3775       3885       3886       3897       3896  
      3765       3766       3777       3776       3886       3887       3898       3897  
      3766       3767       3778       3777       3887       3888       3899       3898  
      3767       3768       3779       3778       3888       3889       3900       3899  
      3768       3769       3780       3779       3889       3890       3901       3900  
      3769       3770       3781       3780       3890       3891       3902       3901  
      3770       3771       3782       3781       3891       3892       3903       3902  
      3771       3772       3783       3782       3892       3893       3904       3903  
      3772       3773       3784       3783       3893       3894       3905       3904  
      3774       3775       3786       3785       3895       3896       3907       3906  
      3775       3776       3787       3786       3896       3897       3908       3907  
      3776       3777       3788       3787       3897       3898       3909       3908  
      3777       3778       3789       3788       3898       3899       3910       3909  
      3778       3779       3790       3789       3899       3900       3911       3910  
      3779       3780       3791       3790       3900       3901       3912       3911  
      3780       3781       3792       3791       3901       3902       3913       3912  
      3781       3782       3793       3792       3902       3903       3914       3913  
      3782       3783       3794       3793       3903       3904       3915       3914  
      3783       3784       3795       3794       3904       3905       3916       3915  
      3785       3786       3797       3796       3906       3907       3918       3917  
      3786       3787       3798       3797       3907       3908       3919       3918  
      3787       3788       3799       3798       3908       3909       3920       3919  
      3788       3789       3800       3799       3909       3910       3921       3920  
      3789       3790       3801       3800       3910       3911       3922       3921  
      3790       3791       3802       3801       3911       3912       3923       3922  
      3791       3792       3803       3802       3912       3913       3924       3923  
      3792       3793       3804       3803       3913       3914       3925       3924  
      3793       3794       3805       3804       3914       3915       3926       3925  
      3794       3795       3806       3805       3915       3916       3927       3926  
      3796       3797       3808       3807       3917       3918       3929       3928  
      3797       3798       3809       3808       3918       3919       3930       3929  
      3798       3799       3810       3809       3919       3920       3931       3930  
      3799       3800       3811       3810       3920       3921       3932       3931  
      3800       3801       3812       3811       3921       3922       3933       3932  
      3801       3802       3813       3812       3922       3923       3934       3933  
      3802       3803       3814       3813       3923       3924       3935       3934  
      3803       3804       3815       3814       3924       3925       3936       3935  
      3804       3805       3816       3815       3925       3926       3937       3936  
      3805       3806       3817       3816       3926       3927       3938       3937  
      3807       3808       3819       3818       3928       3929       3940       3939  
      3808       3809       3820       3819       3929       3930       3941       3940  
      3809       3810       3821       3820       3930       3931       3942       3941  
      3810       3811       3822       3821       3931       3932       3943       3942  
      3811       3812       3823       3822       3932       3933       3944       3943  
      3812       3813       3824       3823       3933       3934       3945       3944  
      3813       3814       3825       3824       3934       3935       3946       3945  
      3814       3815       3826       3825       3935       3936       3947       3946  
      3815       3816       3827       3826       3936       3937       3948       3947  
      3816       3817       3828       3827       3937       3938       3949       3948  
      3818       3819       3830       3829       3939       3940       3951       3950  
      3819       3820       3831       3830       3940       3941       3952       3951  
      3820       3821       3832       3831       3941       3942       3953       3952  
      3821       3822       3833       3832       3942       3943       3954       3953  
      3822       3823       3834       3833       3943       3944       3955       3954  
      3823       3824       3835       3834       3944       3945       3956       3955  
      3824       3825       3836       3835       3945       3946       3957       3956  
      3825       3826       3837       3836       3946       3947       3958       3957  
      3826       3827       3838       3837       3947       3948       3959       3958  
      3827       3828       3839       3838       3948       3949       3960       3959  
      3829       3830       3841       3840       3950       3951       3962       3961  
      3830       3831       3842       3841       3951       3952       3963       3962  
      3831       3832       3843       3842       3952       3953       3964       3963  
      3832       3833       3844       3843       3953       3954       3965       3964  
      3833       3834       3845       3844       3954       3955       3966       3965  
      3834       3835       3846       3845       3955       3956       3967       3966  
      3835       3836       3847       3846       3956       3957       3968       3967  
      3836       3837       3848       3847       3957       3958       3969       3968  
      3837       3838       3849       3848       3958       3959       3970       3969  
      3838       3839       3850       3849       3959       3960       3971       3970  
      3840       3841       3852       3851       3961       3962       3973       3972  
      3841       3842       3853       3852       3962       3963       3974       3973  
      3842       3843       3854       3853       3963       3964       3975       3974  
      3843       3844       3855       3854       3964       3965       3976       3975  
      3844       3845       3856       3855       3965       3966       3977       3976  
      3845       3846       3857       3856       3966       3967       3978       3977  
      3846       3847       3858       3857       3967       3968       3979       3978  
      3847       3848       3859       3858       3968       3969       3980       3979  
      3848       3849       3860       3859       3969       3970       3981       3980  
      3849       3850       3861       3860       3970       3971       3982       3981  
      3851       3852       3863       3862       3972       3973       3984       3983  
      3852       3853       3864       3863       3973       3974       3985       3984  
      3853       3854       3865       3864       3974       3975       3986       3985  
      3854       3855       3866       3865       3975       3976       3987       3986  
      3855       3856       3867       3866       3976       3977       3988       3987  
      3856       3857       3868       3867       3977       3978       3989       3988  
      3857       3858       3869       3868       3978       3979       3990       3989  
      3858       3859       3870       3869       3979       3980       3991       3990  
      3859       3860       3871       3870       3980       3981       3992       3991  
      3860       3861       3872       3871       3981       3982       3993       3992  
      3873       3874       3885       3884       3994       3995       4006       4005  
      3874       3875       3886       3885       3995       3996       4007       4006  
      3875       3876       3887       3886       3996       3997       4008       4007  
      3876       3877       3888       3887       3997       3998       4009       4008  
      3877       3878       3889       3888       3998       3999       4010       4009  
      3878       3879       3890       3889       3999       4000       4011       4010  
      3879       3880       3891       3890       4000       4001       4012       4011  
      3880       3881       3892       3891       4001       4002       4013       4012  
      3881       3882       3893       3892       4002       4003       4014       4013  
      3882       3883       3894       3893       4003       4004       4015       4014  
      3884       3885       3896       3895       4005       4006       4017       4016  
      3885       3886       3897       3896       4006       4007       4018       4017  
      3886       3887       3898       3897       4007       4008       4019       4018  
      3887       3888       3899       3898       4008       4009       4020       4019  
      3888       3889       3900       3899       4009       4010       4021       4020  
      3889       3890       3901       3900       4010       4011       4022       4021  
      3890       3891       3902       3901       4011       4012       4023       4022  
      3891       3892       3903       3902       4012       4013       4024       4023  
      3892       3893       3904       3903       4013       4014       4025       4024  
      3893       3894       3905       3904       4014       4015       4026       4025  
      3895       3896       3907       3906       4016       4017       4028       4027  
      3896       3897       3908       3907       4017       4018       4029       4028  
      3897       3898       3909       3908       4018       4019       4030       4029  
      3898       3899       3910       3909       4019       4020       4031       4030  
      3899       3900       3911       3910       4020       4021       4032       4031  
      3900       3901       3912       3911       4021       4022       4033       4032  
      3901       3902       3913       3912       4022       4023       4034       4033  
      3902       3903       3914       3913       4023       4024       4035       4034  
      3903       3904       3915       3914       4024       4025       4036       4035  
      3904       3905       3916       3915       4025       4026       4037       4036  
      3906       3907       3918       3917       4027       4028       4039       4038  
      3907       3908       3919       3918       4028       4029       4040       4039  
      3908       3909       3920       3919       4029       4030       4041       4040  
      3909       3910       3921       3920       4030       4031       4042       4041  
      3910       3911       3922       3921       4031       4032       4043       4042  
      3911       3912       3923       3922       4032       4033       4044       4043  
      3912       3913       3924       3923       4033       4034       4045       4044  
      3913       3914       3925       3924       4034       4035       4046       4045  
      3914       3915       3926       3925       4035       4036       4047       4046  
      3915       3916       3927       3926       4036       4037       4048       4047  
      3917       3918       3929       3928       4038       4039       4050       4049  
      3918       3919       3930       3929       4039       4040       4051       4050  
      3919       3920       3931       3930       4040       4041       4052       4051  
      3920       3921       3932       3931       4041       4042       4053       4052  
      3921       3922       3933       3932       4042       4043       4054       4053  
      3922       3923       3934       3933       4043       4044       4055       4054  
      3923       3924       3935       3934       4044       4045       4056       4055  
      3924       3925       3936       3935       4045       4046       4057       4056  
      3925       3926       3937       3936       4046       4047       4058       4057  
      3926       3927       3938       3937       4047       4048       4059       4058  
      3928       3929       3940       3939       4049       4050       4061       4060  
      3929       3930       3941       3940       4050       4051       4062       4061  
      3930       3931       3942       3941       4051       4052       4063       4062  
      3931       3932       3943       3942       4052       4053       4064       4063  
      3932       3933       3944       3943       4053       4054       4065       4064  
      3933       3934       3945       3944       4054       4055       4066       4065  
      3934       3935       3946       3945       4055       4056       4067       4066  
      3935       3936       3947       3946       4056       4057       4068       4067  
      3936       3937       3948       3947       4057       4058       4069       4068  
      3937       3938       3949       3948       4058       4059       4070       4069  
      3939       3940       3951       3950       4060       4061       4072       4071  
      3940       3941       3952       3951       4061       4062       4073       4072  
      3941       3942       3953       3952       4062       4063       4074       4073  
      3942       3943       3954       3953       4063       4064       4075       4074  
      3943       3944       3955       3954       4064       4065       4076       4075  
      3944       3945       3956       3955       4065       4066       4077       4076  
      3945       3946       3957       3956       4066       4067       4078       4077  
      3946       3947       3958       3957       4067       4068       4079       4078  
      3947       3948       3959       3958       4068       4069       4080       4079  
      3948       3949       3960       3959       4069       4070       4081       4080  
      3950       3951       3962       3961       4071       4072       4083       4082  
      3951       3952       3963       3962       4072       4073       4084       4083  
      3952       3953       3964       3963       4073       4074       4085       4084  
      3953       3954       3965       3964       4074       4075       4086       4085  
      3954       3955       3966       3965       4075       4076       4087       4086  
      3955       3956       3967       3966       4076       4077       4088       4087  
      3956       3957       3968       3967       4077       4078       4089       4088  
      3957       3958       3969       3968       4078       4079       4090       4089  
      3958       3959       3970       3969       4079       4080       4091       4090  
      3959       3960       3971       3970       4080       4081       4092       4091  
      3961       3962       3973       3972       4082       4083       4094       4093  
      3962       3963       3974       3973       4083       4084       4095       4094  
      3963       3964       3975       3974       4084       4085       4096       4095  
      3964       3965       3976       3975       4085       4086       4097       4096  
      3965       3966       3977       3976       4086       4087       4098       4097  
      3966       3967       3978       3977       4087       4088       4099       4098  
      3967       3968       3979       3978       4088       4089       4100       4099  
      3968       3969       3980       3979       4089       4090       4101       4100  
      3969       3970       3981       3980       4090       4091       4102       4101  
      3970       3971       3982       3981       4091       4092       4103       4102  
      3972       3973       3984       3983       4093       4094       4105       4104  
      3973       3974       3985       3984       4094       4095       4106       4105  
      3974       3975       3986       3985       4095       4096       4107       4106  
      3975       3976       3987       3986       4096       4097       4108       4107  
      3976       3977       3988       3987       4097       4098       4109       4108  
      3977       3978       3989       3988       4098       4099       4110       4109  
      3978       3979       3990       3989       4099       4100       4111       4110  
      3979       3980       3991       3990       4100       4101       4112       4111  
      3980       3981       3992       3991       4101       4102       4113       4112  
      3981       3982       3993       3992       4102       4103       4114       4113  
      3994       3995       4006       4005       4115       4116       4127       4126  
      3995       3996       4007       4006       4116       4117       4128       4127  
      3996       3997       4008       4007       4117       4118       4129       4128  
      3997       3998       4009       4008       4118       4119       4130       4129  
      3998       3999       4010       4009       4119       4120       4131       4130  
      3999       4000       4011       4010       4120       4121       4132       4131  
      4000       4001       4012       4011       4121       4122       4133       4132  
      4001       4002       4013       4012       4122       4123       4134       4133  
      4002       4003       4014       4013       4123       4124       4135       4134  
      4003       4004       4015       4014       4124       4125       4136       4135  
      4005       4006       4017       4016       4126       4127       4138       4137  
      4006       4007       4018       4017       4127       4128       4139       4138  
      4007       4008       4019       4018       4128       4129       4140       4139  
      4008       4009       4020       4019       4129       4130       4141       4140  
      4009       4010       4021       4020       4130       4131       4142       4141  
      4010       4011       4022       4021       4131       4132       4143       4142  
      4011       4012       4023       4022       4132       4133       4144       4143  
      4012       4013       4024       4023       4133       4134       4145       4144  
      4013       4014       4025       4024       4134       4135       4146       4145  
      4014       4015       4026       4025       4135       4136       4147       4146  
      4016       4017       4028       4027       4137       4138       4149       4148  
      4017       4018       4029       4028       4138       4139       4150       4149  
      4018       4019       4030       4029       4139       4140       4151       4150  
      4019       4020       4031       4030       4140       4141       4152       4151  
      4020       4021       4032       4031       4141       4142       4153       4152  
      4021       4022       4033       4032       4142       4143       4154       4153  
      4022       4023       4034       4033       4143       4144       4155       4154  
      4023       4024       4035       4034       4144       4145       4156       4155  
      4024       4025       4036       4035       4145       4146       4157       4156  
      4025       4026       4037       4036       4146       4147       4158       4157  
      4027       4028       4039       4038       4148       4149       4160       4159  
      4028       4029       4040       4039       4149       4150       4161       4160  
      4029       4030       4041       4040       4150       4151       4162       4161  
      4030       4031       4042       4041       4151       4152       4163       4162  
      4031       4032       4043       4042       4152       4153       4164       4163  
      4032       4033       4044       4043       4153       4154       4165       4164  
      4033       4034       4045       4044       4154       4155       4166       4165  
      4034       4035       4046       4045       4155       4156       4167       4166  
      4035       4036       4047       4046       4156       4157       4168       4167  
      4036       4037       4048       4047       4157       4158       4169       4168  
      4038       4039       4050       4049       4159       4160       4171       4170  
      4039       4040       4051       4050       4160       4161       4172       4171  
      4040       4041       4052       4051       4161       4162       4173       4172  
      4041       4042       4053       4052       4162       4163       4174       4173  
      4042       4043       4054       4053       4163       4164       4175       4174  
      4043       4044       4055       4054       4164       4165       4176       4175  
      4044       4045       4056       4055       4165       4166       4177       4176  
      4045       4046       4057       4056       4166       4167       4178       4177  
      4046       4047       4058       4057       4167       4168       4179       4178  
      4047       4048       4059       4058       4168       4169       4180       4179  
      4049       4050       4061       4060       4170       4171       4182       4181  
      4050       4051       4062       4061       4171       4172       4183       4182  
      4051       4052       4063       4062       4172       4173       4184       4183  
      4052       4053       4064       4063       4173       4174       4185       4184  
      4053       4054       4065       4064       4174       4175       4186       4185  
      4054       4055       4066       4065       4175       4176       4187       4186  
      4055       4056       4067       4066       4176       4177       4188       4187  
      4056       4057       4068       4067       4177       4178       4189       4188  
      4057       4058       4069       4068       4178       4179       4190       4189  
      4058       4059       4070       4069       4179       4180       4191       4190  
      4060       4061       4072       4071       4181       4182       4193       4192  
      4061       4062       4073       4072       4182       4183       4194       4193  
      4062       4063       4074       4073       4183       4184       4195       4194  
      4063       4064       4075       4074       4184       4185       4196       4195  
      4064       4065       4076       4075       4185       4186       4197       4196  
      4065       4066       4077       4076       4186       4187       4198       4197  
      4066       4067       4078       4077       4187       4188       4199       4198  
      4067       4068       4079       4078       4188       4189       4200       4199  
      4068       4069       4080       4079       4189       4190       4201       4200  
      4069       4070       4081       4080       4190       4191       4202       4201  
      4071       4072       4083       4082       4192       4193       4204       4203  
      4072       4073       4084       4083       4193       4194       4205       4204  
      4073       4074       4085       4084       4194       4195       4206       4205  
      4074       4075       4086       4085       4195       4196       4207       4206  
      4075       4076       4087       4086       4196       4197       4208       4207  
      4076       4077       4088       4087       4197       4198       4209       4208  
      4077       4078       4089       4088       4198       4199       4210       4209  
      4078       4079       4090       4089       4199       4200       4211       4210  
      4079       4080       4091       4090       4200       4201       4212       4211  
      4080       4081       4092       4091       4201       4202       4213       4212  
      4082       4083       4094       4093       4203       4204       4215       4214  
      4083       4084       4095       4094       4204       4205       4216       4215  
      4084       4085       4096       4095       4205       4206       4217       4216  
      4085       4086       4097       4096       4206       4207       4218       4217  
      4086       4087       4098       4097       4207       4208       4219       4218  
      4087       4088       4099       4098       4208       4209       4220       4219  
      4088       4089       4100       4099       4209       4210       4221       4220  
      4089       4090       4101       4100       4210       4211       4222       4221  
      4090       4091       4102       4101       4211       4212       4223       4222  
      4091       4092       4103       4102       4212       4213       4224       4223  
      4093       4094       4105       4104       4214       4215       4226       4225  
      4094       4095       4106       4105       4215       4216       4227       4226  
      4095       4096       4107       4106       4216       4217       4228       4227  
      4096       4097       4108       4107       4217       4218       4229       4228  
      4097       4098       4109       4108       4218       4219       4230       4229  
      4098       4099       4110       4109       4219       4220       4231       4230  
      4099       4100       4111       4110       4220       4221       4232       4231  
      4100       4101       4112       4111       4221       4222       4233       4232  
      4101       4102       4113       4112       4222       4223       4234       4233  
      4102       4103       4114       4113       4223       4224       4235       4234  
      4115       4116       4127       4126       4236       4237       4248       4247  
      4116       4117       4128       4127       4237       4238       4249       4248  
      4117       4118       4129       4128       4238       4239       4250       4249  
      4118       4119       4130       4129       4239       4240       4251       4250  
      4119       4120       4131       4130       4240       4241       4252       4251  
      4120       4121       4132       4131       4241       4242       4253       4252  
      4121       4122       4133       4132       4242       4243       4254       4253  
      4122       4123       4134       4133       4243       4244       4255       4254  
      4123       4124       4135       4134       4244       4245       4256       4255  
      4124       4125       4136       4135       4245       4246       4257       4256  
      4126       4127       4138       4137       4247       4248       4259       4258  
      4127       4128       4139       4138       4248       4249       4260       4259  
      4128       4129       4140       4139       4249       4250       4261       4260  
      4129       4130       4141       4140       4250       4251       4262       4261  
      4130       4131       4142       4141       4251       4252       4263       4262  
      4131       4132       4143       4142       4252       4253       4264       4263  
      4132       4133       4144       4143       4253       4254       4265       4264  
      4133       4134       4145       4144       4254       4255       4266       4265  
      4134       4135       4146       4145       4255       4256       4267       4266  
      4135       4136       4147       4146       4256       4257       4268       4267  
      4137       4138       4149       4148       4258       4259       4270       4269  
      4138       4139       4150       4149       4259       4260       4271       4270  
      4139       4140       4151       4150       4260       4261       4272       4271  
      4140       4141       4152       4151       4261       4262       4273       4272  
      4141       4142       4153       4152       4262       4263       4274       4273  
      4142       4143       4154       4153       4263       4264       4275       4274  
      4143       4144       4155       4154       4264       4265       4276       4275  
      4144       4145       4156       4155       4265       4266       4277       4276  
      4145       4146       4157       4156       4266       4267       4278       4277  
      4146       4147       4158       4157       4267       4268       4279       4278  
      4148       4149       4160       4159       4269       4270       4281       4280  
      4149       4150       4161       4160       4270       4271       4282       4281  
      4150       4151       4162       4161       4271       4272       4283       4282  
      4151       4152       4163       4162       4272       4273       4284       4283  
      4152       4153       4164       4163       4273       4274       4285       4284  
      4153       4154       4165       4164       4274       4275       4286       4285  
      4154       4155       4166       4165       4275       4276       4287       4286  
      4155       4156       4167       4166       4276       4277       4288       4287  
      4156       4157       4168       4167       4277       4278       4289       4288  
      4157       4158       4169       4168       4278       4279       4290       4289  
      4159       4160       4171       4170       4280       4281       4292       4291  
      4160       4161       4172       4171       4281       4282       4293       4292  
      4161       4162       4173       4172       4282       4283       4294       4293  
      4162       4163       4174       4173       4283       4284       4295       4294  
      4163       4164       4175       4174       4284       4285       4296       4295  
      4164       4165       4176       4175       4285       4286       4297       4296  
      4165       4166       4177       4176       4286       4287       4298       4297  
      4166       4167       4178       4177       4287       4288       4299       4298  
      4167       4168       4179       4178       4288       4289       4300       4299  
      4168       4169       4180       4179       4289       4290       4301       4300  
      4170       4171       4182       4181       4291       4292       4303       4302  
      4171       4172       4183       4182       4292       4293       4304       4303  
      4172       4173       4184       4183       4293       4294       4305       4304  
      4173       4174       4185       4184       4294       4295       4306       4305  
      4174       4175       4186       4185       4295       4296       4307       4306  
      4175       4176       4187       4186       4296       4297       4308       4307  
      4176       4177       4188       4187       4297       4298       4309       4308  
      4177       4178       4189       4188       4298       4299       4310       4309  
      4178       4179       4190       4189       4299       4300       4311       4310  
      4179       4180       4191       4190       4300       4301       4312       4311  
      4181       4182       4193       4192       4302       4303       4314       4313  
      4182       4183       4194       4193       4303       4304       4315       4314  
      4183       4184       4195       4194       4304       4305       4316       4315  
      4184       4185       4196       4195       4305       4306       4317       4316  
      4185       4186       4197       4196       4306       4307       4318       4317  
      4186       4187       4198       4197       4307       4308       4319       4318  
      4187       4188       4199       4198       4308       4309       4320       4319  
      4188       4189       4200       4199       4309       4310       4321       4320  
      4189       4190       4201       4200       4310       4311       4322       4321  
      4190       4191       4202       4201       4311       4312       4323       4322  
      4192       4193       4204       4203       4313       4314       4325       4324  
      4193       4194       4205       4204       4314       4315       4326       4325  
      4194       4195       4206       4205       4315       4316       4327       4326  
      4195       4196       4207       4206       4316       4317       4328       4327  
      4196       4197       4208       4207       4317       4318       4329       4328  
      4197       4198       4209       4208       4318       4319       4330       4329  
      4198       4199       4210       4209       4319       4320       4331       4330  
      4199       4200       4211       4210       4320       4321       4332       4331  
      4200       4201       4212       4211       4321       4322       4333       4332  
      4201       4202       4213       4212       4322       4323       4334       4333  
      4203       4204       4215       4214       4324       4325       4336       4335  
      4204       4205       4216       4215       4325       4326       4337       4336  
      4205       4206       4217       4216       4326       4327       4338       4337  
      4206       4207       4218       4217       4327       4328       4339       4338  
      4207       4208       4219       4218       4328       4329       4340       4339  
      4208       4209       4220       4219       4329       4330       4341       4340  
      4209       4210       4221       4220       4330       4331       4342       4341  
      4210       4211       4222       4221       4331       4332       4343       4342  
      4211       4212       4223       4222       4332       4333       4344       4343  
      4212       4213       4224       4223       4333       4334       4345       4344  
      4214       4215       4226       4225       4335       4336       4347       4346  
      4215       4216       4227       4226       4336       4337       4348       4347  
      4216       4217       4228       4227       4337       4338       4349       4348  
      4217       4218       4229       4228       4338       4339       4350       4349  
      4218       4219       4230       4229       4339       4340       4351       4350  
      4219       4220       4231       4230       4340       4341       4352       4351  
      4220       4221       4232       4231       4341       4342       4353       4352  
      4221       4222       4233       4232       4342       4343       4354       4353  
      4222       4223       4234       4233       4343       4344       4355       4354  
      4223       4224       4235       4234       4344       4345       4356       4355  
      4236       4237       4248       4247       4357       4358       4369       4368  
      4237       4238       4249       4248       4358       4359       4370       4369  
      4238       4239       4250       4249       4359       4360       4371       4370  
      4239       4240       4251       4250       4360       4361       4372       4371  
      4240       4241       4252       4251       4361       4362       4373       4372  
      4241       4242       4253       4252       4362       4363       4374       4373  
      4242       4243       4254       4253       4363       4364       4375       4374  
      4243       4244       4255       4254       4364       4365       4376       4375  
      4244       4245       4256       4255       4365       4366       4377       4376  
      4245       4246       4257       4256       4366       4367       4378       4377  
      4247       4248       4259       4258       4368       4369       4380       4379  
      4248       4249       4260       4259       4369       4370       4381       4380  
      4249       4250       4261       4260       4370       4371       4382       4381  
      4250       4251       4262       4261       4371       4372       4383       4382  
      4251       4252       4263       4262       4372       4373       4384       4383  
      4252       4253       4264       4263       4373       4374       4385       4384  
      4253       4254       4265       4264       4374       4375       4386       4385  
      4254       4255       4266       4265       4375       4376       4387       4386  
      4255       4256       4267       4266       4376       4377       4388       4387  
      4256       4257       4268       4267       4377       4378       4389       4388  
      4258       4259       4270       4269       4379       4380       4391       4390  
      4259       4260       4271       4270       4380       4381       4392       4391  
      4260       4261       4272       4271       4381       4382       4393       4392  
      4261       4262       4273       4272       4382       4383       4394       4393  
      4262       4263       4274       4273       4383       4384       4395       4394  
      4263       4264       4275       4274       4384       4385       4396       4395  
      4264       4265       4276       4275       4385       4386       4397       4396  
      4265       4266       4277       4276       4386       4387       4398       4397  
      4266       4267       4278       4277       4387       4388       4399       4398  
      4267       4268       4279       4278       4388       4389       4400       4399  
      4269       4270       4281       4280       4390       4391       4402       4401  
      4270       4271       4282       4281       4391       4392       4403       4402  
      4271       4272       4283       4282       4392       4393       4404       4403  
      4272       4273       4284       4283       4393       4394       4405       4404  
      4273       4274       4285       4284       4394       4395       4406       4405  
      4274       4275       4286       4285       4395       4396       4407       4406  
      4275       4276       4287       4286       4396       4397       4408       4407  
      4276       4277       4288       4287       4397       4398       4409       4408  
      4277       4278       4289       4288       4398       4399       4410       4409  
      4278       4279       4290       4289       4399       4400       4411       4410  
      4280       4281       4292       4291       4401       4402       4413       4412  
      4281       4282       4293       4292       4402       4403       4414       4413  
      4282       4283       4294       4293       4403       4404       4415       4414  
      4283       4284       4295       4294       4404       4405       4416       4415  
      4284       4285       4296       4295       4405       4406       4417       4416  
      4285       4286       4297       4296       4406       4407       4418       4417  
      4286       4287       4298       4297       4407       4408       4419       4418  
      4287       4288       4299       4298       4408       4409       4420       4419  
      4288       4289       4300       4299       4409       4410       4421       4420  
      4289       4290       4301       4300       4410       4411       4422       4421  
      4291       4292       4303       4302       4412       4413       4424       4423  
      4292       4293       4304       4303       4413       4414       4425       4424  
      4293       4294       4305       4304       4414       4415       4426       4425  
      4294       4295       4306       4305       4415       4416       4427       4426  
      4295       4296       4307       4306       4416       4417       4428       4427  
      4296       4297       4308       4307       4417       4418       4429       4428  
      4297       4298       4309       4308       4418       4419       4430       4429  
      4298       4299       4310       4309       4419       4420       4431       4430  
      4299       4300       4311       4310       4420       4421       4432       4431  
      4300       4301       4312       4311       4421       4422       4433       4432  
      4302       4303       4314       4313       4423       4424       4435       4434  
      4303       4304       4315       4314       4424       4425       4436       4435  
      4304       4305       4316       4315       4425       4426       4437       4436  
      4305       4306       4317       4316       4426       4427       4438       4437  
      4306       4307       4318       4317       4427       4428       4439       4438  
      4307       4308       4319       4318       4428       4429       4440       4439  
      4308       4309       4320       4319       4429       4430       4441       4440  
      4309       4310       4321       4320       4430       4431       4442       4441  
      4310       4311       4322       4321       4431       4432       4443       4442  
      4311       4312       4323       4322       4432       4433       4444       4443  
      4313       4314       4325       4324       4434       4435       4446       4445  
      4314       4315       4326       4325       4435       4436       4447       4446  
      4315       4316       4327       4326       4436       4437       4448       4447  
      4316       4317       4328       4327       4437       4438       4449       4448  
      4317       4318       4329       4328       4438       4439       4450       4449  
      4318       4319       4330       4329       4439       4440       4451       4450  
      4319       4320       4331       4330       4440       4441       4452       4451  
      4320       4321       4332       4331       4441       4442       4453       4452  
      4321       4322       4333       4332       4442       4443       4454       4453  
      4322       4323       4334       4333       4443       4444       4455       4454  
      4324       4325       4336       4335       4445       4446       4457       4456  
      4325       4326       4337       4336       4446       4447       4458       4457  
      4326       4327       4338       4337       4447       4448       4459       4458  
      4327       4328       4339       4338       4448       4449       4460       4459  
      4328       4329       4340       4339       4449       4450       4461       4460  
      4329       4330       4341       4340       4450       4451       4462       4461  
      4330       4331       4342       4341       4451       4452       4463       4462  
      4331       4332       4343       4342       4452       4453       4464       4463  
      4332       4333       4344       4343       4453       4454       4465       4464  
      4333       4334       4345       4344       4454       4455       4466       4465  
      4335       4336       4347       4346       4456       4457       4468       4467  
      4336       4337       4348       4347       4457       4458       4469       4468  
      4337       4338       4349       4348       4458       4459       4470       4469  
      4338       4339       4350       4349       4459       4460       4471       4470  
      4339       4340       4351       4350       4460       4461       4472       4471  
      4340       4341       4352       4351       4461       4462       4473       4472  
      4341       4342       4353       4352       4462       4463       4474       4473  
      4342       4343       4354       4353       4463       4464       4475       4474  
      4343       4344       4355       4354       4464       4465       4476       4475  
      4344       4345       4356       4355       4465       4466       4477       4476  
      4357       4358       4369       4368       4478       4479       4490       4489  
      4358       4359       4370       4369       4479       4480       4491       4490  
      4359       4360       4371       4370       4480       4481       4492       4491  
      4360       4361       4372       4371       4481       4482       4493       4492  
      4361       4362       4373       4372       4482       4483       4494       4493  
      4362       4363       4374       4373       4483       4484       4495       4494  
      4363       4364       4375       4374       4484       4485       4496       4495  
      4364       4365       4376       4375       4485       4486       4497       4496  
      4365       4366       4377       4376       4486       4487       4498       4497  
      4366       4367       4378       4377       4487       4488       4499       4498  
      4368       4369       4380       4379       4489       4490       4501       4500  
      4369       4370       4381       4380       4490       4491       4502       4501  
      4370       4371       4382       4381       4491       4492       4503       4502  
      4371       4372       4383       4382       4492       4493       4504       4503  
      4372       4373       4384       4383       4493       4494       4505       4504  
      4373       4374       4385       4384       4494       4495       4506       4505  
      4374       4375       4386       4385       4495       4496       4507       4506  
      4375       4376       4387       4386       4496       4497       4508       4507  
      4376       4377       4388       4387       4497       4498       4509       4508  
      4377       4378       4389       4388       4498       4499       4510       4509  
      4379       4380       4391       4390       4500       4501       4512       4511  
      4380       4381       4392       4391       4501       4502       4513       4512  
      4381       4382       4393       4392       4502       4503       4514       4513  
      4382       4383       4394       4393       4503       4504       4515       4514  
      4383       4384       4395       4394       4504       4505       4516       4515  
      4384       4385       4396       4395       4505       4506       4517       4516  
      4385       4386       4397       4396       4506       4507       4518       4517  
      4386       4387       4398       4397       4507       4508       4519       4518  
      4387       4388       4399       4398       4508       4509       4520       4519  
      4388       4389       4400       4399       4509       4510       4521       4520  
      4390       4391       4402       4401       4511       4512       4523       4522  
      4391       4392       4403       4402       4512       4513       4524       4523  
      4392       4393       4404       4403       4513       4514       4525       4524  
      4393       4394       4405       4404       4514       4515       4526       4525  
      4394       4395       4406       4405       4515       4516       4527       4526  
      4395       4396       4407       4406       4516       4517       4528       4527  
      4396       4397       4408       4407       4517       4518       4529       4528  
      4397       4398       4409       4408       4518       4519       4530       4529  
      4398       4399       4410       4409       4519       4520       4531       4530  
      4399       4400       4411       4410       4520       4521       4532       4531  
      4401       4402       4413       4412       4522       4523       4534       4533  
      4402       4403       4414       4413       4523       4524       4535       4534  
      4403       4404       4415       4414       4524       4525       4536       4535  
      4404       4405       4416       4415       4525       4526       4537       4536  
      4405       4406       4417       4416       4526       4527       4538       4537  
      4406       4407       4418       4417       4527       4528       4539       4538  
      4407       4408       4419       4418       4528       4529       4540       4539  
      4408       4409       4420       4419       4529       4530       4541       4540  
      4409       4410       4421       4420       4530       4531       4542       4541  
      4410       4411       4422       4421       4531       4532       4543       4542  
      4412       4413       4424       4423       4533       4534       4545       4544  
      4413       4414       4425       4424       4534       4535       4546       4545  
      4414       4415       4426       4425       4535       4536       4547       4546  
      4415       4416       4427       4426       4536       4537       4548       4547  
      4416       4417       4428       4427       4537       4538       4549       4548  
      4417       4418       4429       4428       4538       4539       4550       4549  
      4418       4419       4430       4429       4539       4540       4551       4550  
      4419       4420       4431       4430       4540       4541       4552       4551  
      4420       4421       4432       4431       4541       4542       4553       4552  
      4421       4422       4433       4432       4542       4543       4554       4553  
      4423       4424       4435       4434       4544       4545       4556       4555  
      4424       4425       4436       4435       4545       4546       4557       4556  
      4425       4426       4437       4436       4546       4547       4558       4557  
      4426       4427       4438       4437       4547       4548       4559       4558  
      4427       4428       4439       4438       4548       4549       4560       4559  
      4428       4429       4440       4439       4549       4550       4561       4560  
      4429       4430       4441       4440       4550       4551       4562       4561  
      4430       4431       4442       4441       4551       4552       4563       4562  
      4431       4432       4443       4442       4552       4553       4564       4563  
      4432       4433       4444       4443       4553       4554       4565       4564  
      4434       4435       4446       4445       4555       4556       4567       4566  
      4435       4436       4447       4446       4556       4557       4568       4567  
      4436       4437       4448       4447       4557       4558       4569       4568  
      4437       4438       4449       4448       4558       4559       4570       4569  
      4438       4439       4450       4449       4559       4560       4571       4570  
      4439       4440       4451       4450       4560       4561       4572       4571  
      4440       4441       4452       4451       4561       4562       4573       4572  
      4441       4442       4453       4452       4562       4563       4574       4573  
      4442       4443       4454       4453       4563       4564       4575       4574  
      4443       4444       4455       4454       4564       4565       4576       4575  
      4445       4446       4457       4456       4566       4567       4578       4577  
      4446       4447       4458       4457       4567       4568       4579       4578  
      4447       4448       4459       4458       4568       4569       4580       4579  
      4448       4449       4460       4459       4569       4570       4581       4580  
      4449       4450       4461       4460       4570       4571       4582       4581  
      4450       4451       4462       4461       4571       4572       4583       4582  
      4451       4452       4463       4462       4572       4573       4584       4583  
      4452       4453       4464       4463       4573       4574       4585       4584  
      4453       4454       4465       4464       4574       4575       4586       4585  
      4454       4455       4466       4465       4575       4576       4587       4586  
      4456       4457       4468       4467       4577       4578       4589       4588  
      4457       4458       4469       4468       4578       4579       4590       4589  
      4458       4459       4470       4469       4579       4580       4591       4590  
      4459       4460       4471       4470       4580       4581       4592       4591  
      4460       4461       4472       4471       4581       4582       4593       4592  
      4461       4462       4473       4472       4582       4583       4594       4593  
      4462       4463       4474       4473       4583       4584       4595       4594  
      4463       4464       4475       4474       4584       4585       4596       4595  
      4464       4465       4476       4475       4585       4586       4597       4596  
      4465       4466       4477       4476       4586       4587       4598       4597  
      4478       4479       4490       4489       4599       4600       4611       4610  
      4479       4480       4491       4490       4600       4601       4612       4611  
      4480       4481       4492       4491       4601       4602       4613       4612  
      4481       4482       4493       4492       4602       4603       4614       4613  
      4482       4483       4494       4493       4603       4604       4615       4614  
      4483       4484       4495       4494       4604       4605       4616       4615  
      4484       4485       4496       4495       4605       4606       4617       4616  
      4485       4486       4497       4496       4606       4607       4618       4617  
      4486       4487       4498       4497       4607       4608       4619       4618  
      4487       4488       4499       4498       4608       4609       4620       4619  
      4489       4490       4501       4500       4610       4611       4622       4621  
      4490       4491       4502       4501       4611       4612       4623       4622  
      4491       4492       4503       4502       4612       4613       4624       4623  
      4492       4493       4504       4503       4613       4614       4625       4624  
      4493       4494       4505       4504       4614       4615       4626       4625  
      4494       4495       4506       4505       4615       4616       4627       4626  
      4495       4496       4507       4506       4616       4617       4628       4627  
      4496       4497       4508       4507       4617       4618       4629       4628  
      4497       4498       4509       4508       4618       4619       4630       4629  
      4498       4499       4510       4509       4619       4620       4631       4630  
      4500       4501       4512       4511       4621       4622       4633       4632  
      4501       4502       4513       4512       4622       4623       4634       4633  
      4502       4503       4514       4513       4623       4624       4635       4634  
      4503       4504       4515       4514       4624       4625       4636       4635  
      4504       4505       4516       4515       4625       4626       4637       4636  
      4505       4506       4517       4516       4626       4627       4638       4637  
      4506       4507       4518       4517       4627       4628       4639       4638  
      4507       4508       4519       4518       4628       4629       4640       4639  
      4508       4509       4520       4519       4629       4630       4641       4640  
      4509       4510       4521       4520       4630       4631       4642       4641  
      4511       4512       4523       4522       4632       4633       4644       4643  
      4512       4513       4524       4523       4633       4634       4645       4644  
      4513       4514       4525       4524       4634       4635       4646       4645  
      4514       4515       4526       4525       4635       4636       4647       4646  
      4515       4516       4527       4526       4636       4637       4648       4647  
      4516       4517       4528       4527       4637       4638       4649       4648  
      4517       4518       4529       4528       4638       4639       4650       4649  
      4518       4519       4530       4529       4639       4640       4651       4650  
      4519       4520       4531       4530       4640       4641       4652       4651  
      4520       4521       4532       4531       4641       4642       4653       4652  
      4522       4523       4534       4533       4643       4644       4655       4654  
      4523       4524       4535       4534       4644       4645       4656       4655  
      4524       4525       4536       4535       4645       4646       4657       4656  
      4525       4526       4537       4536       4646       4647       4658       4657  
      4526       4527       4538       4537       4647       4648       4659       4658  
      4527       4528       4539       4538       4648       4649       4660       4659  
      4528       4529       4540       4539       4649       4650       4661       4660  
      4529       4530       4541       4540       4650       4651       4662       4661  
      4530       4531       4542       4541       4651       4652       4663       4662  
      4531       4532       4543       4542       4652       4653       4664       4663  
      4533       4534       4545       4544       4654       4655       4666       4665  
      4534       4535       4546       4545       4655       4656       4667       4666  
      4535       4536       4547       4546       4656       4657       4668       4667  
      4536       4537       4548       4547       4657       4658       4669       4668  
      4537       4538       4549       4548       4658       4659       4670       4669  
      4538       4539       4550       4549       4659       4660       4671       4670  
      4539       4540       4551       4550       4660       4661       4672       4671  
      4540       4541       4552       4551       4661       4662       4673       4672  
      4541       4542       4553       4552       4662       4663       4674       4673  
      4542       4543       4554       4553       4663       4664       4675       4674  
      4544       4545       4556       4555       4665       4666       4677       4676  
      4545       4546       4557       4556       4666       4667       4678       4677  
      4546       4547       4558       4557       4667       4668       4679       4678  
      4547       4548       4559       4558       4668       4669       4680       4679  
      4548       4549       4560       4559       4669       4670       4681       4680  
      4549       4550       4561       4560       4670       4671       4682       4681  
      4550       4551       4562       4561       4671       4672       4683       4682  
      4551       4552       4563       4562       4672       4673       4684       4683  
      4552       4553       4564       4563       4673       4674       4685       4684  
      4553       4554       4565       4564       4674       4675       4686       4685  
      4555       4556       4567       4566       4676       4677       4688       4687  
      4556       4557       4568       4567       4677       4678       4689       4688  
      4557       4558       4569       4568       4678       4679       4690       4689  
      4558       4559       4570       4569       4679       4680       4691       4690  
      4559       4560       4571       4570       4680       4681       4692       4691  
      4560       4561       4572       4571       4681       4682       4693       4692  
      4561       4562       4573       4572       4682       4683       4694       4693  
      4562       4563       4574       4573       4683       4684       4695       4694  
      4563       4564       4575       4574       4684       4685       4696       4695  
      4564       4565       4576       4575       4685       4686       4697       4696  
      4566       4567       4578       4577       4687       4688       4699       4698  
      4567       4568       4579       4578       4688       4689       4700       4699  
      4568       4569       4580       4579       4689       4690       4701       4700  
      4569       4570       4581       4580       4690       4691       4702       4701  
      4570       4571       4582       4581       4691       4692       4703       4702  
      4571       4572       4583       4582       4692       4693       4704       4703  
      4572       4573       4584       4583       4693       4694       4705       4704  
      4573       4574       4585       4584       4694       4695       4706       4705  
      4574       4575       4586       4585       4695       4696       4707       4706  
      4575       4576       4587       4586       4696       4697       4708       4707  
      4577       4578       4589       4588       4698       4699       4710       4709  
      4578       4579       4590       4589       4699       4700       4711       4710  
      4579       4580       4591       4590       4700       4701       4712       4711  
      4580       4581       4592       4591       4701       4702       4713       4712  
      4581       4582       4593       4592       4702       4703       4714       4713  
      4582       4583       4594       4593       4703       4704       4715       4714  
      4583       4584       4595       4594       4704       4705       4716       4715  
      4584       4585       4596       4595       4705       4706       4717       4716  
      4585       4586       4597       4596       4706       4707       4718       4717  
      4586       4587       4598       4597       4707       4708       4719       4718  
      4599       4600       4611       4610       4720       4721       4732       4731  
      4600       4601       4612       4611       4721       4722       4733       4732  
      4601       4602       4613       4612       4722       4723       4734       4733  
      4602       4603       4614       4613       4723       4724       4735       4734  
      4603       4604       4615       4614       4724       4725       4736       4735  
      4604       4605       4616       4615       4725       4726       4737       4736  
      4605       4606       4617       4616       4726       4727       4738       4737  
      4606       4607       4618       4617       4727       4728       4739       4738  
      4607       4608       4619       4618       4728       4729       4740       4739  
      4608       4609       4620       4619       4729       4730       4741       4740  
      4610       4611       4622       4621       4731       4732       4743       4742  
      4611       4612       4623       4622       4732       4733       4744       4743  
      4612       4613       4624       4623       4733       4734       4745       4744  
      4613       4614       4625       4624       4734       4735       4746       4745  
      4614       4615       4626       4625       4735       4736       4747       4746  
      4615       4616       4627       4626       4736       4737       4748       4747  
      4616       4617       4628       4627       4737       4738       4749       4748  
      4617       4618       4629       4628       4738       4739       4750       4749  
      4618       4619       4630       4629       4739       4740       4751       4750  
      4619       4620       4631       4630       4740       4741       4752       4751  
      4621       4622       4633       4632       4742       4743       4754       4753  
      4622       4623       4634       4633       4743       4744       4755       4754  
      4623       4624       4635       4634       4744       4745       4756       4755  
      4624       4625       4636       4635       4745       4746       4757       4756  
      4625       4626       4637       4636       4746       4747       4758       4757  
      4626       4627       4638       4637       4747       4748       4759       4758  
      4627       4628       4639       4638       4748       4749       4760       4759  
      4628       4629       4640       4639       4749       4750       4761       4760  
      4629       4630       4641       4640       4750       4751       4762       4761  
      4630       4631       4642       4641       4751       4752       4763       4762  
      4632       4633       4644       4643       4753       4754       4765       4764  
      4633       4634       4645       4644       4754       4755       4766       4765  
      4634       4635       4646       4645       4755       4756       4767       4766  
      4635       4636       4647       4646       4756       4757       4768       4767  
      4636       4637       4648       4647       4757       4758       4769       4768  
      4637       4638       4649       4648       4758       4759       4770       4769  
      4638       4639       4650       4649       4759       4760       4771       4770  
      4639       4640       4651       4650       4760       4761       4772       4771  
      4640       4641       4652       4651       4761       4762       4773       4772  
      4641       4642       4653       4652       4762       4763       4774       4773  
      4643       4644       4655       4654       4764       4765       4776       4775  
      4644       4645       4656       4655       4765       4766       4777       4776  
      4645       4646       4657       4656       4766       4767       4778       4777  
      4646       4647       4658       4657       4767       4768       4779       4778  
      4647       4648       4659       4658       4768       4769       4780       4779  
      4648       4649       4660       4659       4769       4770       4781       4780  
      4649       4650       4661       4660       4770       4771       4782       4781  
      4650       4651       4662       4661       4771       4772       4783       4782  
      4651       4652       4663       4662       4772       4773       4784       4783  
      4652       4653       4664       4663       4773       4774       4785       4784  
      4654       4655       4666       4665       4775       4776       4787       4786  
      4655       4656       4667       4666       4776       4777       4788       4787  
      4656       4657       4668       4667       4777       4778       4789       4788  
      4657       4658       4669       4668       4778       4779       4790       4789  
      4658       4659       4670       4669       4779       4780       4791       4790  
      4659       4660       4671       4670       4780       4781       4792       4791  
      4660       4661       4672       4671       4781       4782       4793       4792  
      4661       4662       4673       4672       4782       4783       4794       4793  
      4662       4663       4674       4673       4783       4784       4795       4794  
      4663       4664       4675       4674       4784       4785       4796       4795  
      4665       4666       4677       4676       4786       4787       4798       4797  
      4666       4667       4678       4677       4787       4788       4799       4798  
      4667       4668       4679       4678       4788       4789       4800       4799  
      4668       4669       4680       4679       4789       4790       4801       4800  
      4669       4670       4681       4680       4790       4791       4802       4801  
      4670       4671       4682       4681       4791       4792       4803       4802  
      4671       4672       4683       4682       4792       4793       4804       4803  
      4672       4673       4684       4683       4793       4794       4805       4804  
      4673       4674       4685       4684       4794       4795       4806       4805  
      4674       4675       4686       4685       4795       4796       4807       4806  
      4676       4677       4688       4687       4797       4798       4809       4808  
      4677       4678       4689       4688       4798       4799       4810       4809  
      4678       4679       4690       4689       4799       4800       4811       4810  
      4679       4680       4691       4690       4800       4801       4812       4811  
      4680       4681       4692       4691       4801       4802       4813       4812  
      4681       4682       4693       4692       4802       4803       4814       4813  
      4682       4683       4694       4693       4803       4804       4815       4814  
      4683       4684       4695       4694       4804       4805       4816       4815  
      4684       4685       4696       4695       4805       4806       4817       4816  
      4685       4686       4697       4696       4806       4807       4818       4817  
      4687       4688       4699       4698       4808       4809       4820       4819  
      4688       4689       4700       4699       4809       4810       4821       4820  
      4689       4690       4701       4700       4810       4811       4822       4821  
      4690       4691       4702       4701       4811       4812       4823       4822  
      4691       4692       4703       4702       4812       4813       4824       4823  
      4692       4693       4704       4703       4813       4814       4825       4824  
      4693       4694       4705       4704       4814       4815       4826       4825  
      4694       4695       4706       4705       4815       4816       4827       4826  
      4695       4696       4707       4706       4816       4817       4828       4827  
      4696       4697       4708       4707       4817       4818       4829       4828  
      4698       4699       4710       4709       4819       4820       4831       4830  
      4699       4700       4711       4710       4820       4821       4832       4831  
      4700       4701       4712       4711       4821       4822       4833       4832  
      4701       4702       4713       4712       4822       4823       4834       4833  
      4702       4703       4714       4713       4823       4824       4835       4834  
      4703       4704       4715       4714       4824       4825       4836       4835  
      4704       4705       4716       4715       4825       4826       4837       4836  
      4705       4706       4717       4716       4826       4827       4838       4837  
      4706       4707       4718       4717       4827       4828       4839       4838  
      4707       4708       4719       4718       4828       4829       4840       4839  
      4720       4721       4732       4731       4841       4842       4853       4852  
      4721       4722       4733       4732       4842       4843       4854       4853  
      4722       4723       4734       4733       4843       4844       4855       4854  
      4723       4724       4735       4734       4844       4845       4856       4855  
      4724       4725       4736       4735       4845       4846       4857       4856  
      4725       4726       4737       4736       4846       4847       4858       4857  
      4726       4727       4738       4737       4847       4848       4859       4858  
      4727       4728       4739       4738       4848       4849       4860       4859  
      4728       4729       4740       4739       4849       4850       4861       4860  
      4729       4730       4741       4740       4850       4851       4862       4861  
      4731       4732       4743       4742       4852       4853       4864       4863  
      4732       4733       4744       4743       4853       4854       4865       4864  
      4733       4734       4745       4744       4854       4855       4866       4865  
      4734       4735       4746       4745       4855       4856       4867       4866  
      4735       4736       4747       4746       4856       4857       4868       4867  
      4736       4737       4748       4747       4857       4858       4869       4868  
      4737       4738       4749       4748       4858       4859       4870       4869  
      4738       4739       4750       4749       4859       4860       4871       4870  
      4739       4740       4751       4750       4860       4861       4872       4871  
      4740       4741       4752       4751       4861       4862       4873       4872  
      4742       4743       4754       4753       4863       4864       4875       4874  
      4743       4744       4755       4754       4864       4865       4876       4875  
      4744       4745       4756       4755       4865       4866       4877       4876  
      4745       4746       4757       4756       4866       4867       4878       4877  
      4746       4747       4758       4757       4867       4868       4879       4878  
      4747       4748       4759       4758       4868       4869       4880       4879  
      4748       4749       4760       4759       4869       4870       4881       4880  
      4749       4750       4761       4760       4870       4871       4882       4881  
      4750       4751       4762       4761       4871       4872       4883       4882  
      4751       4752       4763       4762       4872       4873       4884       4883  
      4753       4754       4765       4764       4874       4875       4886       4885  
      4754       4755       4766       4765       4875       4876       4887       4886  
      4755       4756       4767       4766       4876       4877       4888       4887  
      4756       4757       4768       4767       4877       4878       4889       4888  
      4757       4758       4769       4768       4878       4879       4890       4889  
      4758       4759       4770       4769       4879       4880       4891       4890  
      4759       4760       4771       4770       4880       4881       4892       4891  
      4760       4761       4772       4771       4881       4882       4893       4892  
      4761       4762       4773       4772       4882       4883       4894       4893  
      4762       4763       4774       4773       4883       4884       4895       4894  
      4764       4765       4776       4775       4885       4886       4897       4896  
      4765       4766       4777       4776       4886       4887       4898       4897  
      4766       4767       4778       4777       4887       4888       4899       4898  
      4767       4768       4779       4778       4888       4889       4900       4899  
      4768       4769       4780       4779       4889       4890       4901       4900  
      4769       4770       4781       4780       4890       4891       4902       4901  
      4770       4771       4782       4781       4891       4892       4903       4902  
      4771       4772       4783       4782       4892       4893       4904       4903  
      4772       4773       4784       4783       4893       4894       4905       4904  
      4773       4774       4785       4784       4894       4895       4906       4905  
      4775       4776       4787       4786       4896       4897       4908       4907  
      4776       4777       4788       4787       4897       4898       4909       4908  
      4777       4778       4789       4788       4898       4899       4910       4909  
      4778       4779       4790       4789       4899       4900       4911       4910  
      4779       4780       4791       4790       4900       4901       4912       4911  
      4780       4781       4792       4791       4901       4902       4913       4912  
      4781       4782       4793       4792       4902       4903       4914       4913  
      4782       4783       4794       4793       4903       4904       4915       4914  
      4783       4784       4795       4794       4904       4905       4916       4915  
      4784       4785       4796       4795       4905       4906       4917       4916  
      4786       4787       4798       4797       4907       4908       4919       4918  
      4787       4788       4799       4798       4908       4909       4920       4919  
      4788       4789       4800       4799       4909       4910       4921       4920  
      4789       4790       4801       4800       4910       4911       4922       4921  
      4790       4791       4802       4801       4911       4912       4923       4922  
      4791       4792       4803       4802       4912       4913       4924       4923  
      4792       4793       4804       4803       4913       4914       4925       4924  
      4793       4794       4805       4804       4914       4915       4926       4925  
      4794       4795       4806       4805       4915       4916       4927       4926  
      4795       4796       4807       4806       4916       4917       4928       4927  
      4797       4798       4809       4808       4918       4919       4930       4929  
      4798       4799       4810       4809       4919       4920       4931       4930  
      4799       4800       4811       4810       4920       4921       4932       4931  
      4800       4801       4812       4811       4921       4922       4933       4932  
      4801       4802       4813       4812       4922       4923       4934       4933  
      4802       4803       4814       4813       4923       4924       4935       4934  
      4803       4804       4815       4814       4924       4925       4936       4935  
      4804       4805       4816       4815       4925       4926       4937       4936  
      4805       4806       4817       4816       4926       4927       4938       4937  
      4806       4807       4818       4817       4927       4928       4939       4938  
      4808       4809       4820       4819       4929       4930       4941       4940  
      4809       4810       4821       4820       4930       4931       4942       4941  
      4810       4811       4822       4821       4931       4932       4943       4942  
      4811       4812       4823       4822       4932       4933       4944       4943  
      4812       4813       4824       4823       4933       4934       4945       4944  
      4813       4814       4825       4824       4934       4935       4946       4945  
      4814       4815       4826       4825       4935       4936       4947       4946  
      4815       4816       4827       4826       4936       4937       4948       4947  
      4816       4817       4828       4827       4937       4938       4949       4948  
      4817       4818       4829       4828       4938       4939       4950       4949  
      4819       4820       4831       4830       4940       4941       4952       4951  
      4820       4821       4832       4831       4941       4942       4953       4952  
      4821       4822       4833       4832       4942       4943       4954       4953  
      4822       4823       4834       4833       4943       4944       4955       4954  
      4823       4824       4835       4834       4944       4945       4956       4955  
      4824       4825       4836       4835       4945       4946       4957       4956  
      4825       4826       4837       4836       4946       4947       4958       4957  
      4826       4827       4838       4837       4947       4948       4959       4958  
      4827       4828       4839       4838       4948       4949       4960       4959  
      4828       4829       4840       4839       4949       4950       4961       4960  
      4841       4842       4853       4852       4962       4963       4974       4973  
      4842       4843       4854       4853       4963       4964       4975       4974  
      4843       4844       4855       4854       4964       4965       4976       4975  
      4844       4845       4856       4855       4965       4966       4977       4976  
      4845       4846       4857       4856       4966       4967       4978       4977  
      4846       4847       4858       4857       4967       4968       4979       4978  
      4847       4848       4859       4858       4968       4969       4980       4979  
      4848       4849       4860       4859       4969       4970       4981       4980  
      4849       4850       4861       4860       4970       4971       4982       4981  
      4850       4851       4862       4861       4971       4972       4983       4982  
      4852       4853       4864       4863       4973       4974       4985       4984  
      4853       4854       4865       4864       4974       4975       4986       4985  
      4854       4855       4866       4865       4975       4976       4987       4986  
      4855       4856       4867       4866       4976       4977       4988       4987  
      4856       4857       4868       4867       4977       4978       4989       4988  
      4857       4858       4869       4868       4978       4979       4990       4989  
      4858       4859       4870       4869       4979       4980       4991       4990  
      4859       4860       4871       4870       4980       4981       4992       4991  
      4860       4861       4872       4871       4981       4982       4993       4992  
      4861       4862       4873       4872       4982       4983       4994       4993  
      4863       4864       4875       4874       4984       4985       4996       4995  
      4864       4865       4876       4875       4985       4986       4997       4996  
      4865       4866       4877       4876       4986       4987       4998       4997  
      4866       4867       4878       4877       4987       4988       4999       4998  
      4867       4868       4879       4878       4988       4989       5000       4999  
      4868       4869       4880       4879       4989       4990       5001       5000  
      4869       4870       4881       4880       4990       4991       5002       5001  
      4870       4871       4882       4881       4991       4992       5003       5002  
      4871       4872       4883       4882       4992       4993       5004       5003  
      4872       4873       4884       4883       4993       4994       5005       5004  
      4874       4875       4886       4885       4995       4996       5007       5006  
      4875       4876       4887       4886       4996       4997       5008       5007  
      4876       4877       4888       4887       4997       4998       5009       5008  
      4877       4878       4889       4888       4998       4999       5010       5009  
      4878       4879       4890       4889       4999       5000       5011       5010  
      4879       4880       4891       4890       5000       5001       5012       5011  
      4880       4881       4892       4891       5001       5002       5013       5012  
      4881       4882       4893       4892       5002       5003       5014       5013  
      4882       4883       4894       4893       5003       5004       5015       5014  
      4883       4884       4895       4894       5004       5005       5016       5015  
      4885       4886       4897       4896       5006       5007       5018       5017  
      4886       4887       4898       4897       5007       5008       5019       5018  
      4887       4888       4899       4898       5008       5009       5020       5019  
      4888       4889       4900       4899       5009       5010       5021       5020  
      4889       4890       4901       4900       5010       5011       5022       5021  
      4890       4891       4902       4901       5011       5012       5023       5022  
      4891       4892       4903       4902       5012       5013       5024       5023  
      4892       4893       4904       4903       5013       5014       5025       5024  
      4893       4894       4905       4904       5014       5015       5026       5025  
      4894       4895       4906       4905       5015       5016       5027       5026  
      4896       4897       4908       4907       5017       5018       5029       5028  
      4897       4898       4909       4908       5018       5019       5030       5029  
      4898       4899       4910       4909       5019       5020       5031       5030  
      4899       4900       4911       4910       5020       5021       5032       5031  
      4900       4901       4912       4911       5021       5022       5033       5032  
      4901       4902       4913       4912       5022       5023       5034       5033  
      4902       4903       4914       4913       5023       5024       5035       5034  
      4903       4904       4915       4914       5024       5025       5036       5035  
      4904       4905       4916       4915       5025       5026       5037       5036  
      4905       4906       4917       4916       5026       5027       5038       5037  
      4907       4908       4919       4918       5028       5029       5040       5039  
      4908       4909       4920       4919       5029       5030       5041       5040  
      4909       4910       4921       4920       5030       5031       5042       5041  
      4910       4911       4922       4921       5031       5032       5043       5042  
      4911       4912       4923       4922       5032       5033       5044       5043  
      4912       4913       4924       4923       5033       5034       5045       5044  
      4913       4914       4925       4924       5034       5035       5046       5045  
      4914       4915       4926       4925       5035       5036       5047       5046  
      4915       4916       4927       4926       5036       5037       5048       5047  
      4916       4917       4928       4927       5037       5038       5049       5048  
      4918       4919       4930       4929       5039       5040       5051       5050  
      4919       4920       4931       4930       5040       5041       5052       5051  
      4920       4921       4932       4931       5041       5042       5053       5052  
      4921       4922       4933       4932       5042       5043       5054       5053  
      4922       4923       4934       4933       5043       5044       5055       5054  
      4923       4924       4935       4934       5044       5045       5056       5055  
      4924       4925       4936       4935       5045       5046       5057       5056  
      4925       4926       4937       4936       5046       5047       5058       5057  
      4926       4927       4938       4937       5047       5048       5059       5058  
      4927       4928       4939       4938       5048       5049       5060       5059  
      4929       4930       4941       4940       5050       5051       5062       5061  
      4930       4931       4942       4941       5051       5052       5063       5062  
      4931       4932       4943       4942       5052       5053       5064       5063  
      4932       4933       4944       4943       5053       5054       5065       5064  
      4933       4934       4945       4944       5054       5055       5066       5065  
      4934       4935       4946       4945       5055       5056       5067       5066  
      4935       4936       4947       4946       5056       5057       5068       5067  
      4936       4937       4948       4947       5057       5058       5069       5068  
      4937       4938       4949       4948       5058       5059       5070       5069  
      4938       4939       4950       4949       5059       5060       5071       5070  
      4940       4941       4952       4951       5061       5062       5073       5072  
      4941       4942       4953       4952       5062       5063       5074       5073  
      4942       4943       4954       4953       5063       5064       5075       5074  
      4943       4944       4955       4954       5064       5065       5076       5075  
      4944       4945       4956       4955       5065       5066       5077       5076  
      4945       4946       4957       4956       5066       5067       5078       5077  
      4946       4947       4958       4957       5067       5068       5079       5078  
      4947       4948       4959       4958       5068       5069       5080       5079  
      4948       4949       4960       4959       5069       5070       5081       5080  
      4949       4950       4961       4960       5070       5071       5082       5081  
      4962       4963       4974       4973       5083       5084       5095       5094  
      4963       4964       4975       4974       5084       5085       5096       5095  
      4964       4965       4976       4975       5085       5086       5097       5096  
      4965       4966       4977       4976       5086       5087       5098       5097  
      4966       4967       4978       4977       5087       5088       5099       5098  
      4967       4968       4979       4978       5088       5089       5100       5099  
      4968       4969       4980       4979       5089       5090       5101       5100  
      4969       4970       4981       4980       5090       5091       5102       5101  
      4970       4971       4982       4981       5091       5092       5103       5102  
      4971       4972       4983       4982       5092       5093       5104       5103  
      4973       4974       4985       4984       5094       5095       5106       5105  
      4974       4975       4986       4985       5095       5096       5107       5106  
      4975       4976       4987       4986       5096       5097       5108       5107  
      4976       4977       4988       4987       5097       5098       5109       5108  
      4977       4978       4989       4988       5098       5099       5110       5109  
      4978       4979       4990       4989       5099       5100       5111       5110  
      4979       4980       4991       4990       5100       5101       5112       5111  
      4980       4981       4992       4991       5101       5102       5113       5112  
      4981       4982       4993       4992       5102       5103       5114       5113  
      4982       4983       4994       4993       5103       5104       5115       5114  
      4984       4985       4996       4995       5105       5106       5117       5116  
      4985       4986       4997       4996       5106       5107       5118       5117  
      4986       4987       4998       4997       5107       5108       5119       5118  
      4987       4988       4999       4998       5108       5109       5120       5119  
      4988       4989       5000       4999       5109       5110       5121       5120  
      4989       4990       5001       5000       5110       5111       5122       5121  
      4990       4991       5002       5001       5111       5112       5123       5122  
      4991       4992       5003       5002       5112       5113       5124       5123  
      4992       4993       5004       5003       5113       5114       5125       5124  
      4993       4994       5005       5004       5114       5115       5126       5125  
      4995       4996       5007       5006       5116       5117       5128       5127  
      4996       4997       5008       5007       5117       5118       5129       5128  
      4997       4998       5009       5008       5118       5119       5130       5129  
      4998       4999       5010       5009       5119       5120       5131       5130  
      4999       5000       5011       5010       5120       5121       5132       5131  
      5000       5001       5012       5011       5121       5122       5133       5132  
      5001       5002       5013       5012       5122       5123       5134       5133  
      5002       5003       5014       5013       5123       5124       5135       5134  
      5003       5004       5015       5014       5124       5125       5136       5135  
      5004       5005       5016       5015       5125       5126       5137       5136  
      5006       5007       5018       5017       5127       5128       5139       5138  
      5007       5008       5019       5018       5128       5129       5140       5139  
      5008       5009       5020       5019       5129       5130       5141       5140  
      5009       5010       5021       5020       5130       5131       5142       5141  
      5010       5011       5022       5021       5131       5132       5143       5142  
      5011       5012       5023       5022       5132       5133       5144       5143  
      5012       5013       5024       5023       5133       5134       5145       5144  
      5013       5014       5025       5024       5134       5135       5146       5145  
      5014       5015       5026       5025       5135       5136       5147       5146  
      5015       5016       5027       5026       5136       5137       5148       5147  
      5017       5018       5029       5028       5138       5139       5150       5149  
      5018       5019       5030       5029       5139       5140       5151       5150  
      5019       5020       5031       5030       5140       5141       5152       5151  
      5020       5021       5032       5031       5141       5142       5153       5152  
      5021       5022       5033       5032       5142       5143       5154       5153  
      5022       5023       5034       5033       5143       5144       5155       5154  
      5023       5024       5035       5034       5144       5145       5156       5155  
      5024       5025       5036       5035       5145       5146       5157       5156  
      5025       5026       5037       5036       5146       5147       5158       5157  
      5026       5027       5038       5037       5147       5148       5159       5158  
      5028       5029       5040       5039       5149       5150       5161       5160  
      5029       5030       5041       5040       5150       5151       5162       5161  
      5030       5031       5042       5041       5151       5152       5163       5162  
      5031       5032       5043       5042       5152       5153       5164       5163  
      5032       5033       5044       5043       5153       5154       5165       5164  
      5033       5034       5045       5044       5154       5155       5166       5165  
      5034       5035       5046       5045       5155       5156       5167       5166  
      5035       5036       5047       5046       5156       5157       5168       5167  
      5036       5037       5048       5047       5157       5158       5169       5168  
      5037       5038       5049       5048       5158       5159       5170       5169  
      5039       5040       5051       5050       5160       5161       5172       5171  
      5040       5041       5052       5051       5161       5162       5173       5172  
      5041       5042       5053       5052       5162       5163       5174       5173  
      5042       5043       5054       5053       5163       5164       5175       5174  
      5043       5044       5055       5054       5164       5165       5176       5175  
      5044       5045       5056       5055       5165       5166       5177       5176  
      5045       5046       5057       5056       5166       5167       5178       5177  
      5046       5047       5058       5057       5167       5168       5179       5178  
      5047       5048       5059       5058       5168       5169       5180       5179  
      5048       5049       5060       5059       5169       5170       5181       5180  
      5050       5051       5062       5061       5171       5172       5183       5182  
      5051       5052       5063       5062       5172       5173       5184       5183  
      5052       5053       5064       5063       5173       5174       5185       5184  
      5053       5054       5065       5064       5174       5175       5186       5185  
      5054       5055       5066       5065       5175       5176       5187       5186  
      5055       5056       5067       5066       5176       5177       5188       5187  
      5056       5057       5068       5067       5177       5178       5189       5188  
      5057       5058       5069       5068       5178       5179       5190       5189  
      5058       5059       5070       5069       5179       5180       5191       5190  
      5059       5060       5071       5070       5180       5181       5192       5191  
      5061       5062       5073       5072       5182       5183       5194       5193  
      5062       5063       5074       5073       5183       5184       5195       5194  
      5063       5064       5075       5074       5184       5185       5196       5195  
      5064       5065       5076       5075       5185       5186       5197       5196  
      5065       5066       5077       5076       5186       5187       5198       5197  
      5066       5067       5078       5077       5187       5188       5199       5198  
      5067       5068       5079       5078       5188       5189       5200       5199  
      5068       5069       5080       5079       5189       5190       5201       5200  
      5069       5070       5081       5080       5190       5191       5202       5201  
      5070       5071       5082       5081       5191       5192       5203       5202  
      5083       5084       5095       5094       5204       5205       5216       5215  
      5084       5085       5096       5095       5205       5206       5217       5216  
      5085       5086       5097       5096       5206       5207       5218       5217  
      5086       5087       5098       5097       5207       5208       5219       5218  
      5087       5088       5099       5098       5208       5209       5220       5219  
      5088       5089       5100       5099       5209       5210       5221       5220  
      5089       5090       5101       5100       5210       5211       5222       5221  
      5090       5091       5102       5101       5211       5212       5223       5222  
      5091       5092       5103       5102       5212       5213       5224       5223  
      5092       5093       5104       5103       5213       5214       5225       5224  
      5094       5095       5106       5105       5215       5216       5227       5226  
      5095       5096       5107       5106       5216       5217       5228       5227  
      5096       5097       5108       5107       5217       5218       5229       5228  
      5097       5098       5109       5108       5218       5219       5230       5229  
      5098       5099       5110       5109       5219       5220       5231       5230  
      5099       5100       5111       5110       5220       5221       5232       5231  
      5100       5101       5112       5111       5221       5222       5233       5232  
      5101       5102       5113       5112       5222       5223       5234       5233  
      5102       5103       5114       5113       5223       5224       5235       5234  
      5103       5104       5115       5114       5224       5225       5236       5235  
      5105       5106       5117       5116       5226       5227       5238       5237  
      5106       5107       5118       5117       5227       5228       5239       5238  
      5107       5108       5119       5118       5228       5229       5240       5239  
      5108       5109       5120       5119       5229       5230       5241       5240  
      5109       5110       5121       5120       5230       5231       5242       5241  
      5110       5111       5122       5121       5231       5232       5243       5242  
      5111       5112       5123       5122       5232       5233       5244       5243  
      5112       5113       5124       5123       5233       5234       5245       5244  
      5113       5114       5125       5124       5234       5235       5246       5245  
      5114       5115       5126       5125       5235       5236       5247       5246  
      5116       5117       5128       5127       5237       5238       5249       5248  
      5117       5118       5129       5128       5238       5239       5250       5249  
      5118       5119       5130       5129       5239       5240       5251       5250  
      5119       5120       5131       5130       5240       5241       5252       5251  
      5120       5121       5132       5131       5241       5242       5253       5252  
      5121       5122       5133       5132       5242       5243       5254       5253  
      5122       5123       5134       5133       5243       5244       5255       5254  
      5123       5124       5135       5134       5244       5245       5256       5255  
      5124       5125       5136       5135       5245       5246       5257       5256  
      5125       5126       5137       5136       5246       5247       5258       5257  
      5127       5128       5139       5138       5248       5249       5260       5259  
      5128       5129       5140       5139       5249       5250       5261       5260  
      5129       5130       5141       5140       5250       5251       5262       5261  
      5130       5131       5142       5141       5251       5252       5263       5262  
      5131       5132       5143       5142       5252       5253       5264       5263  
      5132       5133       5144       5143       5253       5254       5265       5264  
      5133       5134       5145       5144       5254       5255       5266       5265  
      5134       5135       5146       5145       5255       5256       5267       5266  
      5135       5136       5147       5146       5256       5257       5268       5267  
      5136       5137       5148       5147       5257       5258       5269       5268  
      5138       5139       5150       5149       5259       5260       5271       5270  
      5139       5140       5151       5150       5260       5261       5272       5271  
      5140       5141       5152       5151       5261       5262       5273       5272  
      5141       5142       5153       5152       5262       5263       5274       5273  
      5142       5143       5154       5153       5263       5264       5275       5274  
      5143       5144       5155       5154       5264       5265       5276       5275  
      5144       5145       5156       5155       5265       5266       5277       5276  
      5145       5146       5157       5156       5266       5267       5278       5277  
      5146       5147       5158       5157       5267       5268       5279       5278  
      5147       5148       5159       5158       5268       5269       5280       5279  
      5149       5150       5161       5160       5270       5271       5282       5281  
      5150       5151       5162       5161       5271       5272       5283       5282  
      5151       5152       5163       5162       5272       5273       5284       5283  
      5152       5153       5164       5163       5273       5274       5285       5284  
      5153       5154       5165       5164       5274       5275       5286       5285  
      5154       5155       5166       5165       5275       5276       5287       5286  
      5155       5156       5167       5166       5276       5277       5288       5287  
      5156       5157       5168       5167       5277       5278       5289       5288  
      5157       5158       5169       5168       5278       5279       5290       5289  
      5158       5159       5170       5169       5279       5280       5291       5290  
      5160       5161       5172       5171       5281       5282       5293       5292  
      5161       5162       5173       5172       5282       5283       5294       5293  
      5162       5163       5174       5173       5283       5284       5295       5294  
      5163       5164       5175       5174       5284       5285       5296       5295  
      5164       5165       5176       5175       5285       5286       5297       5296  
      5165       5166       5177       5176       5286       5287       5298       5297  
      5166       5167       5178       5177       5287       5288       5299       5298  
      5167       5168       5179       5178       5288       5289       5300       5299  
      5168       5169       5180       5179       5289       5290       5301       5300  
      5169       5170       5181       5180       5290       5291       5302       5301  
      5171       5172       5183       5182       5292       5293       5304       5303  
      5172       5173       5184       5183       5293       5294       5305       5304  
      5173       5174       5185       5184       5294       5295       5306       5305  
      5174       5175       5186       5185       5295       5296       5307       5306  
      5175       5176       5187       5186       5296       5297       5308       5307  
      5176       5177       5188       5187       5297       5298       5309       5308  
      5177       5178       5189       5188       5298       5299       5310       5309  
      5178       5179       5190       5189       5299       5300       5311       5310  
      5179       5180       5191       5190       5300       5301       5312       5311  
      5180       5181       5192       5191       5301       5302       5313       5312  
      5182       5183       5194       5193       5303       5304       5315       5314  
      5183       5184       5195       5194       5304       5305       5316       5315  
      5184       5185       5196       5195       5305       5306       5317       5316  
      5185       5186       5197       5196       5306       5307       5318       5317  
      5186       5187       5198       5197       5307       5308       5319       5318  
      5187       5188       5199       5198       5308       5309       5320       5319  
      5188       5189       5200       5199       5309       5310       5321       5320  
      5189       5190       5201       5200       5310       5311       5322       5321  
      5190       5191       5202       5201       5311       5312       5323       5322  
      5191       5192       5203       5202       5312       5313       5324       5323  
      5204       5205       5216       5215       5325       5326       5337       5336  
      5205       5206       5217       5216       5326       5327       5338       5337  
      5206       5207       5218       5217       5327       5328       5339       5338  
      5207       5208       5219       5218       5328       5329       5340       5339  
      5208       5209       5220       5219       5329       5330       5341       5340  
      5209       5210       5221       5220       5330       5331       5342       5341  
      5210       5211       5222       5221       5331       5332       5343       5342  
      5211       5212       5223       5222       5332       5333       5344       5343  
      5212       5213       5224       5223       5333       5334       5345       5344  
      5213       5214       5225       5224       5334       5335       5346       5345  
      5215       5216       5227       5226       5336       5337       5348       5347  
      5216       5217       5228       5227       5337       5338       5349       5348  
      5217       5218       5229       5228       5338       5339       5350       5349  
      5218       5219       5230       5229       5339       5340       5351       5350  
      5219       5220       5231       5230       5340       5341       5352       5351  
      5220       5221       5232       5231       5341       5342       5353       5352  
      5221       5222       5233       5232       5342       5343       5354       5353  
      5222       5223       5234       5233       5343       5344       5355       5354  
      5223       5224       5235       5234       5344       5345       5356       5355  
      5224       5225       5236       5235       5345       5346       5357       5356  
      5226       5227       5238       5237       5347       5348       5359       5358  
      5227       5228       5239       5238       5348       5349       5360       5359  
      5228       5229       5240       5239       5349       5350       5361       5360  
      5229       5230       5241       5240       5350       5351       5362       5361  
      5230       5231       5242       5241       5351       5352       5363       5362  
      5231       5232       5243       5242       5352       5353       5364       5363  
      5232       5233       5244       5243       5353       5354       5365       5364  
      5233       5234       5245       5244       5354       5355       5366       5365  
      5234       5235       5246       5245       5355       5356       5367       5366  
      5235       5236       5247       5246       5356       5357       5368       5367  
      5237       5238       5249       5248       5358       5359       5370       5369  
      5238       5239       5250       5249       5359       5360       5371       5370  
      5239       5240       5251       5250       5360       5361       5372       5371  
      5240       5241       5252       5251       5361       5362       5373       5372  
      5241       5242       5253       5252       5362       5363       5374       5373  
      5242       5243       5254       5253       5363       5364       5375       5374  
      5243       5244       5255       5254       5364       5365       5376       5375  
      5244       5245       5256       5255       5365       5366       5377       5376  
      5245       5246       5257       5256       5366       5367       5378       5377  
      5246       5247       5258       5257       5367       5368       5379       5378  
      5248       5249       5260       5259       5369       5370       5381       5380  
      5249       5250       5261       5260       5370       5371       5382       5381  
      5250       5251       5262       5261       5371       5372       5383       5382  
      5251       5252       5263       5262       5372       5373       5384       5383  
      5252       5253       5264       5263       5373       5374       5385       5384  
      5253       5254       5265       5264       5374       5375       5386       5385  
      5254       5255       5266       5265       5375       5376       5387       5386  
      5255       5256       5267       5266       5376       5377       5388       5387  
      5256       5257       5268       5267       5377       5378       5389       5388  
      5257       5258       5269       5268       5378       5379       5390       5389  
      5259       5260       5271       5270       5380       5381       5392       5391  
      5260       5261       5272       5271       5381       5382       5393       5392  
      5261       5262       5273       5272       5382       5383       5394       5393  
      5262       5263       5274       5273       5383       5384       5395       5394  
      5263       5264       5275       5274       5384       5385       5396       5395  
      5264       5265       5276       5275       5385       5386       5397       5396  
      5265       5266       5277       5276       5386       5387       5398       5397  
      5266       5267       5278       5277       5387       5388       5399       5398  
      5267       5268       5279       5278       5388       5389       5400       5399  
      5268       5269       5280       5279       5389       5390       5401       5400  
      5270       5271       5282       5281       5391       5392       5403       5402  
      5271       5272       5283       5282       5392       5393       5404       5403  
      5272       5273       5284       5283       5393       5394       5405       5404  
      5273       5274       5285       5284       5394       5395       5406       5405  
      5274       5275       5286       5285       5395       5396       5407       5406  
      5275       5276       5287       5286       5396       5397       5408       5407  
      5276       5277       5288       5287       5397       5398       5409       5408  
      5277       5278       5289       5288       5398       5399       5410       5409  
      5278       5279       5290       5289       5399       5400       5411       5410  
      5279       5280       5291       5290       5400       5401       5412       5411  
      5281       5282       5293       5292       5402       5403       5414       5413  
      5282       5283       5294       5293       5403       5404       5415       5414  
      5283       5284       5295       5294       5404       5405       5416       5415  
      5284       5285       5296       5295       5405       5406       5417       5416  
      5285       5286       5297       5296       5406       5407       5418       5417  
      5286       5287       5298       5297       5407       5408       5419       5418  
      5287       5288       5299       5298       5408       5409       5420       5419  
      5288       5289       5300       5299       5409       5410       5421       5420  
      5289       5290       5301       5300       5410       5411       5422       5421  
      5290       5291       5302       5301       5411       5412       5423       5422  
      5292       5293       5304       5303       5413       5414       5425       5424  
      5293       5294       5305       5304       5414       5415       5426       5425  
      5294       5295       5306       5305       5415       5416       5427       5426  
      5295       5296       5307       5306       5416       5417       5428       5427  
      5296       5297       5308       5307       5417       5418       5429       5428  
      5297       5298       5309       5308       5418       5419       5430       5429  
      5298       5299       5310       5309       5419       5420       5431       5430  
      5299       5300       5311       5310       5420       5421       5432       5431  
      5300       5301       5312       5311       5421       5422       5433       5432  
      5301       5302       5313       5312       5422       5423       5434       5433  
      5303       5304       5315       5314       5424       5425       5436       5435  
      5304       5305       5316       5315       5425       5426       5437       5436  
      5305       5306       5317       5316       5426       5427       5438       5437  
      5306       5307       5318       5317       5427       5428       5439       5438  
      5307       5308       5319       5318       5428       5429       5440       5439  
      5308       5309       5320       5319       5429       5430       5441       5440  
      5309       5310       5321       5320       5430       5431       5442       5441  
      5310       5311       5322       5321       5431       5432       5443       5442  
      5311       5312       5323       5322       5432       5433       5444       5443  
      5312       5313       5324       5323       5433       5434       5445       5444  
      5325       5326       5337       5336       5446       5447       5458       5457  
      5326       5327       5338       5337       5447       5448       5459       5458  
      5327       5328       5339       5338       5448       5449       5460       5459  
      5328       5329       5340       5339       5449       5450       5461       5460  
      5329       5330       5341       5340       5450       5451       5462       5461  
      5330       5331       5342       5341       5451       5452       5463       5462  
      5331       5332       5343       5342       5452       5453       5464       5463  
      5332       5333       5344       5343       5453       5454       5465       5464  
      5333       5334       5345       5344       5454       5455       5466       5465  
      5334       5335       5346       5345       5455       5456       5467       5466  
      5336       5337       5348       5347       5457       5458       5469       5468  
      5337       5338       5349       5348       5458       5459       5470       5469  
      5338       5339       5350       5349       5459       5460       5471       5470  
      5339       5340       5351       5350       5460       5461       5472       5471  
      5340       5341       5352       5351       5461       5462       5473       5472  
      5341       5342       5353       5352       5462       5463       5474       5473  
      5342       5343       5354       5353       5463       5464       5475       5474  
      5343       5344       5355       5354       5464       5465       5476       5475  
      5344       5345       5356       5355       5465       5466       5477       5476  
      5345       5346       5357       5356       5466       5467       5478       5477  
      5347       5348       5359       5358       5468       5469       5480       5479  
      5348       5349       5360       5359       5469       5470       5481       5480  
      5349       5350       5361       5360       5470       5471       5482       5481  
      5350       5351       5362       5361       5471       5472       5483       5482  
      5351       5352       5363       5362       5472       5473       5484       5483  
      5352       5353       5364       5363       5473       5474       5485       5484  
      5353       5354       5365       5364       5474       5475       5486       5485  
      5354       5355       5366       5365       5475       5476       5487       5486  
      5355       5356       5367       5366       5476       5477       5488       5487  
      5356       5357       5368       5367       5477       5478       5489       5488  
      5358       5359       5370       5369       5479       5480       5491       5490  
      5359       5360       5371       5370       5480       5481       5492       5491  
      5360       5361       5372       5371       5481       5482       5493       5492  
      5361       5362       5373       5372       5482       5483       5494       5493  
      5362       5363       5374       5373       5483       5484       5495       5494  
      5363       5364       5375       5374       5484       5485       5496       5495  
      5364       5365       5376       5375       5485       5486       5497       5496  
      5365       5366       5377       5376       5486       5487       5498       5497  
      5366       5367       5378       5377       5487       5488       5499       5498  
      5367       5368       5379       5378       5488       5489       5500       5499  
      5369       5370       5381       5380       5490       5491       5502       5501  
      5370       5371       5382       5381       5491       5492       5503       5502  
      5371       5372       5383       5382       5492       5493       5504       5503  
      5372       5373       5384       5383       5493       5494       5505       5504  
      5373       5374       5385       5384       5494       5495       5506       5505  
      5374       5375       5386       5385       5495       5496       5507       5506  
      5375       5376       5387       5386       5496       5497       5508       5507  
      5376       5377       5388       5387       5497       5498       5509       5508  
      5377       5378       5389       5388       5498       5499       5510       5509  
      5378       5379       5390       5389       5499       5500       5511       5510  
      5380       5381       5392       5391       5501       5502       5513       5512  
      5381       5382       5393       5392       5502       5503       5514       5513  
      5382       5383       5394       5393       5503       5504       5515       5514  
      5383       5384       5395       5394       5504       5505       5516       5515  
      5384       5385       5396       5395       5505       5506       5517       5516  
      5385       5386       5397       5396       5506       5507       5518       5517  
      5386       5387       5398       5397       5507       5508       5519       5518  
      5387       5388       5399       5398       5508       5509       5520       5519  
      5388       5389       5400       5399       5509       5510       5521       5520  
      5389       5390       5401       5400       5510       5511       5522       5521  
      5391       5392       5403       5402       5512       5513       5524       5523  
      5392       5393       5404       5403       5513       5514       5525       5524  
      5393       5394       5405       5404       5514       5515       5526       5525  
      5394       5395       5406       5405       5515       5516       5527       5526  
      5395       5396       5407       5406       5516       5517       5528       5527  
      5396       5397       5408       5407       5517       5518       5529       5528  
      5397       5398       5409       5408       5518       5519       5530       5529  
      5398       5399       5410       5409       5519       5520       5531       5530  
      5399       5400       5411       5410       5520       5521       5532       5531  
      5400       5401       5412       5411       5521       5522       5533       5532  
      5402       5403       5414       5413       5523       5524       5535       5534  
      5403       5404       5415       5414       5524       5525       5536       5535  
      5404       5405       5416       5415       5525       5526       5537       5536  
      5405       5406       5417       5416       5526       5527       5538       5537  
      5406       5407       5418       5417       5527       5528       5539       5538  
      5407       5408       5419       5418       5528       5529       5540       5539  
      5408       5409       5420       5419       5529       5530       5541       5540  
      5409       5410       5421       5420       5530       5531       5542       5541  
      5410       5411       5422       5421       5531       5532       5543       5542  
      5411       5412       5423       5422       5532       5533       5544       5543  
      5413       5414       5425       5424       5534       5535       5546       5545  
      5414       5415       5426       5425       5535       5536       5547       5546  
      5415       5416       5427       5426       5536       5537       5548       5547  
      5416       5417       5428       5427       5537       5538       5549       5548  
      5417       5418       5429       5428       5538       5539       5550       5549  
      5418       5419       5430       5429       5539       5540       5551       5550  
      5419       5420       5431       5430       5540       5541       5552       5551  
      5420       5421       5432       5431       5541       5542       5553       5552  
      5421       5422       5433       5432       5542       5543       5554       5553  
      5422       5423       5434       5433       5543       5544       5555       5554  
      5424       5425       5436       5435       5545       5546       5557       5556  
      5425       5426       5437       5436       5546       5547       5558       5557  
      5426       5427       5438       5437       5547       5548       5559       5558  
      5427       5428       5439       5438       5548       5549       5560       5559  
      5428       5429       5440       5439       5549       5550       5561       5560  
      5429       5430       5441       5440       5550       5551       5562       5561  
      5430       5431       5442       5441       5551       5552       5563       5562  
      5431       5432       5443       5442       5552       5553       5564       5563  
      5432       5433       5444       5443       5553       5554       5565       5564  
      5433       5434       5445       5444       5554       5555       5566       5565  
      5446       5447       5458       5457       5567       5568       5579       5578  
      5447       5448       5459       5458       5568       5569       5580       5579  
      5448       5449       5460       5459       5569       5570       5581       5580  
      5449       5450       5461       5460       5570       5571       5582       5581  
      5450       5451       5462       5461       5571       5572       5583       5582  
      5451       5452       5463       5462       5572       5573       5584       5583  
      5452       5453       5464       5463       5573       5574       5585       5584  
      5453       5454       5465       5464       5574       5575       5586       5585  
      5454       5455       5466       5465       5575       5576       5587       5586  
      5455       5456       5467       5466       5576       5577       5588       5587  
      5457       5458       5469       5468       5578       5579       5590       5589  
      5458       5459       5470       5469       5579       5580       5591       5590  
      5459       5460       5471       5470       5580       5581       5592       5591  
      5460       5461       5472       5471       5581       5582       5593       5592  
      5461       5462       5473       5472       5582       5583       5594       5593  
      5462       5463       5474       5473       5583       5584       5595       5594  
      5463       5464       5475       5474       5584       5585       5596       5595  
      5464       5465       5476       5475       5585       5586       5597       5596  
      5465       5466       5477       5476       5586       5587       5598       5597  
      5466       5467       5478       5477       5587       5588       5599       5598  
      5468       5469       5480       5479       5589       5590       5601       5600  
      5469       5470       5481       5480       5590       5591       5602       5601  
      5470       5471       5482       5481       5591       5592       5603       5602  
      5471       5472       5483       5482       5592       5593       5604       5603  
      5472       5473       5484       5483       5593       5594       5605       5604  
      5473       5474       5485       5484       5594       5595       5606       5605  
      5474       5475       5486       5485       5595       5596       5607       5606  
      5475       5476       5487       5486       5596       5597       5608       5607  
      5476       5477       5488       5487       5597       5598       5609       5608  
      5477       5478       5489       5488       5598       5599       5610       5609  
      5479       5480       5491       5490       5600       5601       5612       5611  
      5480       5481       5492       5491       5601       5602       5613       5612  
      5481       5482       5493       5492       5602       5603       5614       5613  
      5482       5483       5494       5493       5603       5604       5615       5614  
      5483       5484       5495       5494       5604       5605       5616       5615  
      5484       5485       5496       5495       5605       5606       5617       5616  
      5485       5486       5497       5496       5606       5607       5618       5617  
      5486       5487       5498       5497       5607       5608       5619       5618  
      5487       5488       5499       5498       5608       5609       5620       5619  
      5488       5489       5500       5499       5609       5610       5621       5620  
      5490       5491       5502       5501       5611       5612       5623       5622  
      5491       5492       5503       5502       5612       5613       5624       5623  
      5492       5493       5504       5503       5613       5614       5625       5624  
      5493       5494       5505       5504       5614       5615       5626       5625  
      5494       5495       5506       5505       5615       5616       5627       5626  
      5495       5496       5507       5506       5616       5617       5628       5627  
      5496       5497       5508       5507       5617       5618       5629       5628  
      5497       5498       5509       5508       5618       5619       5630       5629  
      5498       5499       5510       5509       5619       5620       5631       5630  
      5499       5500       5511       5510       5620       5621       5632       5631  
      5501       5502       5513       5512       5622       5623       5634       5633  
      5502       5503       5514       5513       5623       5624       5635       5634  
      5503       5504       5515       5514       5624       5625       5636       5635  
      5504       5505       5516       5515       5625       5626       5637       5636  
      5505       5506       5517       5516       5626       5627       5638       5637  
      5506       5507       5518       5517       5627       5628       5639       5638  
      5507       5508       5519       5518       5628       5629       5640       5639  
      5508       5509       5520       5519       5629       5630       5641       5640  
      5509       5510       5521       5520       5630       5631       5642       5641  
      5510       5511       5522       5521       5631       5632       5643       5642  
      5512       5513       5524       5523       5633       5634       5645       5644  
      5513       5514       5525       5524       5634       5635       5646       5645  
      5514       5515       5526       5525       5635       5636       5647       5646  
      5515       5516       5527       5526       5636       5637       5648       5647  
      5516       5517       5528       5527       5637       5638       5649       5648  
      5517       5518       5529       5528       5638       5639       5650       5649  
      5518       5519       5530       5529       5639       5640       5651       5650  
      5519       5520       5531       5530       5640       5641       5652       5651  
      5520       5521       5532       5531       5641       5642       5653       5652  
      5521       5522       5533       5532       5642       5643       5654       5653  
      5523       5524       5535       5534       5644       5645       5656       5655  
      5524       5525       5536       5535       5645       5646       5657       5656  
      5525       5526       5537       5536       5646       5647       5658       5657  
      5526       5527       5538       5537       5647       5648       5659       5658  
      5527       5528       5539       5538       5648       5649       5660       5659  
      5528       5529       5540       5539       5649       5650       5661       5660  
      5529       5530       5541       5540       5650       5651       5662       5661  
      5530       5531       5542       5541       5651       5652       5663       5662  
      5531       5532       5543       5542       5652       5653       5664       5663  
      5532       5533       5544       5543       5653       5654       5665       5664  
      5534       5535       5546       5545       5655       5656       5667       5666  
      5535       5536       5547       5546       5656       5657       5668       5667  
      5536       5537       5548       5547       5657       5658       5669       5668  
      5537       5538       5549       5548       5658       5659       5670       5669  
      5538       5539       5550       5549       5659       5660       5671       5670  
      5539       5540       5551       5550       5660       5661       5672       5671  
      5540       5541       5552       5551       5661       5662       5673       5672  
      5541       5542       5553       5552       5662       5663       5674       5673  
      5542       5543       5554       5553       5663       5664       5675       5674  
      5543       5544       5555       5554       5664       5665       5676       5675  
      5545       5546       5557       5556       5666       5667       5678       5677  
      5546       5547       5558       5557       5667       5668       5679       5678  
      5547       5548       5559       5558       5668       5669       5680       5679  
      5548       5549       5560       5559       5669       5670       5681       5680  
      5549       5550       5561       5560       5670       5671       5682       5681  
      5550       5551       5562       5561       5671       5672       5683       5682  
      5551       5552       5563       5562       5672       5673       5684       5683  
      5552       5553       5564       5563       5673       5674       5685       5684  
      5553       5554       5565       5564       5674       5675       5686       5685  
      5554       5555       5566       5565       5675       5676       5687       5686  
      5567       5568       5579       5578       5688       5689       5700       5699  
      5568       5569       5580       5579       5689       5690       5701       5700  
      5569       5570       5581       5580       5690       5691       5702       5701  
      5570       5571       5582       5581       5691       5692       5703       5702  
      5571       5572       5583       5582       5692       5693       5704       5703  
      5572       5573       5584       5583       5693       5694       5705       5704  
      5573       5574       5585       5584       5694       5695       5706       5705  
      5574       5575       5586       5585       5695       5696       5707       5706  
      5575       5576       5587       5586       5696       5697       5708       5707  
      5576       5577       5588       5587       5697       5698       5709       5708  
      5578       5579       5590       5589       5699       5700       5711       5710  
      5579       5580       5591       5590       5700       5701       5712       5711  
      5580       5581       5592       5591       5701       5702       5713       5712  
      5581       5582       5593       5592       5702       5703       5714       5713  
      5582       5583       5594       5593       5703       5704       5715       5714  
      5583       5584       5595       5594       5704       5705       5716       5715  
      5584       5585       5596       5595       5705       5706       5717       5716  
      5585       5586       5597       5596       5706       5707       5718       5717  
      5586       5587       5598       5597       5707       5708       5719       5718  
      5587       5588       5599       5598       5708       5709       5720       5719  
      5589       5590       5601       5600       5710       5711       5722       5721  
      5590       5591       5602       5601       5711       5712       5723       5722  
      5591       5592       5603       5602       5712       5713       5724       5723  
      5592       5593       5604       5603       5713       5714       5725       5724  
      5593       5594       5605       5604       5714       5715       5726       5725  
      5594       5595       5606       5605       5715       5716       5727       5726  
      5595       5596       5607       5606       5716       5717       5728       5727  
      5596       5597       5608       5607       5717       5718       5729       5728  
      5597       5598       5609       5608       5718       5719       5730       5729  
      5598       5599       5610       5609       5719       5720       5731       5730  
      5600       5601       5612       5611       5721       5722       5733       5732  
      5601       5602       5613       5612       5722       5723       5734       5733  
      5602       5603       5614       5613       5723       5724       5735       5734  
      5603       5604       5615       5614       5724       5725       5736       5735  
      5604       5605       5616       5615       5725       5726       5737       5736  
      5605       5606       5617       5616       5726       5727       5738       5737  
      5606       5607       5618       5617       5727       5728       5739       5738  
      5607       5608       5619       5618       5728       5729       5740       5739  
      5608       5609       5620       5619       5729       5730       5741       5740  
      5609       5610       5621       5620       5730       5731       5742       5741  
      5611       5612       5623       5622       5732       5733       5744       5743  
      5612       5613       5624       5623       5733       5734       5745       5744  
      5613       5614       5625       5624       5734       5735       5746       5745  
      5614       5615       5626       5625       5735       5736       5747       5746  
      5615       5616       5627       5626       5736       5737       5748       5747  
      5616       5617       5628       5627       5737       5738       5749       5748  
      5617       5618       5629       5628       5738       5739       5750       5749  
      5618       5619       5630       5629       5739       5740       5751       5750  
      5619       5620       5631       5630       5740       5741       5752       5751  
      5620       5621       5632       5631       5741       5742       5753       5752  
      5622       5623       5634       5633       5743       5744       5755       5754  
      5623       5624       5635       5634       5744       5745       5756       5755  
      5624       5625       5636       5635       5745       5746       5757       5756  
      5625       5626       5637       5636       5746       5747       5758       5757  
      5626       5627       5638       5637       5747       5748       5759       5758  
      5627       5628       5639       5638       5748       5749       5760       5759  
      5628       5629       5640       5639       5749       5750       5761       5760  
      5629       5630       5641       5640       5750       5751       5762       5761  
      5630       5631       5642       5641       5751       5752       5763       5762  
      5631       5632       5643       5642       5752       5753       5764       5763  
      5633       5634       5645       5644       5754       5755       5766       5765  
      5634       5635       5646       5645       5755       5756       5767       5766  
      5635       5636       5647       5646       5756       5757       5768       5767  
      5636       5637       5648       5647       5757       5758       5769       5768  
      5637       5638       5649       5648       5758       5759       5770       5769  
      5638       5639       5650       5649       5759       5760       5771       5770  
      5639       5640       5651       5650       5760       5761       5772       5771  
      5640       5641       5652       5651       5761       5762       5773       5772  
      5641       5642       5653       5652       5762       5763       5774       5773  
      5642       5643       5654       5653       5763       5764       5775       5774  
      5644       5645       5656       5655       5765       5766       5777       5776  
      5645       5646       5657       5656       5766       5767       5778       5777  
      5646       5647       5658       5657       5767       5768       5779       5778  
      5647       5648       5659       5658       5768       5769       5780       5779  
      5648       5649       5660       5659       5769       5770       5781       5780  
      5649       5650       5661       5660       5770       5771       5782       5781  
      5650       5651       5662       5661       5771       5772       5783       5782  
      5651       5652       5663       5662       5772       5773       5784       5783  
      5652       5653       5664       5663       5773       5774       5785       5784  
      5653       5654       5665       5664       5774       5775       5786       5785  
      5655       5656       5667       5666       5776       5777       5788       5787  
      5656       5657       5668       5667       5777       5778       5789       5788  
      5657       5658       5669       5668       5778       5779       5790       5789  
      5658       5659       5670       5669       5779       5780       5791       5790  
      5659       5660       5671       5670       5780       5781       5792       5791  
      5660       5661       5672       5671       5781       5782       5793       5792  
      5661       5662       5673       5672       5782       5783       5794       5793  
      5662       5663       5674       5673       5783       5784       5795       5794  
      5663       5664       5675       5674       5784       5785       5796       5795  
      5664       5665       5676       5675       5785       5786       5797       5796  
      5666       5667       5678       5677       5787       5788       5799       5798  
      5667       5668       5679       5678       5788       5789       5800       5799  
      5668       5669       5680       5679       5789       5790       5801       5800  
      5669       5670       5681       5680       5790       5791       5802       5801  
      5670       5671       5682       5681       5791       5792       5803       5802  
      5671       5672       5683       5682       5792       5793       5804       5803  
      5672       5673       5684       5683       5793       5794       5805       5804  
      5673       5674       5685       5684       5794       5795       5806       5805  
      5674       5675       5686       5685       5795       5796       5807       5806  
      5675       5676       5687       5686       5796       5797       5808       5807  
      5688       5689       5700       5699       5809       5810       5821       5820  
      5689       5690       5701       5700       5810       5811       5822       5821  
      5690       5691       5702       5701       5811       5812       5823       5822  
      5691       5692       5703       5702       5812       5813       5824       5823  
      5692       5693       5704       5703       5813       5814       5825       5824  
      5693       5694       5705       5704       5814       5815       5826       5825  
      5694       5695       5706       5705       5815       5816       5827       5826  
      5695       5696       5707       5706       5816       5817       5828       5827  
      5696       5697       5708       5707       5817       5818       5829       5828  
      5697       5698       5709       5708       5818       5819       5830       5829  
      5699       5700       5711       5710       5820       5821       5832       5831  
      5700       5701       5712       5711       5821       5822       5833       5832  
      5701       5702       5713       5712       5822       5823       5834       5833  
      5702       5703       5714       5713       5823       5824       5835       5834  
      5703       5704       5715       5714       5824       5825       5836       5835  
      5704       5705       5716       5715       5825       5826       5837       5836  
      5705       5706       5717       5716       5826       5827       5838       5837  
      5706       5707       5718       5717       5827       5828       5839       5838  
      5707       5708       5719       5718       5828       5829       5840       5839  
      5708       5709       5720       5719       5829       5830       5841       5840  
      5710       5711       5722       5721       5831       5832       5843       5842  
      5711       5712       5723       5722       5832       5833       5844       5843  
      5712       5713       5724       5723       5833       5834       5845       5844  
      5713       5714       5725       5724       5834       5835       5846       5845  
      5714       5715       5726       5725       5835       5836       5847       5846  
      5715       5716       5727       5726       5836       5837       5848       5847  
      5716       5717       5728       5727       5837       5838       5849       5848  
      5717       5718       5729       5728       5838       5839       5850       5849  
      5718       5719       5730       5729       5839       5840       5851       5850  
      5719       5720       5731       5730       5840       5841       5852       5851  
      5721       5722       5733       5732       5842       5843       5854       5853  
      5722       5723       5734       5733       5843       5844       5855       5854  
      5723       5724       5735       5734       5844       5845       5856       5855  
      5724       5725       5736       5735       5845       5846       5857       5856  
      5725       5726       5737       5736       5846       5847       5858       5857  
      5726       5727       5738       5737       5847       5848       5859       5858  
      5727       5728       5739       5738       5848       5849       5860       5859  
      5728       5729       5740       5739       5849       5850       5861       5860  
      5729       5730       5741       5740       5850       5851       5862       5861  
      5730       5731       5742       5741       5851       5852       5863       5862  
      5732       5733       5744       5743       5853       5854       5865       5864  
      5733       5734       5745       5744       5854       5855       5866       5865  
      5734       5735       5746       5745       5855       5856       5867       5866  
      5735       5736       5747       5746       5856       5857       5868       5867  
      5736       5737       5748       5747       5857       5858       5869       5868  
      5737       5738       5749       5748       5858       5859       5870       5869  
      5738       5739       5750       5749       5859       5860       5871       5870  
      5739       5740       5751       5750       5860       5861       5872       5871  
      5740       5741       5752       5751       5861       5862       5873       5872  
      5741       5742       5753       5752       5862       5863       5874       5873  
      5743       5744       5755       5754       5864       5865       5876       5875  
      5744       5745       5756       5755       5865       5866       5877       5876  
      5745       5746       5757       5756       5866       5867       5878       5877  
      5746       5747       5758       5757       5867       5868       5879       5878  
      5747       5748       5759       5758       5868       5869       5880       5879  
      5748       5749       5760       5759       5869       5870       5881       5880  
      5749       5750       5761       5760       5870       5871       5882       5881  
      5750       5751       5762       5761       5871       5872       5883       5882  
      5751       5752       5763       5762       5872       5873       5884       5883  
      5752       5753       5764       5763       5873       5874       5885       5884  
      5754       5755       5766       5765       5875       5876       5887       5886  
      5755       5756       5767       5766       5876       5877       5888       5887  
      5756       5757       5768       5767       5877       5878       5889       5888  
      5757       5758       5769       5768       5878       5879       5890       5889  
      5758       5759       5770       5769       5879       5880       5891       5890  
      5759       5760       5771       5770       5880       5881       5892       5891  
      5760       5761       5772       5771       5881       5882       5893       5892  
      5761       5762       5773       5772       5882       5883       5894       5893  
      5762       5763       5774       5773       5883       5884       5895       5894  
      5763       5764       5775       5774       5884       5885       5896       5895  
      5765       5766       5777       5776       5886       5887       5898       5897  
      5766       5767       5778       5777       5887       5888       5899       5898  
      5767       5768       5779       5778       5888       5889       5900       5899  
      5768       5769       5780       5779       5889       5890       5901       5900  
      5769       5770       5781       5780       5890       5891       5902       5901  
      5770       5771       5782       5781       5891       5892       5903       5902  
      5771       5772       5783       5782       5892       5893       5904       5903  
      5772       5773       5784       5783       5893       5894       5905       5904  
      5773       5774       5785       5784       5894       5895       5906       5905  
      5774       5775       5786       5785       5895       5896       5907       5906  
      5776       5777       5788       5787       5897       5898       5909       5908  
      5777       5778       5789       5788       5898       5899       5910       5909  
      5778       5779       5790       5789       5899       5900       5911       5910  
      5779       5780       5791       5790       5900       5901       5912       5911  
      5780       5781       5792       5791       5901       5902       5913       5912  
      5781       5782       5793       5792       5902       5903       5914       5913  
      5782       5783       5794       5793       5903       5904       5915       5914  
      5783       5784       5795       5794       5904       5905       5916       5915  
      5784       5785       5796       5795       5905       5906       5917       5916  
      5785       5786       5797       5796       5906       5907       5918       5917  
      5787       5788       5799       5798       5908       5909       5920       5919  
      5788       5789       5800       5799       5909       5910       5921       5920  
      5789       5790       5801       5800       5910       5911       5922       5921  
      5790       5791       5802       5801       5911       5912       5923       5922  
      5791       5792       5803       5802       5912       5913       5924       5923  
      5792       5793       5804       5803       5913       5914       5925       5924  
      5793       5794       5805       5804       5914       5915       5926       5925  
      5794       5795       5806       5805       5915       5916       5927       5926  
      5795       5796       5807       5806       5916       5917       5928       5927  
      5796       5797       5808       5807       5917       5918       5929       5928  
      5809       5810       5821       5820       5930       5931       5942       5941  
      5810       5811       5822       5821       5931       5932       5943       5942  
      5811       5812       5823       5822       5932       5933       5944       5943  
      5812       5813       5824       5823       5933       5934       5945       5944  
      5813       5814       5825       5824       5934       5935       5946       5945  
      5814       5815       5826       5825       5935       5936       5947       5946  
      5815       5816       5827       5826       5936       5937       5948       5947  
      5816       5817       5828       5827       5937       5938       5949       5948  
      5817       5818       5829       5828       5938       5939       5950       5949  
      5818       5819       5830       5829       5939       5940       5951       5950  
      5820       5821       5832       5831       5941       5942       5953       5952  
      5821       5822       5833       5832       5942       5943       5954       5953  
      5822       5823       5834       5833       5943       5944       5955       5954  
      5823       5824       5835       5834       5944       5945       5956       5955  
      5824       5825       5836       5835       5945       5946       5957       5956  
      5825       5826       5837       5836       5946       5947       5958       5957  
      5826       5827       5838       5837       5947       5948       5959       5958  
      5827       5828       5839       5838       5948       5949       5960       5959  
      5828       5829       5840       5839       5949       5950       5961       5960  
      5829       5830       5841       5840       5950       5951       5962       5961  
      5831       5832       5843       5842       5952       5953       5964       5963  
      5832       5833       5844       5843       5953       5954       5965       5964  
      5833       5834       5845       5844       5954       5955       5966       5965  
      5834       5835       5846       5845       5955       5956       5967       5966  
      5835       5836       5847       5846       5956       5957       5968       5967  
      5836       5837       5848       5847       5957       5958       5969       5968  
      5837       5838       5849       5848       5958       5959       5970       5969  
      5838       5839       5850       5849       5959       5960       5971       5970  
      5839       5840       5851       5850       5960       5961       5972       5971  
      5840       5841       5852       5851       5961       5962       5973       5972  
      5842       5843       5854       5853       5963       5964       5975       5974  
      5843       5844       5855       5854       5964       5965       5976       5975  
      5844       5845       5856       5855       5965       5966       5977       5976  
      5845       5846       5857       5856       5966       5967       5978       5977  
      5846       5847       5858       5857       5967       5968       5979       5978  
      5847       5848       5859       5858       5968       5969       5980       5979  
      5848       5849       5860       5859       5969       5970       5981       5980  
      5849       5850       5861       5860       5970       5971       5982       5981  
      5850       5851       5862       5861       5971       5972       5983       5982  
      5851       5852       5863       5862       5972       5973       5984       5983  
      5853       5854       5865       5864       5974       5975       5986       5985  
      5854       5855       5866       5865       5975       5976       5987       5986  
      5855       5856       5867       5866       5976       5977       5988       5987  
      5856       5857       5868       5867       5977       5978       5989       5988  
      5857       5858       5869       5868       5978       5979       5990       5989  
      5858       5859       5870       5869       5979       5980       5991       5990  
      5859       5860       5871       5870       5980       5981       5992       5991  
      5860       5861       5872       5871       5981       5982       5993       5992  
      5861       5862       5873       5872       5982       5983       5994       5993  
      5862       5863       5874       5873       5983       5984       5995       5994  
      5864       5865       5876       5875       5985       5986       5997       5996  
      5865       5866       5877       5876       5986       5987       5998       5997  
      5866       5867       5878       5877       5987       5988       5999       5998  
      5867       5868       5879       5878       5988       5989       6000       5999  
      5868       5869       5880       5879       5989       5990       6001       6000  
      5869       5870       5881       5880       5990       5991       6002       6001  
      5870       5871       5882       5881       5991       5992       6003       6002  
      5871       5872       5883       5882       5992       5993       6004       6003  
      5872       5873       5884       5883       5993       5994       6005       6004  
      5873       5874       5885       5884       5994       5995       6006       6005  
      5875       5876       5887       5886       5996       5997       6008       6007  
      5876       5877       5888       5887       5997       5998       6009       6008  
      5877       5878       5889       5888       5998       5999       6010       6009  
      5878       5879       5890       5889       5999       6000       6011       6010  
      5879       5880       5891       5890       6000       6001       6012       6011  
      5880       5881       5892       5891       6001       6002       6013       6012  
      5881       5882       5893       5892       6002       6003       6014       6013  
      5882       5883       5894       5893       6003       6004       6015       6014  
      5883       5884       5895       5894       6004       6005       6016       6015  
      5884       5885       5896       5895       6005       6006       6017       6016  
      5886       5887       5898       5897       6007       6008       6019       6018  
      5887       5888       5899       5898       6008       6009       6020       6019  
      5888       5889       5900       5899       6009       6010       6021       6020  
      5889       5890       5901       5900       6010       6011       6022       6021  
      5890       5891       5902       5901       6011       6012       6023       6022  
      5891       5892       5903       5902       6012       6013       6024       6023  
      5892       5893       5904       5903       6013       6014       6025       6024  
      5893       5894       5905       5904       6014       6015       6026       6025  
      5894       5895       5906       5905       6015       6016       6027       6026  
      5895       5896       5907       5906       6016       6017       6028       6027  
      5897       5898       5909       5908       6018       6019       6030       6029  
      5898       5899       5910       5909       6019       6020       6031       6030  
      5899       5900       5911       5910       6020       6021       6032       6031  
      5900       5901       5912       5911       6021       6022       6033       6032  
      5901       5902       5913       5912       6022       6023       6034       6033  
      5902       5903       5914       5913       6023       6024       6035       6034  
      5903       5904       5915       5914       6024       6025       6036       6035  
      5904       5905       5916       5915       6025       6026       6037       6036  
      5905       5906       5917       5916       6026       6027       6038       6037  
      5906       5907       5918       5917       6027       6028       6039       6038  
      5908       5909       5920       5919       6029       6030       6041       6040  
      5909       5910       5921       5920       6030       6031       6042       6041  
      5910       5911       5922       5921       6031       6032       6043       6042  
      5911       5912       5923       5922       6032       6033       6044       6043  
      5912       5913       5924       5923       6033       6034       6045       6044  
      5913       5914       5925       5924       6034       6035       6046       6045  
      5914       5915       5926       5925       6035       6036       6047       6046  
      5915       5916       5927       5926       6036       6037       6048       6047  
      5916       5917       5928       5927       6037       6038       6049       6048  
      5917       5918       5929       5928       6038       6039       6050       6049  
      5930       5931       5942       5941       6051       6052       6063       6062  
      5931       5932       5943       5942       6052       6053       6064       6063  
      5932       5933       5944       5943       6053       6054       6065       6064  
      5933       5934       5945       5944       6054       6055       6066       6065  
      5934       5935       5946       5945       6055       6056       6067       6066  
      5935       5936       5947       5946       6056       6057       6068       6067  
      5936       5937       5948       5947       6057       6058       6069       6068  
      5937       5938       5949       5948       6058       6059       6070       6069  
      5938       5939       5950       5949       6059       6060       6071       6070  
      5939       5940       5951       5950       6060       6061       6072       6071  
      5941       5942       5953       5952       6062       6063       6074       6073  
      5942       5943       5954       5953       6063       6064       6075       6074  
      5943       5944       5955       5954       6064       6065       6076       6075  
      5944       5945       5956       5955       6065       6066       6077       6076  
      5945       5946       5957       5956       6066       6067       6078       6077  
      5946       5947       5958       5957       6067       6068       6079       6078  
      5947       5948       5959       5958       6068       6069       6080       6079  
      5948       5949       5960       5959       6069       6070       6081       6080  
      5949       5950       5961       5960       6070       6071       6082       6081  
      5950       5951       5962       5961       6071       6072       6083       6082  
      5952       5953       5964       5963       6073       6074       6085       6084  
      5953       5954       5965       5964       6074       6075       6086       6085  
      5954       5955       5966       5965       6075       6076       6087       6086  
      5955       5956       5967       5966       6076       6077       6088       6087  
      5956       5957       5968       5967       6077       6078       6089       6088  
      5957       5958       5969       5968       6078       6079       6090       6089  
      5958       5959       5970       5969       6079       6080       6091       6090  
      5959       5960       5971       5970       6080       6081       6092       6091  
      5960       5961       5972       5971       6081       6082       6093       6092  
      5961       5962       5973       5972       6082       6083       6094       6093  
      5963       5964       5975       5974       6084       6085       6096       6095  
      5964       5965       5976       5975       6085       6086       6097       6096  
      5965       5966       5977       5976       6086       6087       6098       6097  
      5966       5967       5978       5977       6087       6088       6099       6098  
      5967       5968       5979       5978       6088       6089       6100       6099  
      5968       5969       5980       5979       6089       6090       6101       6100  
      5969       5970       5981       5980       6090       6091       6102       6101  
      5970       5971       5982       5981       6091       6092       6103       6102  
      5971       5972       5983       5982       6092       6093       6104       6103  
      5972       5973       5984       5983       6093       6094       6105       6104  
      5974       5975       5986       5985       6095       6096       6107       6106  
      5975       5976       5987       5986       6096       6097       6108       6107  
      5976       5977       5988       5987       6097       6098       6109       6108  
      5977       5978       5989       5988       6098       6099       6110       6109  
      5978       5979       5990       5989       6099       6100       6111       6110  
      5979       5980       5991       5990       6100       6101       6112       6111  
      5980       5981       5992       5991       6101       6102       6113       6112  
      5981       5982       5993       5992       6102       6103       6114       6113  
      5982       5983       5994       5993       6103       6104       6115       6114  
      5983       5984       5995       5994       6104       6105       6116       6115  
      5985       5986       5997       5996       6106       6107       6118       6117  
      5986       5987       5998       5997       6107       6108       6119       6118  
      5987       5988       5999       5998       6108       6109       6120       6119  
      5988       5989       6000       5999       6109       6110       6121       6120  
      5989       5990       6001       6000       6110       6111       6122       6121  
      5990       5991       6002       6001       6111       6112       6123       6122  
      5991       5992       6003       6002       6112       6113       6124       6123  
      5992       5993       6004       6003       6113       6114       6125       6124  
      5993       5994       6005       6004       6114       6115       6126       6125  
      5994       5995       6006       6005       6115       6116       6127       6126  
      5996       5997       6008       6007       6117       6118       6129       6128  
      5997       5998       6009       6008       6118       6119       6130       6129  
      5998       5999       6010       6009       6119       6120       6131       6130  
      5999       6000       6011       6010       6120       6121       6132       6131  
      6000       6001       6012       6011       6121       6122       6133       6132  
      6001       6002       6013       6012       6122       6123       6134       6133  
      6002       6003       6014       6013       6123       6124       6135       6134  
      6003       6004       6015       6014       6124       6125       6136       6135  
      6004       6005       6016       6015       6125       6126       6137       6136  
      6005       6006       6017       6016       6126       6127       6138       6137  
      6007       6008       6019       6018       6128       6129       6140       6139  
      6008       6009       6020       6019       6129       6130       6141       6140  
      6009       6010       6021       6020       6130       6131       6142       6141  
      6010       6011       6022       6021       6131       6132       6143       6142  
      6011       6012       6023       6022       6132       6133       6144       6143  
      6012       6013       6024       6023       6133       6134       6145       6144  
      6013       6014       6025       6024       6134       6135       6146       6145  
      6014       6015       6026       6025       6135       6136       6147       6146  
      6015       6016       6027       6026       6136       6137       6148       6147  
      6016       6017       6028       6027       6137       6138       6149       6148  
      6018       6019       6030       6029       6139       6140       6151       6150  
      6019       6020       6031       6030       6140       6141       6152       6151  
      6020       6021       6032       6031       6141       6142       6153       6152  
      6021       6022       6033       6032       6142       6143       6154       6153  
      6022       6023       6034       6033       6143       6144       6155       6154  
      6023       6024       6035       6034       6144       6145       6156       6155  
      6024       6025       6036       6035       6145       6146       6157       6156  
      6025       6026       6037       6036       6146       6147       6158       6157  
      6026       6027       6038       6037       6147       6148       6159       6158  
      6027       6028       6039       6038       6148       6149       6160       6159  
      6029       6030       6041       6040       6150       6151       6162       6161  
      6030       6031       6042       6041       6151       6152       6163       6162  
      6031       6032       6043       6042       6152       6153       6164       6163  
      6032       6033       6044       6043       6153       6154       6165       6164  
      6033       6034       6045       6044       6154       6155       6166       6165  
      6034       6035       6046       6045       6155       6156       6167       6166  
      6035       6036       6047       6046       6156       6157       6168       6167  
      6036       6037       6048       6047       6157       6158       6169       6168  
      6037       6038       6049       6048       6158       6159       6170       6169  
      6038       6039       6050       6049       6159       6160       6171       6170  
      6051       6052       6063       6062       6172       6173       6184       6183  
      6052       6053       6064       6063       6173       6174       6185       6184  
      6053       6054       6065       6064       6174       6175       6186       6185  
      6054       6055       6066       6065       6175       6176       6187       6186  
      6055       6056       6067       6066       6176       6177       6188       6187  
      6056       6057       6068       6067       6177       6178       6189       6188  
      6057       6058       6069       6068       6178       6179       6190       6189  
      6058       6059       6070       6069       6179       6180       6191       6190  
      6059       6060       6071       6070       6180       6181       6192       6191  
      6060       6061       6072       6071       6181       6182       6193       6192  
      6062       6063       6074       6073       6183       6184       6195       6194  
      6063       6064       6075       6074       6184       6185       6196       6195  
      6064       6065       6076       6075       6185       6186       6197       6196  
      6065       6066       6077       6076       6186       6187       6198       6197  
      6066       6067       6078       6077       6187       6188       6199       6198  
      6067       6068       6079       6078       6188       6189       6200       6199  
      6068       6069       6080       6079       6189       6190       6201       6200  
      6069       6070       6081       6080       6190       6191       6202       6201  
      6070       6071       6082       6081       6191       6192       6203       6202  
      6071       6072       6083       6082       6192       6193       6204       6203  
      6073       6074       6085       6084       6194       6195       6206       6205  
      6074       6075       6086       6085       6195       6196       6207       6206  
      6075       6076       6087       6086       6196       6197       6208       6207  
      6076       6077       6088       6087       6197       6198       6209       6208  
      6077       6078       6089       6088       6198       6199       6210       6209  
      6078       6079       6090       6089       6199       6200       6211       6210  
      6079       6080       6091       6090       6200       6201       6212       6211  
      6080       6081       6092       6091       6201       6202       6213       6212  
      6081       6082       6093       6092       6202       6203       6214       6213  
      6082       6083       6094       6093       6203       6204       6215       6214  
      6084       6085       6096       6095       6205       6206       6217       6216  
      6085       6086       6097       6096       6206       6207       6218       6217  
      6086       6087       6098       6097       6207       6208       6219       6218  
      6087       6088       6099       6098       6208       6209       6220       6219  
      6088       6089       6100       6099       6209       6210       6221       6220  
      6089       6090       6101       6100       6210       6211       6222       6221  
      6090       6091       6102       6101       6211       6212       6223       6222  
      6091       6092       6103       6102       6212       6213       6224       6223  
      6092       6093       6104       6103       6213       6214       6225       6224  
      6093       6094       6105       6104       6214       6215       6226       6225  
      6095       6096       6107       6106       6216       6217       6228       6227  
      6096       6097       6108       6107       6217       6218       6229       6228  
      6097       6098       6109       6108       6218       6219       6230       6229  
      6098       6099       6110       6109       6219       6220       6231       6230  
      6099       6100       6111       6110       6220       6221       6232       6231  
      6100       6101       6112       6111       6221       6222       6233       6232  
      6101       6102       6113       6112       6222       6223       6234       6233  
      6102       6103       6114       6113       6223       6224       6235       6234  
      6103       6104       6115       6114       6224       6225       6236       6235  
      6104       6105       6116       6115       6225       6226       6237       6236  
      6106       6107       6118       6117       6227       6228       6239       6238  
      6107       6108       6119       6118       6228       6229       6240       6239  
      6108       6109       6120       6119       6229       6230       6241       6240  
      6109       6110       6121       6120       6230       6231       6242       6241  
      6110       6111       6122       6121       6231       6232       6243       6242  
      6111       6112       6123       6122       6232       6233       6244       6243  
      6112       6113       6124       6123       6233       6234       6245       6244  
      6113       6114       6125       6124       6234       6235       6246       6245  
      6114       6115       6126       6125       6235       6236       6247       6246  
      6115       6116       6127       6126       6236       6237       6248       6247  
      6117       6118       6129       6128       6238       6239       6250       6249  
      6118       6119       6130       6129       6239       6240       6251       6250  
      6119       6120       6131       6130       6240       6241       6252       6251  
      6120       6121       6132       6131       6241       6242       6253       6252  
      6121       6122       6133       6132       6242       6243       6254       6253  
      6122       6123       6134       6133       6243       6244       6255       6254  
      6123       6124       6135       6134       6244       6245       6256       6255  
      6124       6125       6136       6135       6245       6246       6257       6256  
      6125       6126       6137       6136       6246       6247       6258       6257  
      6126       6127       6138       6137       6247       6248       6259       6258  
      6128       6129       6140       6139       6249       6250       6261       6260  
      6129       6130       6141       6140       6250       6251       6262       6261  
      6130       6131       6142       6141       6251       6252       6263       6262  
      6131       6132       6143       6142       6252       6253       6264       6263  
      6132       6133       6144       6143       6253       6254       6265       6264  
      6133       6134       6145       6144       6254       6255       6266       6265  
      6134       6135       6146       6145       6255       6256       6267       6266  
      6135       6136       6147       6146       6256       6257       6268       6267  
      6136       6137       6148       6147       6257       6258       6269       6268  
      6137       6138       6149       6148       6258       6259       6270       6269  
      6139       6140       6151       6150       6260       6261       6272       6271  
      6140       6141       6152       6151       6261       6262       6273       6272  
      6141       6142       6153       6152       6262       6263       6274       6273  
      6142       6143       6154       6153       6263       6264       6275       6274  
      6143       6144       6155       6154       6264       6265       6276       6275  
      6144       6145       6156       6155       6265       6266       6277       6276  
      6145       6146       6157       6156       6266       6267       6278       6277  
      6146       6147       6158       6157       6267       6268       6279       6278  
      6147       6148       6159       6158       6268       6269       6280       6279  
      6148       6149       6160       6159       6269       6270       6281       6280  
      6150       6151       6162       6161       6271       6272       6283       6282  
      6151       6152       6163       6162       6272       6273       6284       6283  
      6152       6153       6164       6163       6273       6274       6285       6284  
      6153       6154       6165       6164       6274       6275       6286       6285  
      6154       6155       6166       6165       6275       6276       6287       6286  
      6155       6156       6167       6166       6276       6277       6288       6287  
      6156       6157       6168       6167       6277       6278       6289       6288  
      6157       6158       6169       6168       6278       6279       6290       6289  
      6158       6159       6170       6169       6279       6280       6291       6290  
      6159       6160       6171       6170       6280       6281       6292       6291  
      6172       6173       6184       6183       6293       6294       6305       6304  
      6173       6174       6185       6184       6294       6295       6306       6305  
      6174       6175       6186       6185       6295       6296       6307       6306  
      6175       6176       6187       6186       6296       6297       6308       6307  
      6176       6177       6188       6187       6297       6298       6309       6308  
      6177       6178       6189       6188       6298       6299       6310       6309  
      6178       6179       6190       6189       6299       6300       6311       6310  
      6179       6180       6191       6190       6300       6301       6312       6311  
      6180       6181       6192       6191       6301       6302       6313       6312  
      6181       6182       6193       6192       6302       6303       6314       6313  
      6183       6184       6195       6194       6304       6305       6316       6315  
      6184       6185       6196       6195       6305       6306       6317       6316  
      6185       6186       6197       6196       6306       6307       6318       6317  
      6186       6187       6198       6197       6307       6308       6319       6318  
      6187       6188       6199       6198       6308       6309       6320       6319  
      6188       6189       6200       6199       6309       6310       6321       6320  
      6189       6190       6201       6200       6310       6311       6322       6321  
      6190       6191       6202       6201       6311       6312       6323       6322  
      6191       6192       6203       6202       6312       6313       6324       6323  
      6192       6193       6204       6203       6313       6314       6325       6324  
      6194       6195       6206       6205       6315       6316       6327       6326  
      6195       6196       6207       6206       6316       6317       6328       6327  
      6196       6197       6208       6207       6317       6318       6329       6328  
      6197       6198       6209       6208       6318       6319       6330       6329  
      6198       6199       6210       6209       6319       6320       6331       6330  
      6199       6200       6211       6210       6320       6321       6332       6331  
      6200       6201       6212       6211       6321       6322       6333       6332  
      6201       6202       6213       6212       6322       6323       6334       6333  
      6202       6203       6214       6213       6323       6324       6335       6334  
      6203       6204       6215       6214       6324       6325       6336       6335  
      6205       6206       6217       6216       6326       6327       6338       6337  
      6206       6207       6218       6217       6327       6328       6339       6338  
      6207       6208       6219       6218       6328       6329       6340       6339  
      6208       6209       6220       6219       6329       6330       6341       6340  
      6209       6210       6221       6220       6330       6331       6342       6341  
      6210       6211       6222       6221       6331       6332       6343       6342  
      6211       6212       6223       6222       6332       6333       6344       6343  
      6212       6213       6224       6223       6333       6334       6345       6344  
      6213       6214       6225       6224       6334       6335       6346       6345  
      6214       6215       6226       6225       6335       6336       6347       6346  
      6216       6217       6228       6227       6337       6338       6349       6348  
      6217       6218       6229       6228       6338       6339       6350       6349  
      6218       6219       6230       6229       6339       6340       6351       6350  
      6219       6220       6231       6230       6340       6341       6352       6351  
      6220       6221       6232       6231       6341       6342       6353       6352  
      6221       6222       6233       6232       6342       6343       6354       6353  
      6222       6223       6234       6233       6343       6344       6355       6354  
      6223       6224       6235       6234       6344       6345       6356       6355  
      6224       6225       6236       6235       6345       6346       6357       6356  
      6225       6226       6237       6236       6346       6347       6358       6357  
      6227       6228       6239       6238       6348       6349       6360       6359  
      6228       6229       6240       6239       6349       6350       6361       6360  
      6229       6230       6241       6240       6350       6351       6362       6361  
      6230       6231       6242       6241       6351       6352       6363       6362  
      6231       6232       6243       6242       6352       6353       6364       6363  
      6232       6233       6244       6243       6353       6354       6365       6364  
      6233       6234       6245       6244       6354       6355       6366       6365  
      6234       6235       6246       6245       6355       6356       6367       6366  
      6235       6236       6247       6246       6356       6357       6368       6367  
      6236       6237       6248       6247       6357       6358       6369       6368  
      6238       6239       6250       6249       6359       6360       6371       6370  
      6239       6240       6251       6250       6360       6361       6372       6371  
      6240       6241       6252       6251       6361       6362       6373       6372  
      6241       6242       6253       6252       6362       6363       6374       6373  
      6242       6243       6254       6253       6363       6364       6375       6374  
      6243       6244       6255       6254       6364       6365       6376       6375  
      6244       6245       6256       6255       6365       6366       6377       6376  
      6245       6246       6257       6256       6366       6367       6378       6377  
      6246       6247       6258       6257       6367       6368       6379       6378  
      6247       6248       6259       6258       6368       6369       6380       6379  
      6249       6250       6261       6260       6370       6371       6382       6381  
      6250       6251       6262       6261       6371       6372       6383       6382  
      6251       6252       6263       6262       6372       6373       6384       6383  
      6252       6253       6264       6263       6373       6374       6385       6384  
      6253       6254       6265       6264       6374       6375       6386       6385  
      6254       6255       6266       6265       6375       6376       6387       6386  
      6255       6256       6267       6266       6376       6377       6388       6387  
      6256       6257       6268       6267       6377       6378       6389       6388  
      6257       6258       6269       6268       6378       6379       6390       6389  
      6258       6259       6270       6269       6379       6380       6391       6390  
      6260       6261       6272       6271       6381       6382       6393       6392  
      6261       6262       6273       6272       6382       6383       6394       6393  
      6262       6263       6274       6273       6383       6384       6395       6394  
      6263       6264       6275       6274       6384       6385       6396       6395  
      6264       6265       6276       6275       6385       6386       6397       6396  
      6265       6266       6277       6276       6386       6387       6398       6397  
      6266       6267       6278       6277       6387       6388       6399       6398  
      6267       6268       6279       6278       6388       6389       6400       6399  
      6268       6269       6280       6279       6389       6390       6401       6400  
      6269       6270       6281       6280       6390       6391       6402       6401  
      6271       6272       6283       6282       6392       6393       6404       6403  
      6272       6273       6284       6283       6393       6394       6405       6404  
      6273       6274       6285       6284       6394       6395       6406       6405  
      6274       6275       6286       6285       6395       6396       6407       6406  
      6275       6276       6287       6286       6396       6397       6408       6407  
      6276       6277       6288       6287       6397       6398       6409       6408  
      6277       6278       6289       6288       6398       6399       6410       6409  
      6278       6279       6290       6289       6399       6400       6411       6410  
      6279       6280       6291       6290       6400       6401       6412       6411  
      6280       6281       6292       6291       6401       6402       6413       6412  
      6293       6294       6305       6304       6414       6415       6426       6425  
      6294       6295       6306       6305       6415       6416       6427       6426  
      6295       6296       6307       6306       6416       6417       6428       6427  
      6296       6297       6308       6307       6417       6418       6429       6428  
      6297       6298       6309       6308       6418       6419       6430       6429  
      6298       6299       6310       6309       6419       6420       6431       6430  
      6299       6300       6311       6310       6420       6421       6432       6431  
      6300       6301       6312       6311       6421       6422       6433       6432  
      6301       6302       6313       6312       6422       6423       6434       6433  
      6302       6303       6314       6313       6423       6424       6435       6434  
      6304       6305       6316       6315       6425       6426       6437       6436  
      6305       6306       6317       6316       6426       6427       6438       6437  
      6306       6307       6318       6317       6427       6428       6439       6438  
      6307       6308       6319       6318       6428       6429       6440       6439  
      6308       6309       6320       6319       6429       6430       6441       6440  
      6309       6310       6321       6320       6430       6431       6442       6441  
      6310       6311       6322       6321       6431       6432       6443       6442  
      6311       6312       6323       6322       6432       6433       6444       6443  
      6312       6313       6324       6323       6433       6434       6445       6444  
      6313       6314       6325       6324       6434       6435       6446       6445  
      6315       6316       6327       6326       6436       6437       6448       6447  
      6316       6317       6328       6327       6437       6438       6449       6448  
      6317       6318       6329       6328       6438       6439       6450       6449  
      6318       6319       6330       6329       6439       6440       6451       6450  
      6319       6320       6331       6330       6440       6441       6452       6451  
      6320       6321       6332       6331       6441       6442       6453       6452  
      6321       6322       6333       6332       6442       6443       6454       6453  
      6322       6323       6334       6333       6443       6444       6455       6454  
      6323       6324       6335       6334       6444       6445       6456       6455  
      6324       6325       6336       6335       6445       6446       6457       6456  
      6326       6327       6338       6337       6447       6448       6459       6458  
      6327       6328       6339       6338       6448       6449       6460       6459  
      6328       6329       6340       6339       6449       6450       6461       6460  
      6329       6330       6341       6340       6450       6451       6462       6461  
      6330       6331       6342       6341       6451       6452       6463       6462  
      6331       6332       6343       6342       6452       6453       6464       6463  
      6332       6333       6344       6343       6453       6454       6465       6464  
      6333       6334       6345       6344       6454       6455       6466       6465  
      6334       6335       6346       6345       6455       6456       6467       6466  
      6335       6336       6347       6346       6456       6457       6468       6467  
      6337       6338       6349       6348       6458       6459       6470       6469  
      6338       6339       6350       6349       6459       6460       6471       6470  
      6339       6340       6351       6350       6460       6461       6472       6471  
      6340       6341       6352       6351       6461       6462       6473       6472  
      6341       6342       6353       6352       6462       6463       6474       6473  
      6342       6343       6354       6353       6463       6464       6475       6474  
      6343       6344       6355       6354       6464       6465       6476       6475  
      6344       6345       6356       6355       6465       6466       6477       6476  
      6345       6346       6357       6356       6466       6467       6478       6477  
      6346       6347       6358       6357       6467       6468       6479       6478  
      6348       6349       6360       6359       6469       6470       6481       6480  
      6349       6350       6361       6360       6470       6471       6482       6481  
      6350       6351       6362       6361       6471       6472       6483       6482  
      6351       6352       6363       6362       6472       6473       6484       6483  
      6352       6353       6364       6363       6473       6474       6485       6484  
      6353       6354       6365       6364       6474       6475       6486       6485  
      6354       6355       6366       6365       6475       6476       6487       6486  
      6355       6356       6367       6366       6476       6477       6488       6487  
      6356       6357       6368       6367       6477       6478       6489       6488  
      6357       6358       6369       6368       6478       6479       6490       6489  
      6359       6360       6371       6370       6480       6481       6492       6491  
      6360       6361       6372       6371       6481       6482       6493       6492  
      6361       6362       6373       6372       6482       6483       6494       6493  
      6362       6363       6374       6373       6483       6484       6495       6494  
      6363       6364       6375       6374       6484       6485       6496       6495  
      6364       6365       6376       6375       6485       6486       6497       6496  
      6365       6366       6377       6376       6486       6487       6498       6497  
      6366       6367       6378       6377       6487       6488       6499       6498  
      6367       6368       6379       6378       6488       6489       6500       6499  
      6368       6369       6380       6379       6489       6490       6501       6500  
      6370       6371       6382       6381       6491       6492       6503       6502  
      6371       6372       6383       6382       6492       6493       6504       6503  
      6372       6373       6384       6383       6493       6494       6505       6504  
      6373       6374       6385       6384       6494       6495       6506       6505  
      6374       6375       6386       6385       6495       6496       6507       6506  
      6375       6376       6387       6386       6496       6497       6508       6507  
      6376       6377       6388       6387       6497       6498       6509       6508  
      6377       6378       6389       6388       6498       6499       6510       6509  
      6378       6379       6390       6389       6499       6500       6511       6510  
      6379       6380       6391       6390       6500       6501       6512       6511  
      6381       6382       6393       6392       6502       6503       6514       6513  
      6382       6383       6394       6393       6503       6504       6515       6514  
      6383       6384       6395       6394       6504       6505       6516       6515  
      6384       6385       6396       6395       6505       6506       6517       6516  
      6385       6386       6397       6396       6506       6507       6518       6517  
      6386       6387       6398       6397       6507       6508       6519       6518  
      6387       6388       6399       6398       6508       6509       6520       6519  
      6388       6389       6400       6399       6509       6510       6521       6520  
      6389       6390       6401       6400       6510       6511       6522       6521  
      6390       6391       6402       6401       6511       6512       6523       6522  
      6392       6393       6404       6403       6513       6514       6525       6524  
      6393       6394       6405       6404       6514       6515       6526       6525  
      6394       6395       6406       6405       6515       6516       6527       6526  
      6395       6396       6407       6406       6516       6517       6528       6527  
      6396       6397       6408       6407       6517       6518       6529       6528  
      6397       6398       6409       6408       6518       6519       6530       6529  
      6398       6399       6410       6409       6519       6520       6531       6530  
      6399       6400       6411       6410       6520       6521       6532       6531  
      6400       6401       6412       6411       6521       6522       6533       6532  
      6401       6402       6413       6412       6522       6523       6534       6533  
      6414       6415       6426       6425       6535       6536       6547       6546  
      6415       6416       6427       6426       6536       6537       6548       6547  
      6416       6417       6428       6427       6537       6538       6549       6548  
      6417       6418       6429       6428       6538       6539       6550       6549  
      6418       6419       6430       6429       6539       6540       6551       6550  
      6419       6420       6431       6430       6540       6541       6552       6551  
      6420       6421       6432       6431       6541       6542       6553       6552  
      6421       6422       6433       6432       6542       6543       6554       6553  
      6422       6423       6434       6433       6543       6544       6555       6554  
      6423       6424       6435       6434       6544       6545       6556       6555  
      6425       6426       6437       6436       6546       6547       6558       6557  
      6426       6427       6438       6437       6547       6548       6559       6558  
      6427       6428       6439       6438       6548       6549       6560       6559  
      6428       6429       6440       6439       6549       6550       6561       6560  
      6429       6430       6441       6440       6550       6551       6562       6561  
      6430       6431       6442       6441       6551       6552       6563       6562  
      6431       6432       6443       6442       6552       6553       6564       6563  
      6432       6433       6444       6443       6553       6554       6565       6564  
      6433       6434       6445       6444       6554       6555       6566       6565  
      6434       6435       6446       6445       6555       6556       6567       6566  
      6436       6437       6448       6447       6557       6558       6569       6568  
      6437       6438       6449       6448       6558       6559       6570       6569  
      6438       6439       6450       6449       6559       6560       6571       6570  
      6439       6440       6451       6450       6560       6561       6572       6571  
      6440       6441       6452       6451       6561       6562       6573       6572  
      6441       6442       6453       6452       6562       6563       6574       6573  
      6442       6443       6454       6453       6563       6564       6575       6574  
      6443       6444       6455       6454       6564       6565       6576       6575  
      6444       6445       6456       6455       6565       6566       6577       6576  
      6445       6446       6457       6456       6566       6567       6578       6577  
      6447       6448       6459       6458       6568       6569       6580       6579  
      6448       6449       6460       6459       6569       6570       6581       6580  
      6449       6450       6461       6460       6570       6571       6582       6581  
      6450       6451       6462       6461       6571       6572       6583       6582  
      6451       6452       6463       6462       6572       6573       6584       6583  
      6452       6453       6464       6463       6573       6574       6585       6584  
      6453       6454       6465       6464       6574       6575       6586       6585  
      6454       6455       6466       6465       6575       6576       6587       6586  
      6455       6456       6467       6466       6576       6577       6588       6587  
      6456       6457       6468       6467       6577       6578       6589       6588  
      6458       6459       6470       6469       6579       6580       6591       6590  
      6459       6460       6471       6470       6580       6581       6592       6591  
      6460       6461       6472       6471       6581       6582       6593       6592  
      6461       6462       6473       6472       6582       6583       6594       6593  
      6462       6463       6474       6473       6583       6584       6595       6594  
      6463       6464       6475       6474       6584       6585       6596       6595  
      6464       6465       6476       6475       6585       6586       6597       6596  
      6465       6466       6477       6476       6586       6587       6598       6597  
      6466       6467       6478       6477       6587       6588       6599       6598  
      6467       6468       6479       6478       6588       6589       6600       6599  
      6469       6470       6481       6480       6590       6591       6602       6601  
      6470       6471       6482       6481       6591       6592       6603       6602  
      6471       6472       6483       6482       6592       6593       6604       6603  
      6472       6473       6484       6483       6593       6594       6605       6604  
      6473       6474       6485       6484       6594       6595       6606       6605  
      6474       6475       6486       6485       6595       6596       6607       6606  
      6475       6476       6487       6486       6596       6597       6608       6607  
      6476       6477       6488       6487       6597       6598       6609       6608  
      6477       6478       6489       6488       6598       6599       6610       6609  
      6478       6479       6490       6489       6599       6600       6611       6610  
      6480       6481       6492       6491       6601       6602       6613       6612  
      6481       6482       6493       6492       6602       6603       6614       6613  
      6482       6483       6494       6493       6603       6604       6615       6614  
      6483       6484       6495       6494       6604       6605       6616       6615  
      6484       6485       6496       6495       6605       6606       6617       6616  
      6485       6486       6497       6496       6606       6607       6618       6617  
      6486       6487       6498       6497       6607       6608       6619       6618  
      6487       6488       6499       6498       6608       6609       6620       6619  
      6488       6489       6500       6499       6609       6610       6621       6620  
      6489       6490       6501       6500       6610       6611       6622       6621  
      6491       6492       6503       6502       6612       6613       6624       6623  
      6492       6493       6504       6503       6613       6614       6625       6624  
      6493       6494       6505       6504       6614       6615       6626       6625  
      6494       6495       6506       6505       6615       6616       6627       6626  
      6495       6496       6507       6506       6616       6617       6628       6627  
      6496       6497       6508       6507       6617       6618       6629       6628  
      6497       6498       6509       6508       6618       6619       6630       6629  
      6498       6499       6510       6509       6619       6620       6631       6630  
      6499       6500       6511       6510       6620       6621       6632       6631  
      6500       6501       6512       6511       6621       6622       6633       6632  
      6502       6503       6514       6513       6623       6624       6635       6634  
      6503       6504       6515       6514       6624       6625       6636       6635  
      6504       6505       6516       6515       6625       6626       6637       6636  
      6505       6506       6517       6516       6626       6627       6638       6637  
      6506       6507       6518       6517       6627       6628       6639       6638  
      6507       6508       6519       6518       6628       6629       6640       6639  
      6508       6509       6520       6519       6629       6630       6641       6640  
      6509       6510       6521       6520       6630       6631       6642       6641  
      6510       6511       6522       6521       6631       6632       6643       6642  
      6511       6512       6523       6522       6632       6633       6644       6643  
      6513       6514       6525       6524       6634       6635       6646       6645  
      6514       6515       6526       6525       6635       6636       6647       6646  
      6515       6516       6527       6526       6636       6637       6648       6647  
      6516       6517       6528       6527       6637       6638       6649       6648  
      6517       6518       6529       6528       6638       6639       6650       6649  
      6518       6519       6530       6529       6639       6640       6651       6650  
      6519       6520       6531       6530       6640       6641       6652       6651  
      6520       6521       6532       6531       6641       6642       6653       6652  
      6521       6522       6533       6532       6642       6643       6654       6653  
      6522       6523       6534       6533       6643       6644       6655       6654  
      6535       6536       6547       6546       6656       6657       6668       6667  
      6536       6537       6548       6547       6657       6658       6669       6668  
      6537       6538       6549       6548       6658       6659       6670       6669  
      6538       6539       6550       6549       6659       6660       6671       6670  
      6539       6540       6551       6550       6660       6661       6672       6671  
      6540       6541       6552       6551       6661       6662       6673       6672  
      6541       6542       6553       6552       6662       6663       6674       6673  
      6542       6543       6554       6553       6663       6664       6675       6674  
      6543       6544       6555       6554       6664       6665       6676       6675  
      6544       6545       6556       6555       6665       6666       6677       6676  
      6546       6547       6558       6557       6667       6668       6679       6678  
      6547       6548       6559       6558       6668       6669       6680       6679  
      6548       6549       6560       6559       6669       6670       6681       6680  
      6549       6550       6561       6560       6670       6671       6682       6681  
      6550       6551       6562       6561       6671       6672       6683       6682  
      6551       6552       6563       6562       6672       6673       6684       6683  
      6552       6553       6564       6563       6673       6674       6685       6684  
      6553       6554       6565       6564       6674       6675       6686       6685  
      6554       6555       6566       6565       6675       6676       6687       6686  
      6555       6556       6567       6566       6676       6677       6688       6687  
      6557       6558       6569       6568       6678       6679       6690       6689  
      6558       6559       6570       6569       6679       6680       6691       6690  
      6559       6560       6571       6570       6680       6681       6692       6691  
      6560       6561       6572       6571       6681       6682       6693       6692  
      6561       6562       6573       6572       6682       6683       6694       6693  
      6562       6563       6574       6573       6683       6684       6695       6694  
      6563       6564       6575       6574       6684       6685       6696       6695  
      6564       6565       6576       6575       6685       6686       6697       6696  
      6565       6566       6577       6576       6686       6687       6698       6697  
      6566       6567       6578       6577       6687       6688       6699       6698  
      6568       6569       6580       6579       6689       6690       6701       6700  
      6569       6570       6581       6580       6690       6691       6702       6701  
      6570       6571       6582       6581       6691       6692       6703       6702  
      6571       6572       6583       6582       6692       6693       6704       6703  
      6572       6573       6584       6583       6693       6694       6705       6704  
      6573       6574       6585       6584       6694       6695       6706       6705  
      6574       6575       6586       6585       6695       6696       6707       6706  
      6575       6576       6587       6586       6696       6697       6708       6707  
      6576       6577       6588       6587       6697       6698       6709       6708  
      6577       6578       6589       6588       6698       6699       6710       6709  
      6579       6580       6591       6590       6700       6701       6712       6711  
      6580       6581       6592       6591       6701       6702       6713       6712  
      6581       6582       6593       6592       6702       6703       6714       6713  
      6582       6583       6594       6593       6703       6704       6715       6714  
      6583       6584       6595       6594       6704       6705       6716       6715  
      6584       6585       6596       6595       6705       6706       6717       6716  
      6585       6586       6597       6596       6706       6707       6718       6717  
      6586       6587       6598       6597       6707       6708       6719       6718  
      6587       6588       6599       6598       6708       6709       6720       6719  
      6588       6589       6600       6599       6709       6710       6721       6720  
      6590       6591       6602       6601       6711       6712       6723       6722  
      6591       6592       6603       6602       6712       6713       6724       6723  
      6592       6593       6604       6603       6713       6714       6725       6724  
      6593       6594       6605       6604       6714       6715       6726       6725  
      6594       6595       6606       6605       6715       6716       6727       6726  
      6595       6596       6607       6606       6716       6717       6728       6727  
      6596       6597       6608       6607       6717       6718       6729       6728  
      6597       6598       6609       6608       6718       6719       6730       6729  
      6598       6599       6610       6609       6719       6720       6731       6730  
      6599       6600       6611       6610       6720       6721       6732       6731  
      6601       6602       6613       6612       6722       6723       6734       6733  
      6602       6603       6614       6613       6723       6724       6735       6734  
      6603       6604       6615       6614       6724       6725       6736       6735  
      6604       6605       6616       6615       6725       6726       6737       6736  
      6605       6606       6617       6616       6726       6727       6738       6737  
      6606       6607       6618       6617       6727       6728       6739       6738  
      6607       6608       6619       6618       6728       6729       6740       6739  
      6608       6609       6620       6619       6729       6730       6741       6740  
      6609       6610       6621       6620       6730       6731       6742       6741  
      6610       6611       6622       6621       6731       6732       6743       6742  
      6612       6613       6624       6623       6733       6734       6745       6744  
      6613       6614       6625       6624       6734       6735       6746       6745  
      6614       6615       6626       6625       6735       6736       6747       6746  
      6615       6616       6627       6626       6736       6737       6748       6747  
      6616       6617       6628       6627       6737       6738       6749       6748  
      6617       6618       6629       6628       6738       6739       6750       6749  
      6618       6619       6630       6629       6739       6740       6751       6750  
      6619       6620       6631       6630       6740       6741       6752       6751  
      6620       6621       6632       6631       6741       6742       6753       6752  
      6621       6622       6633       6632       6742       6743       6754       6753  
      6623       6624       6635       6634       6744       6745       6756       6755  
      6624       6625       6636       6635       6745       6746       6757       6756  
      6625       6626       6637       6636       6746       6747       6758       6757  
      6626       6627       6638       6637       6747       6748       6759       6758  
      6627       6628       6639       6638       6748       6749       6760       6759  
      6628       6629       6640       6639       6749       6750       6761       6760  
      6629       6630       6641       6640       6750       6751       6762       6761  
      6630       6631       6642       6641       6751       6752       6763       6762  
      6631       6632       6643       6642       6752       6753       6764       6763  
      6632       6633       6644       6643       6753       6754       6765       6764  
      6634       6635       6646       6645       6755       6756       6767       6766  
      6635       6636       6647       6646       6756       6757       6768       6767  
      6636       6637       6648       6647       6757       6758       6769       6768  
      6637       6638       6649       6648       6758       6759       6770       6769  
      6638       6639       6650       6649       6759       6760       6771       6770  
      6639       6640       6651       6650       6760       6761       6772       6771  
      6640       6641       6652       6651       6761       6762       6773       6772  
      6641       6642       6653       6652       6762       6763       6774       6773  
      6642       6643       6654       6653       6763       6764       6775       6774  
      6643       6644       6655       6654       6764       6765       6776       6775  
      6656       6657       6668       6667       6777       6778       6789       6788  
      6657       6658       6669       6668       6778       6779       6790       6789  
      6658       6659       6670       6669       6779       6780       6791       6790  
      6659       6660       6671       6670       6780       6781       6792       6791  
      6660       6661       6672       6671       6781       6782       6793       6792  
      6661       6662       6673       6672       6782       6783       6794       6793  
      6662       6663       6674       6673       6783       6784       6795       6794  
      6663       6664       6675       6674       6784       6785       6796       6795  
      6664       6665       6676       6675       6785       6786       6797       6796  
      6665       6666       6677       6676       6786       6787       6798       6797  
      6667       6668       6679       6678       6788       6789       6800       6799  
      6668       6669       6680       6679       6789       6790       6801       6800  
      6669       6670       6681       6680       6790       6791       6802       6801  
      6670       6671       6682       6681       6791       6792       6803       6802  
      6671       6672       6683       6682       6792       6793       6804       6803  
      6672       6673       6684       6683       6793       6794       6805       6804  
      6673       6674       6685       6684       6794       6795       6806       6805  
      6674       6675       6686       6685       6795       6796       6807       6806  
      6675       6676       6687       6686       6796       6797       6808       6807  
      6676       6677       6688       6687       6797       6798       6809       6808  
      6678       6679       6690       6689       6799       6800       6811       6810  
      6679       6680       6691       6690       6800       6801       6812       6811  
      6680       6681       6692       6691       6801       6802       6813       6812  
      6681       6682       6693       6692       6802       6803       6814       6813  
      6682       6683       6694       6693       6803       6804       6815       6814  
      6683       6684       6695       6694       6804       6805       6816       6815  
      6684       6685       6696       6695       6805       6806       6817       6816  
      6685       6686       6697       6696       6806       6807       6818       6817  
      6686       6687       6698       6697       6807       6808       6819       6818  
      6687       6688       6699       6698       6808       6809       6820       6819  
      6689       6690       6701       6700       6810       6811       6822       6821  
      6690       6691       6702       6701       6811       6812       6823       6822  
      6691       6692       6703       6702       6812       6813       6824       6823  
      6692       6693       6704       6703       6813       6814       6825       6824  
      6693       6694       6705       6704       6814       6815       6826       6825  
      6694       6695       6706       6705       6815       6816       6827       6826  
      6695       6696       6707       6706       6816       6817       6828       6827  
      6696       6697       6708       6707       6817       6818       6829       6828  
      6697       6698       6709       6708       6818       6819       6830       6829  
      6698       6699       6710       6709       6819       6820       6831       6830  
      6700       6701       6712       6711       6821       6822       6833       6832  
      6701       6702       6713       6712       6822       6823       6834       6833  
      6702       6703       6714       6713       6823       6824       6835       6834  
      6703       6704       6715       6714       6824       6825       6836       6835  
      6704       6705       6716       6715       6825       6826       6837       6836  
      6705       6706       6717       6716       6826       6827       6838       6837  
      6706       6707       6718       6717       6827       6828       6839       6838  
      6707       6708       6719       6718       6828       6829       6840       6839  
      6708       6709       6720       6719       6829       6830       6841       6840  
      6709       6710       6721       6720       6830       6831       6842       6841  
      6711       6712       6723       6722       6832       6833       6844       6843  
      6712       6713       6724       6723       6833       6834       6845       6844  
      6713       6714       6725       6724       6834       6835       6846       6845  
      6714       6715       6726       6725       6835       6836       6847       6846  
      6715       6716       6727       6726       6836       6837       6848       6847  
      6716       6717       6728       6727       6837       6838       6849       6848  
      6717       6718       6729       6728       6838       6839       6850       6849  
      6718       6719       6730       6729       6839       6840       6851       6850  
      6719       6720       6731       6730       6840       6841       6852       6851  
      6720       6721       6732       6731       6841       6842       6853       6852  
      6722       6723       6734       6733       6843       6844       6855       6854  
      6723       6724       6735       6734       6844       6845       6856       6855  
      6724       6725       6736       6735       6845       6846       6857       6856  
      6725       6726       6737       6736       6846       6847       6858       6857  
      6726       6727       6738       6737       6847       6848       6859       6858  
      6727       6728       6739       6738       6848       6849       6860       6859  
      6728       6729       6740       6739       6849       6850       6861       6860  
      6729       6730       6741       6740       6850       6851       6862       6861  
      6730       6731       6742       6741       6851       6852       6863       6862  
      6731       6732       6743       6742       6852       6853       6864       6863  
      6733       6734       6745       6744       6854       6855       6866       6865  
      6734       6735       6746       6745       6855       6856       6867       6866  
      6735       6736       6747       6746       6856       6857       6868       6867  
      6736       6737       6748       6747       6857       6858       6869       6868  
      6737       6738       6749       6748       6858       6859       6870       6869  
      6738       6739       6750       6749       6859       6860       6871       6870  
      6739       6740       6751       6750       6860       6861       6872       6871  
      6740       6741       6752       6751       6861       6862       6873       6872  
      6741       6742       6753       6752       6862       6863       6874       6873  
      6742       6743       6754       6753       6863       6864       6875       6874  
      6744       6745       6756       6755       6865       6866       6877       6876  
      6745       6746       6757       6756       6866       6867       6878       6877  
      6746       6747       6758       6757       6867       6868       6879       6878  
      6747       6748       6759       6758       6868       6869       6880       6879  
      6748       6749       6760       6759       6869       6870       6881       6880  
      6749       6750       6761       6760       6870       6871       6882       6881  
      6750       6751       6762       6761       6871       6872       6883       6882  
      6751       6752       6763       6762       6872       6873       6884       6883  
      6752       6753       6764       6763       6873       6874       6885       6884  
      6753       6754       6765       6764       6874       6875       6886       6885  
      6755       6756       6767       6766       6876       6877       6888       6887  
      6756       6757       6768       6767       6877       6878       6889       6888  
      6757       6758       6769       6768       6878       6879       6890       6889  
      6758       6759       6770       6769       6879       6880       6891       6890  
      6759       6760       6771       6770       6880       6881       6892       6891  
      6760       6761       6772       6771       6881       6882       6893       6892  
      6761       6762       6773       6772       6882       6883       6894       6893  
      6762       6763       6774       6773       6883       6884       6895       6894  
      6763       6764       6775       6774       6884       6885       6896       6895  
      6764       6765       6776       6775       6885       6886       6897       6896  
      6777       6778       6789       6788       6898       6899       6910       6909  
      6778       6779       6790       6789       6899       6900       6911       6910  
      6779       6780       6791       6790       6900       6901       6912       6911  
      6780       6781       6792       6791       6901       6902       6913       6912  
      6781       6782       6793       6792       6902       6903       6914       6913  
      6782       6783       6794       6793       6903       6904       6915       6914  
      6783       6784       6795       6794       6904       6905       6916       6915  
      6784       6785       6796       6795       6905       6906       6917       6916  
      6785       6786       6797       6796       6906       6907       6918       6917  
      6786       6787       6798       6797       6907       6908       6919       6918  
      6788       6789       6800       6799       6909       6910       6921       6920  
      6789       6790       6801       6800       6910       6911       6922       6921  
      6790       6791       6802       6801       6911       6912       6923       6922  
      6791       6792       6803       6802       6912       6913       6924       6923  
      6792       6793       6804       6803       6913       6914       6925       6924  
      6793       6794       6805       6804       6914       6915       6926       6925  
      6794       6795       6806       6805       6915       6916       6927       6926  
      6795       6796       6807       6806       6916       6917       6928       6927  
      6796       6797       6808       6807       6917       6918       6929       6928  
      6797       6798       6809       6808       6918       6919       6930       6929  
      6799       6800       6811       6810       6920       6921       6932       6931  
      6800       6801       6812       6811       6921       6922       6933       6932  
      6801       6802       6813       6812       6922       6923       6934       6933  
      6802       6803       6814       6813       6923       6924       6935       6934  
      6803       6804       6815       6814       6924       6925       6936       6935  
      6804       6805       6816       6815       6925       6926       6937       6936  
      6805       6806       6817       6816       6926       6927       6938       6937  
      6806       6807       6818       6817       6927       6928       6939       6938  
      6807       6808       6819       6818       6928       6929       6940       6939  
      6808       6809       6820       6819       6929       6930       6941       6940  
      6810       6811       6822       6821       6931       6932       6943       6942  
      6811       6812       6823       6822       6932       6933       6944       6943  
      6812       6813       6824       6823       6933       6934       6945       6944  
      6813       6814       6825       6824       6934       6935       6946       6945  
      6814       6815       6826       6825       6935       6936       6947       6946  
      6815       6816       6827       6826       6936       6937       6948       6947  
      6816       6817       6828       6827       6937       6938       6949       6948  
      6817       6818       6829       6828       6938       6939       6950       6949  
      6818       6819       6830       6829       6939       6940       6951       6950  
      6819       6820       6831       6830       6940       6941       6952       6951  
      6821       6822       6833       6832       6942       6943       6954       6953  
      6822       6823       6834       6833       6943       6944       6955       6954  
      6823       6824       6835       6834       6944       6945       6956       6955  
      6824       6825       6836       6835       6945       6946       6957       6956  
      6825       6826       6837       6836       6946       6947       6958       6957  
      6826       6827       6838       6837       6947       6948       6959       6958  
      6827       6828       6839       6838       6948       6949       6960       6959  
      6828       6829       6840       6839       6949       6950       6961       6960  
      6829       6830       6841       6840       6950       6951       6962       6961  
      6830       6831       6842       6841       6951       6952       6963       6962  
      6832       6833       6844       6843       6953       6954       6965       6964  
      6833       6834       6845       6844       6954       6955       6966       6965  
      6834       6835       6846       6845       6955       6956       6967       6966  
      6835       6836       6847       6846       6956       6957       6968       6967  
      6836       6837       6848       6847       6957       6958       6969       6968  
      6837       6838       6849       6848       6958       6959       6970       6969  
      6838       6839       6850       6849       6959       6960       6971       6970  
      6839       6840       6851       6850       6960       6961       6972       6971  
      6840       6841       6852       6851       6961       6962       6973       6972  
      6841       6842       6853       6852       6962       6963       6974       6973  
      6843       6844       6855       6854       6964       6965       6976       6975  
      6844       6845       6856       6855       6965       6966       6977       6976  
      6845       6846       6857       6856       6966       6967       6978       6977  
      6846       6847       6858       6857       6967       6968       6979       6978  
      6847       6848       6859       6858       6968       6969       6980       6979  
      6848       6849       6860       6859       6969       6970       6981       6980  
      6849       6850       6861       6860       6970       6971       6982       6981  
      6850       6851       6862       6861       6971       6972       6983       6982  
      6851       6852       6863       6862       6972       6973       6984       6983  
      6852       6853       6864       6863       6973       6974       6985       6984  
      6854       6855       6866       6865       6975       6976       6987       6986  
      6855       6856       6867       6866       6976       6977       6988       6987  
      6856       6857       6868       6867       6977       6978       6989       6988  
      6857       6858       6869       6868       6978       6979       6990       6989  
      6858       6859       6870       6869       6979       6980       6991       6990  
      6859       6860       6871       6870       6980       6981       6992       6991  
      6860       6861       6872       6871       6981       6982       6993       6992  
      6861       6862       6873       6872       6982       6983       6994       6993  
      6862       6863       6874       6873       6983       6984       6995       6994  
      6863       6864       6875       6874       6984       6985       6996       6995  
      6865       6866       6877       6876       6986       6987       6998       6997  
      6866       6867       6878       6877       6987       6988       6999       6998  
      6867       6868       6879       6878       6988       6989       7000       6999  
      6868       6869       6880       6879       6989       6990       7001       7000  
      6869       6870       6881       6880       6990       6991       7002       7001  
      6870       6871       6882       6881       6991       6992       7003       7002  
      6871       6872       6883       6882       6992       6993       7004       7003  
      6872       6873       6884       6883       6993       6994       7005       7004  
      6873       6874       6885       6884       6994       6995       7006       7005  
      6874       6875       6886       6885       6995       6996       7007       7006  
      6876       6877       6888       6887       6997       6998       7009       7008  
      6877       6878       6889       6888       6998       6999       7010       7009  
      6878       6879       6890       6889       6999       7000       7011       7010  
      6879       6880       6891       6890       7000       7001       7012       7011  
      6880       6881       6892       6891       7001       7002       7013       7012  
      6881       6882       6893       6892       7002       7003       7014       7013  
      6882       6883       6894       6893       7003       7004       7015       7014  
      6883       6884       6895       6894       7004       7005       7016       7015  
      6884       6885       6896       6895       7005       7006       7017       7016  
      6885       6886       6897       6896       7006       7007       7018       7017  
      6898       6899       6910       6909       7019       7020       7031       7030  
      6899       6900       6911       6910       7020       7021       7032       7031  
      6900       6901       6912       6911       7021       7022       7033       7032  
      6901       6902       6913       6912       7022       7023       7034       7033  
      6902       6903       6914       6913       7023       7024       7035       7034  
      6903       6904       6915       6914       7024       7025       7036       7035  
      6904       6905       6916       6915       7025       7026       7037       7036  
      6905       6906       6917       6916       7026       7027       7038       7037  
      6906       6907       6918       6917       7027       7028       7039       7038  
      6907       6908       6919       6918       7028       7029       7040       7039  
      6909       6910       6921       6920       7030       7031       7042       7041  
      6910       6911       6922       6921       7031       7032       7043       7042  
      6911       6912       6923       6922       7032       7033       7044       7043  
      6912       6913       6924       6923       7033       7034       7045       7044  
      6913       6914       6925       6924       7034       7035       7046       7045  
      6914       6915       6926       6925       7035       7036       7047       7046  
      6915       6916       6927       6926       7036       7037       7048       7047  
      6916       6917       6928       6927       7037       7038       7049       7048  
      6917       6918       6929       6928       7038       7039       7050       7049  
      6918       6919       6930       6929       7039       7040       7051       7050  
      6920       6921       6932       6931       7041       7042       7053       7052  
      6921       6922       6933       6932       7042       7043       7054       7053  
      6922       6923       6934       6933       7043       7044       7055       7054  
      6923       6924       6935       6934       7044       7045       7056       7055  
      6924       6925       6936       6935       7045       7046       7057       7056  
      6925       6926       6937       6936       7046       7047       7058       7057  
      6926       6927       6938       6937       7047       7048       7059       7058  
      6927       6928       6939       6938       7048       7049       7060       7059  
      6928       6929       6940       6939       7049       7050       7061       7060  
      6929       6930       6941       6940       7050       7051       7062       7061  
      6931       6932       6943       6942       7052       7053       7064       7063  
      6932       6933       6944       6943       7053       7054       7065       7064  
      6933       6934       6945       6944       7054       7055       7066       7065  
      6934       6935       6946       6945       7055       7056       7067       7066  
      6935       6936       6947       6946       7056       7057       7068       7067  
      6936       6937       6948       6947       7057       7058       7069       7068  
      6937       6938       6949       6948       7058       7059       7070       7069  
      6938       6939       6950       6949       7059       7060       7071       7070  
      6939       6940       6951       6950       7060       7061       7072       7071  
      6940       6941       6952       6951       7061       7062       7073       7072  
      6942       6943       6954       6953       7063       7064       7075       7074  
      6943       6944       6955       6954       7064       7065       7076       7075  
      6944       6945       6956       6955       7065       7066       7077       7076  
      6945       6946       6957       6956       7066       7067       7078       7077  
      6946       6947       6958       6957       7067       7068       7079       7078  
      6947       6948       6959       6958       7068       7069       7080       7079  
      6948       6949       6960       6959       7069       7070       7081       7080  
      6949       6950       6961       6960       7070       7071       7082       7081  
      6950       6951       6962       6961       7071       7072       7083       7082  
      6951       6952       6963       6962       7072       7073       7084       7083  
      6953       6954       6965       6964       7074       7075       7086       7085  
      6954       6955       6966       6965       7075       7076       7087       7086  
      6955       6956       6967       6966       7076       7077       7088       7087  
      6956       6957       6968       6967       7077       7078       7089       7088  
      6957       6958       6969       6968       7078       7079       7090       7089  
      6958       6959       6970       6969       7079       7080       7091       7090  
      6959       6960       6971       6970       7080       7081       7092       7091  
      6960       6961       6972       6971       7081       7082       7093       7092  
      6961       6962       6973       6972       7082       7083       7094       7093  
      6962       6963       6974       6973       7083       7084       7095       7094  
      6964       6965       6976       6975       7085       7086       7097       7096  
      6965       6966       6977       6976       7086       7087       7098       7097  
      6966       6967       6978       6977       7087       7088       7099       7098  
      6967       6968       6979       6978       7088       7089       7100       7099  
      6968       6969       6980       6979       7089       7090       7101       7100  
      6969       6970       6981       6980       7090       7091       7102       7101  
      6970       6971       6982       6981       7091       7092       7103       7102  
      6971       6972       6983       6982       7092       7093       7104       7103  
      6972       6973       6984       6983       7093       7094       7105       7104  
      6973       6974       6985       6984       7094       7095       7106       7105  
      6975       6976       6987       6986       7096       7097       7108       7107  
      6976       6977       6988       6987       7097       7098       7109       7108  
      6977       6978       6989       6988       7098       7099       7110       7109  
      6978       6979       6990       6989       7099       7100       7111       7110  
      6979       6980       6991       6990       7100       7101       7112       7111  
      6980       6981       6992       6991       7101       7102       7113       7112  
      6981       6982       6993       6992       7102       7103       7114       7113  
      6982       6983       6994       6993       7103       7104       7115       7114  
      6983       6984       6995       6994       7104       7105       7116       7115  
      6984       6985       6996       6995       7105       7106       7117       7116  
      6986       6987       6998       6997       7107       7108       7119       7118  
      6987       6988       6999       6998       7108       7109       7120       7119  
      6988       6989       7000       6999       7109       7110       7121       7120  
      6989       6990       7001       7000       7110       7111       7122       7121  
      6990       6991       7002       7001       7111       7112       7123       7122  
      6991       6992       7003       7002       7112       7113       7124       7123  
      6992       6993       7004       7003       7113       7114       7125       7124  
      6993       6994       7005       7004       7114       7115       7126       7125  
      6994       6995       7006       7005       7115       7116       7127       7126  
      6995       6996       7007       7006       7116       7117       7128       7127  
      6997       6998       7009       7008       7118       7119       7130       7129  
      6998       6999       7010       7009       7119       7120       7131       7130  
      6999       7000       7011       7010       7120       7121       7132       7131  
      7000       7001       7012       7011       7121       7122       7133       7132  
      7001       7002       7013       7012       7122       7123       7134       7133  
      7002       7003       7014       7013       7123       7124       7135       7134  
      7003       7004       7015       7014       7124       7125       7136       7135  
      7004       7005       7016       7015       7125       7126       7137       7136  
      7005       7006       7017       7016       7126       7127       7138       7137  
      7006       7007       7018       7017       7127       7128       7139       7138  
      7019       7020       7031       7030       7140       7141       7152       7151  
      7020       7021       7032       7031       7141       7142       7153       7152  
      7021       7022       7033       7032       7142       7143       7154       7153  
      7022       7023       7034       7033       7143       7144       7155       7154  
      7023       7024       7035       7034       7144       7145       7156       7155  
      7024       7025       7036       7035       7145       7146       7157       7156  
      7025       7026       7037       7036       7146       7147       7158       7157  
      7026       7027       7038       7037       7147       7148       7159       7158  
      7027       7028       7039       7038       7148       7149       7160       7159  
      7028       7029       7040       7039       7149       7150       7161       7160  
      7030       7031       7042       7041       7151       7152       7163       7162  
      7031       7032       7043       7042       7152       7153       7164       7163  
      7032       7033       7044       7043       7153       7154       7165       7164  
      7033       7034       7045       7044       7154       7155       7166       7165  
      7034       7035       7046       7045       7155       7156       7167       7166  
      7035       7036       7047       7046       7156       7157       7168       7167  
      7036       7037       7048       7047       7157       7158       7169       7168  
      7037       7038       7049       7048       7158       7159       7170       7169  
      7038       7039       7050       7049       7159       7160       7171       7170  
      7039       7040       7051       7050       7160       7161       7172       7171  
      7041       7042       7053       7052       7162       7163       7174       7173  
      7042       7043       7054       7053       7163       7164       7175       7174  
      7043       7044       7055       7054       7164       7165       7176       7175  
      7044       7045       7056       7055       7165       7166       7177       7176  
      7045       7046       7057       7056       7166       7167       7178       7177  
      7046       7047       7058       7057       7167       7168       7179       7178  
      7047       7048       7059       7058       7168       7169       7180       7179  
      7048       7049       7060       7059       7169       7170       7181       7180  
      7049       7050       7061       7060       7170       7171       7182       7181  
      7050       7051       7062       7061       7171       7172       7183       7182  
      7052       7053       7064       7063       7173       7174       7185       7184  
      7053       7054       7065       7064       7174       7175       7186       7185  
      7054       7055       7066       7065       7175       7176       7187       7186  
      7055       7056       7067       7066       7176       7177       7188       7187  
      7056       7057       7068       7067       7177       7178       7189       7188  
      7057       7058       7069       7068       7178       7179       7190       7189  
      7058       7059       7070       7069       7179       7180       7191       7190  
      7059       7060       7071       7070       7180       7181       7192       7191  
      7060       7061       7072       7071       7181       7182       7193       7192  
      7061       7062       7073       7072       7182       7183       7194       7193  
      7063       7064       7075       7074       7184       7185       7196       7195  
      7064       7065       7076       7075       7185       7186       7197       7196  
      7065       7066       7077       7076       7186       7187       7198       7197  
      7066       7067       7078       7077       7187       7188       7199       7198  
      7067       7068       7079       7078       7188       7189       7200       7199  
      7068       7069       7080       7079       7189       7190       7201       7200  
      7069       7070       7081       7080       7190       7191       7202       7201  
      7070       7071       7082       7081       7191       7192       7203       7202  
      7071       7072       7083       7082       7192       7193       7204       7203  
      7072       7073       7084       7083       7193       7194       7205       7204  
      7074       7075       7086       7085       7195       7196       7207       7206  
      7075       7076       7087       7086       7196       7197       7208       7207  
      7076       7077       7088       7087       7197       7198       7209       7208  
      7077       7078       7089       7088       7198       7199       7210       7209  
      7078       7079       7090       7089       7199       7200       7211       7210  
      7079       7080       7091       7090       7200       7201       7212       7211  
      7080       7081       7092       7091       7201       7202       7213       7212  
      7081       7082       7093       7092       7202       7203       7214       7213  
      7082       7083       7094       7093       7203       7204       7215       7214  
      7083       7084       7095       7094       7204       7205       7216       7215  
      7085       7086       7097       7096       7206       7207       7218       7217  
      7086       7087       7098       7097       7207       7208       7219       7218  
      7087       7088       7099       7098       7208       7209       7220       7219  
      7088       7089       7100       7099       7209       7210       7221       7220  
      7089       7090       7101       7100       7210       7211       7222       7221  
      7090       7091       7102       7101       7211       7212       7223       7222  
      7091       7092       7103       7102       7212       7213       7224       7223  
      7092       7093       7104       7103       7213       7214       7225       7224  
      7093       7094       7105       7104       7214       7215       7226       7225  
      7094       7095       7106       7105       7215       7216       7227       7226  
      7096       7097       7108       7107       7217       7218       7229       7228  
      7097       7098       7109       7108       7218       7219       7230       7229  
      7098       7099       7110       7109       7219       7220       7231       7230  
      7099       7100       7111       7110       7220       7221       7232       7231  
      7100       7101       7112       7111       7221       7222       7233       7232  
      7101       7102       7113       7112       7222       7223       7234       7233  
      7102       7103       7114       7113       7223       7224       7235       7234  
      7103       7104       7115       7114       7224       7225       7236       7235  
      7104       7105       7116       7115       7225       7226       7237       7236  
      7105       7106       7117       7116       7226       7227       7238       7237  
      7107       7108       7119       7118       7228       7229       7240       7239  
      7108       7109       7120       7119       7229       7230       7241       7240  
      7109       7110       7121       7120       7230       7231       7242       7241  
      7110       7111       7122       7121       7231       7232       7243       7242  
      7111       7112       7123       7122       7232       7233       7244       7243  
      7112       7113       7124       7123       7233       7234       7245       7244  
      7113       7114       7125       7124       7234       7235       7246       7245  
      7114       7115       7126       7125       7235       7236       7247       7246  
      7115       7116       7127       7126       7236       7237       7248       7247  
      7116       7117       7128       7127       7237       7238       7249       7248  
      7118       7119       7130       7129       7239       7240       7251       7250  
      7119       7120       7131       7130       7240       7241       7252       7251  
      7120       7121       7132       7131       7241       7242       7253       7252  
      7121       7122       7133       7132       7242       7243       7254       7253  
      7122       7123       7134       7133       7243       7244       7255       7254  
      7123       7124       7135       7134       7244       7245       7256       7255  
      7124       7125       7136       7135       7245       7246       7257       7256  
      7125       7126       7137       7136       7246       7247       7258       7257  
      7126       7127       7138       7137       7247       7248       7259       7258  
      7127       7128       7139       7138       7248       7249       7260       7259  
      7140       7141       7152       7151       7261       7262       7273       7272  
      7141       7142       7153       7152       7262       7263       7274       7273  
      7142       7143       7154       7153       7263       7264       7275       7274  
      7143       7144       7155       7154       7264       7265       7276       7275  
      7144       7145       7156       7155       7265       7266       7277       7276  
      7145       7146       7157       7156       7266       7267       7278       7277  
      7146       7147       7158       7157       7267       7268       7279       7278  
      7147       7148       7159       7158       7268       7269       7280       7279  
      7148       7149       7160       7159       7269       7270       7281       7280  
      7149       7150       7161       7160       7270       7271       7282       7281  
      7151       7152       7163       7162       7272       7273       7284       7283  
      7152       7153       7164       7163       7273       7274       7285       7284  
      7153       7154       7165       7164       7274       7275       7286       7285  
      7154       7155       7166       7165       7275       7276       7287       7286  
      7155       7156       7167       7166       7276       7277       7288       7287  
      7156       7157       7168       7167       7277       7278       7289       7288  
      7157       7158       7169       7168       7278       7279       7290       7289  
      7158       7159       7170       7169       7279       7280       7291       7290  
      7159       7160       7171       7170       7280       7281       7292       7291  
      7160       7161       7172       7171       7281       7282       7293       7292  
      7162       7163       7174       7173       7283       7284       7295       7294  
      7163       7164       7175       7174       7284       7285       7296       7295  
      7164       7165       7176       7175       7285       7286       7297       7296  
      7165       7166       7177       7176       7286       7287       7298       7297  
      7166       7167       7178       7177       7287       7288       7299       7298  
      7167       7168       7179       7178       7288       7289       7300       7299  
      7168       7169       7180       7179       7289       7290       7301       7300  
      7169       7170       7181       7180       7290       7291       7302       7301  
      7170       7171       7182       7181       7291       7292       7303       7302  
      7171       7172       7183       7182       7292       7293       7304       7303  
      7173       7174       7185       7184       7294       7295       7306       7305  
      7174       7175       7186       7185       7295       7296       7307       7306  
      7175       7176       7187       7186       7296       7297       7308       7307  
      7176       7177       7188       7187       7297       7298       7309       7308  
      7177       7178       7189       7188       7298       7299       7310       7309  
      7178       7179       7190       7189       7299       7300       7311       7310  
      7179       7180       7191       7190       7300       7301       7312       7311  
      7180       7181       7192       7191       7301       7302       7313       7312  
      7181       7182       7193       7192       7302       7303       7314       7313  
      7182       7183       7194       7193       7303       7304       7315       7314  
      7184       7185       7196       7195       7305       7306       7317       7316  
      7185       7186       7197       7196       7306       7307       7318       7317  
      7186       7187       7198       7197       7307       7308       7319       7318  
      7187       7188       7199       7198       7308       7309       7320       7319  
      7188       7189       7200       7199       7309       7310       7321       7320  
      7189       7190       7201       7200       7310       7311       7322       7321  
      7190       7191       7202       7201       7311       7312       7323       7322  
      7191       7192       7203       7202       7312       7313       7324       7323  
      7192       7193       7204       7203       7313       7314       7325       7324  
      7193       7194       7205       7204       7314       7315       7326       7325  
      7195       7196       7207       7206       7316       7317       7328       7327  
      7196       7197       7208       7207       7317       7318       7329       7328  
      7197       7198       7209       7208       7318       7319       7330       7329  
      7198       7199       7210       7209       7319       7320       7331       7330  
      7199       7200       7211       7210       7320       7321       7332       7331  
      7200       7201       7212       7211       7321       7322       7333       7332  
      7201       7202       7213       7212       7322       7323       7334       7333  
      7202       7203       7214       7213       7323       7324       7335       7334  
      7203       7204       7215       7214       7324       7325       7336       7335  
      7204       7205       7216       7215       7325       7326       7337       7336  
      7206       7207       7218       7217       7327       7328       7339       7338  
      7207       7208       7219       7218       7328       7329       7340       7339  
      7208       7209       7220       7219       7329       7330       7341       7340  
      7209       7210       7221       7220       7330       7331       7342       7341  
      7210       7211       7222       7221       7331       7332       7343       7342  
      7211       7212       7223       7222       7332       7333       7344       7343  
      7212       7213       7224       7223       7333       7334       7345       7344  
      7213       7214       7225       7224       7334       7335       7346       7345  
      7214       7215       7226       7225       7335       7336       7347       7346  
      7215       7216       7227       7226       7336       7337       7348       7347  
      7217       7218       7229       7228       7338       7339       7350       7349  
      7218       7219       7230       7229       7339       7340       7351       7350  
      7219       7220       7231       7230       7340       7341       7352       7351  
      7220       7221       7232       7231       7341       7342       7353       7352  
      7221       7222       7233       7232       7342       7343       7354       7353  
      7222       7223       7234       7233       7343       7344       7355       7354  
      7223       7224       7235       7234       7344       7345       7356       7355  
      7224       7225       7236       7235       7345       7346       7357       7356  
      7225       7226       7237       7236       7346       7347       7358       7357  
      7226       7227       7238       7237       7347       7348       7359       7358  
      7228       7229       7240       7239       7349       7350       7361       7360  
      7229       7230       7241       7240       7350       7351       7362       7361  
      7230       7231       7242       7241       7351       7352       7363       7362  
      7231       7232       7243       7242       7352       7353       7364       7363  
      7232       7233       7244       7243       7353       7354       7365       7364  
      7233       7234       7245       7244       7354       7355       7366       7365  
      7234       7235       7246       7245       7355       7356       7367       7366  
      7235       7236       7247       7246       7356       7357       7368       7367  
      7236       7237       7248       7247       7357       7358       7369       7368  
      7237       7238       7249       7248       7358       7359       7370       7369  
      7239       7240       7251       7250       7360       7361       7372       7371  
      7240       7241       7252       7251       7361       7362       7373       7372  
      7241       7242       7253       7252       7362       7363       7374       7373  
      7242       7243       7254       7253       7363       7364       7375       7374  
      7243       7244       7255       7254       7364       7365       7376       7375  
      7244       7245       7256       7255       7365       7366       7377       7376  
      7245       7246       7257       7256       7366       7367       7378       7377  
      7246       7247       7258       7257       7367       7368       7379       7378  
      7247       7248       7259       7258       7368       7369       7380       7379  
      7248       7249       7260       7259       7369       7370       7381       7380  
      7261       7262       7273       7272       7382       7383       7394       7393  
      7262       7263       7274       7273       7383       7384       7395       7394  
      7263       7264       7275       7274       7384       7385       7396       7395  
      7264       7265       7276       7275       7385       7386       7397       7396  
      7265       7266       7277       7276       7386       7387       7398       7397  
      7266       7267       7278       7277       7387       7388       7399       7398  
      7267       7268       7279       7278       7388       7389       7400       7399  
      7268       7269       7280       7279       7389       7390       7401       7400  
      7269       7270       7281       7280       7390       7391       7402       7401  
      7270       7271       7282       7281       7391       7392       7403       7402  
      7272       7273       7284       7283       7393       7394       7405       7404  
      7273       7274       7285       7284       7394       7395       7406       7405  
      7274       7275       7286       7285       7395       7396       7407       7406  
      7275       7276       7287       7286       7396       7397       7408       7407  
      7276       7277       7288       7287       7397       7398       7409       7408  
      7277       7278       7289       7288       7398       7399       7410       7409  
      7278       7279       7290       7289       7399       7400       7411       7410  
      7279       7280       7291       7290       7400       7401       7412       7411  
      7280       7281       7292       7291       7401       7402       7413       7412  
      7281       7282       7293       7292       7402       7403       7414       7413  
      7283       7284       7295       7294       7404       7405       7416       7415  
      7284       7285       7296       7295       7405       7406       7417       7416  
      7285       7286       7297       7296       7406       7407       7418       7417  
      7286       7287       7298       7297       7407       7408       7419       7418  
      7287       7288       7299       7298       7408       7409       7420       7419  
      7288       7289       7300       7299       7409       7410       7421       7420  
      7289       7290       7301       7300       7410       7411       7422       7421  
      7290       7291       7302       7301       7411       7412       7423       7422  
      7291       7292       7303       7302       7412       7413       7424       7423  
      7292       7293       7304       7303       7413       7414       7425       7424  
      7294       7295       7306       7305       7415       7416       7427       7426  
      7295       7296       7307       7306       7416       7417       7428       7427  
      7296       7297       7308       7307       7417       7418       7429       7428  
      7297       7298       7309       7308       7418       7419       7430       7429  
      7298       7299       7310       7309       7419       7420       7431       7430  
      7299       7300       7311       7310       7420       7421       7432       7431  
      7300       7301       7312       7311       7421       7422       7433       7432  
      7301       7302       7313       7312       7422       7423       7434       7433  
      7302       7303       7314       7313       7423       7424       7435       7434  
      7303       7304       7315       7314       7424       7425       7436       7435  
      7305       7306       7317       7316       7426       7427       7438       7437  
      7306       7307       7318       7317       7427       7428       7439       7438  
      7307       7308       7319       7318       7428       7429       7440       7439  
      7308       7309       7320       7319       7429       7430       7441       7440  
      7309       7310       7321       7320       7430       7431       7442       7441  
      7310       7311       7322       7321       7431       7432       7443       7442  
      7311       7312       7323       7322       7432       7433       7444       7443  
      7312       7313       7324       7323       7433       7434       7445       7444  
      7313       7314       7325       7324       7434       7435       7446       7445  
      7314       7315       7326       7325       7435       7436       7447       7446  
      7316       7317       7328       7327       7437       7438       7449       7448  
      7317       7318       7329       7328       7438       7439       7450       7449  
      7318       7319       7330       7329       7439       7440       7451       7450  
      7319       7320       7331       7330       7440       7441       7452       7451  
      7320       7321       7332       7331       7441       7442       7453       7452  
      7321       7322       7333       7332       7442       7443       7454       7453  
      7322       7323       7334       7333       7443       7444       7455       7454  
      7323       7324       7335       7334       7444       7445       7456       7455  
      7324       7325       7336       7335       7445       7446       7457       7456  
      7325       7326       7337       7336       7446       7447       7458       7457  
      7327       7328       7339       7338       7448       7449       7460       7459  
      7328       7329       7340       7339       7449       7450       7461       7460  
      7329       7330       7341       7340       7450       7451       7462       7461  
      7330       7331       7342       7341       7451       7452       7463       7462  
      7331       7332       7343       7342       7452       7453       7464       7463  
      7332       7333       7344       7343       7453       7454       7465       7464  
      7333       7334       7345       7344       7454       7455       7466       7465  
      7334       7335       7346       7345       7455       7456       7467       7466  
      7335       7336       7347       7346       7456       7457       7468       7467  
      7336       7337       7348       7347       7457       7458       7469       7468  
      7338       7339       7350       7349       7459       7460       7471       7470  
      7339       7340       7351       7350       7460       7461       7472       7471  
      7340       7341       7352       7351       7461       7462       7473       7472  
      7341       7342       7353       7352       7462       7463       7474       7473  
      7342       7343       7354       7353       7463       7464       7475       7474  
      7343       7344       7355       7354       7464       7465       7476       7475  
      7344       7345       7356       7355       7465       7466       7477       7476  
      7345       7346       7357       7356       7466       7467       7478       7477  
      7346       7347       7358       7357       7467       7468       7479       7478  
      7347       7348       7359       7358       7468       7469       7480       7479  
      7349       7350       7361       7360       7470       7471       7482       7481  
      7350       7351       7362       7361       7471       7472       7483       7482  
      7351       7352       7363       7362       7472       7473       7484       7483  
      7352       7353       7364       7363       7473       7474       7485       7484  
      7353       7354       7365       7364       7474       7475       7486       7485  
      7354       7355       7366       7365       7475       7476       7487       7486  
      7355       7356       7367       7366       7476       7477       7488       7487  
      7356       7357       7368       7367       7477       7478       7489       7488  
      7357       7358       7369       7368       7478       7479       7490       7489  
      7358       7359       7370       7369       7479       7480       7491       7490  
      7360       7361       7372       7371       7481       7482       7493       7492  
      7361       7362       7373       7372       7482       7483       7494       7493  
      7362       7363       7374       7373       7483       7484       7495       7494  
      7363       7364       7375       7374       7484       7485       7496       7495  
      7364       7365       7376       7375       7485       7486       7497       7496  
      7365       7366       7377       7376       7486       7487       7498       7497  
      7366       7367       7378       7377       7487       7488       7499       7498  
      7367       7368       7379       7378       7488       7489       7500       7499  
      7368       7369       7380       7379       7489       7490       7501       7500  
      7369       7370       7381       7380       7490       7491       7502       7501  
      7382       7383       7394       7393       7503       7504       7515       7514  
      7383       7384       7395       7394       7504       7505       7516       7515  
      7384       7385       7396       7395       7505       7506       7517       7516  
      7385       7386       7397       7396       7506       7507       7518       7517  
      7386       7387       7398       7397       7507       7508       7519       7518  
      7387       7388       7399       7398       7508       7509       7520       7519  
      7388       7389       7400       7399       7509       7510       7521       7520  
      7389       7390       7401       7400       7510       7511       7522       7521  
      7390       7391       7402       7401       7511       7512       7523       7522  
      7391       7392       7403       7402       7512       7513       7524       7523  
      7393       7394       7405       7404       7514       7515       7526       7525  
      7394       7395       7406       7405       7515       7516       7527       7526  
      7395       7396       7407       7406       7516       7517       7528       7527  
      7396       7397       7408       7407       7517       7518       7529       7528  
      7397       7398       7409       7408       7518       7519       7530       7529  
      7398       7399       7410       7409       7519       7520       7531       7530  
      7399       7400       7411       7410       7520       7521       7532       7531  
      7400       7401       7412       7411       7521       7522       7533       7532  
      7401       7402       7413       7412       7522       7523       7534       7533  
      7402       7403       7414       7413       7523       7524       7535       7534  
      7404       7405       7416       7415       7525       7526       7537       7536  
      7405       7406       7417       7416       7526       7527       7538       7537  
      7406       7407       7418       7417       7527       7528       7539       7538  
      7407       7408       7419       7418       7528       7529       7540       7539  
      7408       7409       7420       7419       7529       7530       7541       7540  
      7409       7410       7421       7420       7530       7531       7542       7541  
      7410       7411       7422       7421       7531       7532       7543       7542  
      7411       7412       7423       7422       7532       7533       7544       7543  
      7412       7413       7424       7423       7533       7534       7545       7544  
      7413       7414       7425       7424       7534       7535       7546       7545  
      7415       7416       7427       7426       7536       7537       7548       7547  
      7416       7417       7428       7427       7537       7538       7549       7548  
      7417       7418       7429       7428       7538       7539       7550       7549  
      7418       7419       7430       7429       7539       7540       7551       7550  
      7419       7420       7431       7430       7540       7541       7552       7551  
      7420       7421       7432       7431       7541       7542       7553       7552  
      7421       7422       7433       7432       7542       7543       7554       7553  
      7422       7423       7434       7433       7543       7544       7555       7554  
      7423       7424       7435       7434       7544       7545       7556       7555  
      7424       7425       7436       7435       7545       7546       7557       7556  
      7426       7427       7438       7437       7547       7548       7559       7558  
      7427       7428       7439       7438       7548       7549       7560       7559  
      7428       7429       7440       7439       7549       7550       7561       7560  
      7429       7430       7441       7440       7550       7551       7562       7561  
      7430       7431       7442       7441       7551       7552       7563       7562  
      7431       7432       7443       7442       7552       7553       7564       7563  
      7432       7433       7444       7443       7553       7554       7565       7564  
      7433       7434       7445       7444       7554       7555       7566       7565  
      7434       7435       7446       7445       7555       7556       7567       7566  
      7435       7436       7447       7446       7556       7557       7568       7567  
      7437       7438       7449       7448       7558       7559       7570       7569  
      7438       7439       7450       7449       7559       7560       7571       7570  
      7439       7440       7451       7450       7560       7561       7572       7571  
      7440       7441       7452       7451       7561       7562       7573       7572  
      7441       7442       7453       7452       7562       7563       7574       7573  
      7442       7443       7454       7453       7563       7564       7575       7574  
      7443       7444       7455       7454       7564       7565       7576       7575  
      7444       7445       7456       7455       7565       7566       7577       7576  
      7445       7446       7457       7456       7566       7567       7578       7577  
      7446       7447       7458       7457       7567       7568       7579       7578  
      7448       7449       7460       7459       7569       7570       7581       7580  
      7449       7450       7461       7460       7570       7571       7582       7581  
      7450       7451       7462       7461       7571       7572       7583       7582  
      7451       7452       7463       7462       7572       7573       7584       7583  
      7452       7453       7464       7463       7573       7574       7585       7584  
      7453       7454       7465       7464       7574       7575       7586       7585  
      7454       7455       7466       7465       7575       7576       7587       7586  
      7455       7456       7467       7466       7576       7577       7588       7587  
      7456       7457       7468       7467       7577       7578       7589       7588  
      7457       7458       7469       7468       7578       7579       7590       7589  
      7459       7460       7471       7470       7580       7581       7592       7591  
      7460       7461       7472       7471       7581       7582       7593       7592  
      7461       7462       7473       7472       7582       7583       7594       7593  
      7462       7463       7474       7473       7583       7584       7595       7594  
      7463       7464       7475       7474       7584       7585       7596       7595  
      7464       7465       7476       7475       7585       7586       7597       7596  
      7465       7466       7477       7476       7586       7587       7598       7597  
      7466       7467       7478       7477       7587       7588       7599       7598  
      7467       7468       7479       7478       7588       7589       7600       7599  
      7468       7469       7480       7479       7589       7590       7601       7600  
      7470       7471       7482       7481       7591       7592       7603       7602  
      7471       7472       7483       7482       7592       7593       7604       7603  
      7472       7473       7484       7483       7593       7594       7605       7604  
      7473       7474       7485       7484       7594       7595       7606       7605  
      7474       7475       7486       7485       7595       7596       7607       7606  
      7475       7476       7487       7486       7596       7597       7608       7607  
      7476       7477       7488       7487       7597       7598       7609       7608  
      7477       7478       7489       7488       7598       7599       7610       7609  
      7478       7479       7490       7489       7599       7600       7611       7610  
      7479       7480       7491       7490       7600       7601       7612       7611  
      7481       7482       7493       7492       7602       7603       7614       7613  
      7482       7483       7494       7493       7603       7604       7615       7614  
      7483       7484       7495       7494       7604       7605       7616       7615  
      7484       7485       7496       7495       7605       7606       7617       7616  
      7485       7486       7497       7496       7606       7607       7618       7617  
      7486       7487       7498       7497       7607       7608       7619       7618  
      7487       7488       7499       7498       7608       7609       7620       7619  
      7488       7489       7500       7499       7609       7610       7621       7620  
      7489       7490       7501       7500       7610       7611       7622       7621  
      7490       7491       7502       7501       7611       7612       7623       7622  
      7503       7504       7515       7514       7624       7625       7636       7635  
      7504       7505       7516       7515       7625       7626       7637       7636  
      7505       7506       7517       7516       7626       7627       7638       7637  
      7506       7507       7518       7517       7627       7628       7639       7638  
      7507       7508       7519       7518       7628       7629       7640       7639  
      7508       7509       7520       7519       7629       7630       7641       7640  
      7509       7510       7521       7520       7630       7631       7642       7641  
      7510       7511       7522       7521       7631       7632       7643       7642  
      7511       7512       7523       7522       7632       7633       7644       7643  
      7512       7513       7524       7523       7633       7634       7645       7644  
      7514       7515       7526       7525       7635       7636       7647       7646  
      7515       7516       7527       7526       7636       7637       7648       7647  
      7516       7517       7528       7527       7637       7638       7649       7648  
      7517       7518       7529       7528       7638       7639       7650       7649  
      7518       7519       7530       7529       7639       7640       7651       7650  
      7519       7520       7531       7530       7640       7641       7652       7651  
      7520       7521       7532       7531       7641       7642       7653       7652  
      7521       7522       7533       7532       7642       7643       7654       7653  
      7522       7523       7534       7533       7643       7644       7655       7654  
      7523       7524       7535       7534       7644       7645       7656       7655  
      7525       7526       7537       7536       7646       7647       7658       7657  
      7526       7527       7538       7537       7647       7648       7659       7658  
      7527       7528       7539       7538       7648       7649       7660       7659  
      7528       7529       7540       7539       7649       7650       7661       7660  
      7529       7530       7541       7540       7650       7651       7662       7661  
      7530       7531       7542       7541       7651       7652       7663       7662  
      7531       7532       7543       7542       7652       7653       7664       7663  
      7532       7533       7544       7543       7653       7654       7665       7664  
      7533       7534       7545       7544       7654       7655       7666       7665  
      7534       7535       7546       7545       7655       7656       7667       7666  
      7536       7537       7548       7547       7657       7658       7669       7668  
      7537       7538       7549       7548       7658       7659       7670       7669  
      7538       7539       7550       7549       7659       7660       7671       7670  
      7539       7540       7551       7550       7660       7661       7672       7671  
      7540       7541       7552       7551       7661       7662       7673       7672  
      7541       7542       7553       7552       7662       7663       7674       7673  
      7542       7543       7554       7553       7663       7664       7675       7674  
      7543       7544       7555       7554       7664       7665       7676       7675  
      7544       7545       7556       7555       7665       7666       7677       7676  
      7545       7546       7557       7556       7666       7667       7678       7677  
      7547       7548       7559       7558       7668       7669       7680       7679  
      7548       7549       7560       7559       7669       7670       7681       7680  
      7549       7550       7561       7560       7670       7671       7682       7681  
      7550       7551       7562       7561       7671       7672       7683       7682  
      7551       7552       7563       7562       7672       7673       7684       7683  
      7552       7553       7564       7563       7673       7674       7685       7684  
      7553       7554       7565       7564       7674       7675       7686       7685  
      7554       7555       7566       7565       7675       7676       7687       7686  
      7555       7556       7567       7566       7676       7677       7688       7687  
      7556       7557       7568       7567       7677       7678       7689       7688  
      7558       7559       7570       7569       7679       7680       7691       7690  
      7559       7560       7571       7570       7680       7681       7692       7691  
      7560       7561       7572       7571       7681       7682       7693       7692  
      7561       7562       7573       7572       7682       7683       7694       7693  
      7562       7563       7574       7573       7683       7684       7695       7694  
      7563       7564       7575       7574       7684       7685       7696       7695  
      7564       7565       7576       7575       7685       7686       7697       7696  
      7565       7566       7577       7576       7686       7687       7698       7697  
      7566       7567       7578       7577       7687       7688       7699       7698  
      7567       7568       7579       7578       7688       7689       7700       7699  
      7569       7570       7581       7580       7690       7691       7702       7701  
      7570       7571       7582       7581       7691       7692       7703       7702  
      7571       7572       7583       7582       7692       7693       7704       7703  
      7572       7573       7584       7583       7693       7694       7705       7704  
      7573       7574       7585       7584       7694       7695       7706       7705  
      7574       7575       7586       7585       7695       7696       7707       7706  
      7575       7576       7587       7586       7696       7697       7708       7707  
      7576       7577       7588       7587       7697       7698       7709       7708  
      7577       7578       7589       7588       7698       7699       7710       7709  
      7578       7579       7590       7589       7699       7700       7711       7710  
      7580       7581       7592       7591       7701       7702       7713       7712  
      7581       7582       7593       7592       7702       7703       7714       7713  
      7582       7583       7594       7593       7703       7704       7715       7714  
      7583       7584       7595       7594       7704       7705       7716       7715  
      7584       7585       7596       7595       7705       7706       7717       7716  
      7585       7586       7597       7596       7706       7707       7718       7717  
      7586       7587       7598       7597       7707       7708       7719       7718  
      7587       7588       7599       7598       7708       7709       7720       7719  
      7588       7589       7600       7599       7709       7710       7721       7720  
      7589       7590       7601       7600       7710       7711       7722       7721  
      7591       7592       7603       7602       7712       7713       7724       7723  
      7592       7593       7604       7603       7713       7714       7725       7724  
      7593       7594       7605       7604       7714       7715       7726       7725  
      7594       7595       7606       7605       7715       7716       7727       7726  
      7595       7596       7607       7606       7716       7717       7728       7727  
      7596       7597       7608       7607       7717       7718       7729       7728  
      7597       7598       7609       7608       7718       7719       7730       7729  
      7598       7599       7610       7609       7719       7720       7731       7730  
      7599       7600       7611       7610       7720       7721       7732       7731  
      7600       7601       7612       7611       7721       7722       7733       7732  
      7602       7603       7614       7613       7723       7724       7735       7734  
      7603       7604       7615       7614       7724       7725       7736       7735  
      7604       7605       7616       7615       7725       7726       7737       7736  
      7605       7606       7617       7616       7726       7727       7738       7737  
      7606       7607       7618       7617       7727       7728       7739       7738  
      7607       7608       7619       7618       7728       7729       7740       7739  
      7608       7609       7620       7619       7729       7730       7741       7740  
      7609       7610       7621       7620       7730       7731       7742       7741  
      7610       7611       7622       7621       7731       7732       7743       7742  
      7611       7612       7623       7622       7732       7733       7744       7743  
      7624       7625       7636       7635       7745       7746       7757       7756  
      7625       7626       7637       7636       7746       7747       7758       7757  
      7626       7627       7638       7637       7747       7748       7759       7758  
      7627       7628       7639       7638       7748       7749       7760       7759  
      7628       7629       7640       7639       7749       7750       7761       7760  
      7629       7630       7641       7640       7750       7751       7762       7761  
      7630       7631       7642       7641       7751       7752       7763       7762  
      7631       7632       7643       7642       7752       7753       7764       7763  
      7632       7633       7644       7643       7753       7754       7765       7764  
      7633       7634       7645       7644       7754       7755       7766       7765  
      7635       7636       7647       7646       7756       7757       7768       7767  
      7636       7637       7648       7647       7757       7758       7769       7768  
      7637       7638       7649       7648       7758       7759       7770       7769  
      7638       7639       7650       7649       7759       7760       7771       7770  
      7639       7640       7651       7650       7760       7761       7772       7771  
      7640       7641       7652       7651       7761       7762       7773       7772  
      7641       7642       7653       7652       7762       7763       7774       7773  
      7642       7643       7654       7653       7763       7764       7775       7774  
      7643       7644       7655       7654       7764       7765       7776       7775  
      7644       7645       7656       7655       7765       7766       7777       7776  
      7646       7647       7658       7657       7767       7768       7779       7778  
      7647       7648       7659       7658       7768       7769       7780       7779  
      7648       7649       7660       7659       7769       7770       7781       7780  
      7649       7650       7661       7660       7770       7771       7782       7781  
      7650       7651       7662       7661       7771       7772       7783       7782  
      7651       7652       7663       7662       7772       7773       7784       7783  
      7652       7653       7664       7663       7773       7774       7785       7784  
      7653       7654       7665       7664       7774       7775       7786       7785  
      7654       7655       7666       7665       7775       7776       7787       7786  
      7655       7656       7667       7666       7776       7777       7788       7787  
      7657       7658       7669       7668       7778       7779       7790       7789  
      7658       7659       7670       7669       7779       7780       7791       7790  
      7659       7660       7671       7670       7780       7781       7792       7791  
      7660       7661       7672       7671       7781       7782       7793       7792  
      7661       7662       7673       7672       7782       7783       7794       7793  
      7662       7663       7674       7673       7783       7784       7795       7794  
      7663       7664       7675       7674       7784       7785       7796       7795  
      7664       7665       7676       7675       7785       7786       7797       7796  
      7665       7666       7677       7676       7786       7787       7798       7797  
      7666       7667       7678       7677       7787       7788       7799       7798  
      7668       7669       7680       7679       7789       7790       7801       7800  
      7669       7670       7681       7680       7790       7791       7802       7801  
      7670       7671       7682       7681       7791       7792       7803       7802  
      7671       7672       7683       7682       7792       7793       7804       7803  
      7672       7673       7684       7683       7793       7794       7805       7804  
      7673       7674       7685       7684       7794       7795       7806       7805  
      7674       7675       7686       7685       7795       7796       7807       7806  
      7675       7676       7687       7686       7796       7797       7808       7807  
      7676       7677       7688       7687       7797       7798       7809       7808  
      7677       7678       7689       7688       7798       7799       7810       7809  
      7679       7680       7691       7690       7800       7801       7812       7811  
      7680       7681       7692       7691       7801       7802       7813       7812  
      7681       7682       7693       7692       7802       7803       7814       7813  
      7682       7683       7694       7693       7803       7804       7815       7814  
      7683       7684       7695       7694       7804       7805       7816       7815  
      7684       7685       7696       7695       7805       7806       7817       7816  
      7685       7686       7697       7696       7806       7807       7818       7817  
      7686       7687       7698       7697       7807       7808       7819       7818  
      7687       7688       7699       7698       7808       7809       7820       7819  
      7688       7689       7700       7699       7809       7810       7821       7820  
      7690       7691       7702       7701       7811       7812       7823       7822  
      7691       7692       7703       7702       7812       7813       7824       7823  
      7692       7693       7704       7703       7813       7814       7825       7824  
      7693       7694       7705       7704       7814       7815       7826       7825  
      7694       7695       7706       7705       7815       7816       7827       7826  
      7695       7696       7707       7706       7816       7817       7828       7827  
      7696       7697       7708       7707       7817       7818       7829       7828  
      7697       7698       7709       7708       7818       7819       7830       7829  
      7698       7699       7710       7709       7819       7820       7831       7830  
      7699       7700       7711       7710       7820       7821       7832       7831  
      7701       7702       7713       7712       7822       7823       7834       7833  
      7702       7703       7714       7713       7823       7824       7835       7834  
      7703       7704       7715       7714       7824       7825       7836       7835  
      7704       7705       7716       7715       7825       7826       7837       7836  
      7705       7706       7717       7716       7826       7827       7838       7837  
      7706       7707       7718       7717       7827       7828       7839       7838  
      7707       7708       7719       7718       7828       7829       7840       7839  
      7708       7709       7720       7719       7829       7830       7841       7840  
      7709       7710       7721       7720       7830       7831       7842       7841  
      7710       7711       7722       7721       7831       7832       7843       7842  
      7712       7713       7724       7723       7833       7834       7845       7844  
      7713       7714       7725       7724       7834       7835       7846       7845  
      7714       7715       7726       7725       7835       7836       7847       7846  
      7715       7716       7727       7726       7836       7837       7848       7847  
      7716       7717       7728       7727       7837       7838       7849       7848  
      7717       7718       7729       7728       7838       7839       7850       7849  
      7718       7719       7730       7729       7839       7840       7851       7850  
      7719       7720       7731       7730       7840       7841       7852       7851  
      7720       7721       7732       7731       7841       7842       7853       7852  
      7721       7722       7733       7732       7842       7843       7854       7853  
      7723       7724       7735       7734       7844       7845       7856       7855  
      7724       7725       7736       7735       7845       7846       7857       7856  
      7725       7726       7737       7736       7846       7847       7858       7857  
      7726       7727       7738       7737       7847       7848       7859       7858  
      7727       7728       7739       7738       7848       7849       7860       7859  
      7728       7729       7740       7739       7849       7850       7861       7860  
      7729       7730       7741       7740       7850       7851       7862       7861  
      7730       7731       7742       7741       7851       7852       7863       7862  
      7731       7732       7743       7742       7852       7853       7864       7863  
      7732       7733       7744       7743       7853       7854       7865       7864  
      7745       7746       7757       7756       7866       7867       7878       7877  
      7746       7747       7758       7757       7867       7868       7879       7878  
      7747       7748       7759       7758       7868       7869       7880       7879  
      7748       7749       7760       7759       7869       7870       7881       7880  
      7749       7750       7761       7760       7870       7871       7882       7881  
      7750       7751       7762       7761       7871       7872       7883       7882  
      7751       7752       7763       7762       7872       7873       7884       7883  
      7752       7753       7764       7763       7873       7874       7885       7884  
      7753       7754       7765       7764       7874       7875       7886       7885  
      7754       7755       7766       7765       7875       7876       7887       7886  
      7756       7757       7768       7767       7877       7878       7889       7888  
      7757       7758       7769       7768       7878       7879       7890       7889  
      7758       7759       7770       7769       7879       7880       7891       7890  
      7759       7760       7771       7770       7880       7881       7892       7891  
      7760       7761       7772       7771       7881       7882       7893       7892  
      7761       7762       7773       7772       7882       7883       7894       7893  
      7762       7763       7774       7773       7883       7884       7895       7894  
      7763       7764       7775       7774       7884       7885       7896       7895  
      7764       7765       7776       7775       7885       7886       7897       7896  
      7765       7766       7777       7776       7886       7887       7898       7897  
      7767       7768       7779       7778       7888       7889       7900       7899  
      7768       7769       7780       7779       7889       7890       7901       7900  
      7769       7770       7781       7780       7890       7891       7902       7901  
      7770       7771       7782       7781       7891       7892       7903       7902  
      7771       7772       7783       7782       7892       7893       7904       7903  
      7772       7773       7784       7783       7893       7894       7905       7904  
      7773       7774       7785       7784       7894       7895       7906       7905  
      7774       7775       7786       7785       7895       7896       7907       7906  
      7775       7776       7787       7786       7896       7897       7908       7907  
      7776       7777       7788       7787       7897       7898       7909       7908  
      7778       7779       7790       7789       7899       7900       7911       7910  
      7779       7780       7791       7790       7900       7901       7912       7911  
      7780       7781       7792       7791       7901       7902       7913       7912  
      7781       7782       7793       7792       7902       7903       7914       7913  
      7782       7783       7794       7793       7903       7904       7915       7914  
      7783       7784       7795       7794       7904       7905       7916       7915  
      7784       7785       7796       7795       7905       7906       7917       7916  
      7785       7786       7797       7796       7906       7907       7918       7917  
      7786       7787       7798       7797       7907       7908       7919       7918  
      7787       7788       7799       7798       7908       7909       7920       7919  
      7789       7790       7801       7800       7910       7911       7922       7921  
      7790       7791       7802       7801       7911       7912       7923       7922  
      7791       7792       7803       7802       7912       7913       7924       7923  
      7792       7793       7804       7803       7913       7914       7925       7924  
      7793       7794       7805       7804       7914       7915       7926       7925  
      7794       7795       7806       7805       7915       7916       7927       7926  
      7795       7796       7807       7806       7916       7917       7928       7927  
      7796       7797       7808       7807       7917       7918       7929       7928  
      7797       7798       7809       7808       7918       7919       7930       7929  
      7798       7799       7810       7809       7919       7920       7931       7930  
      7800       7801       7812       7811       7921       7922       7933       7932  
      7801       7802       7813       7812       7922       7923       7934       7933  
      7802       7803       7814       7813       7923       7924       7935       7934  
      7803       7804       7815       7814       7924       7925       7936       7935  
      7804       7805       7816       7815       7925       7926       7937       7936  
      7805       7806       7817       7816       7926       7927       7938       7937  
      7806       7807       7818       7817       7927       7928       7939       7938  
      7807       7808       7819       7818       7928       7929       7940       7939  
      7808       7809       7820       7819       7929       7930       7941       7940  
      7809       7810       7821       7820       7930       7931       7942       7941  
      7811       7812       7823       7822       7932       7933       7944       7943  
      7812       7813       7824       7823       7933       7934       7945       7944  
      7813       7814       7825       7824       7934       7935       7946       7945  
      7814       7815       7826       7825       7935       7936       7947       7946  
      7815       7816       7827       7826       7936       7937       7948       7947  
      7816       7817       7828       7827       7937       7938       7949       7948  
      7817       7818       7829       7828       7938       7939       7950       7949  
      7818       7819       7830       7829       7939       7940       7951       7950  
      7819       7820       7831       7830       7940       7941       7952       7951  
      7820       7821       7832       7831       7941       7942       7953       7952  
      7822       7823       7834       7833       7943       7944       7955       7954  
      7823       7824       7835       7834       7944       7945       7956       7955  
      7824       7825       7836       7835       7945       7946       7957       7956  
      7825       7826       7837       7836       7946       7947       7958       7957  
      7826       7827       7838       7837       7947       7948       7959       7958  
      7827       7828       7839       7838       7948       7949       7960       7959  
      7828       7829       7840       7839       7949       7950       7961       7960  
      7829       7830       7841       7840       7950       7951       7962       7961  
      7830       7831       7842       7841       7951       7952       7963       7962  
      7831       7832       7843       7842       7952       7953       7964       7963  
      7833       7834       7845       7844       7954       7955       7966       7965  
      7834       7835       7846       7845       7955       7956       7967       7966  
      7835       7836       7847       7846       7956       7957       7968       7967  
      7836       7837       7848       7847       7957       7958       7969       7968  
      7837       7838       7849       7848       7958       7959       7970       7969  
      7838       7839       7850       7849       7959       7960       7971       7970  
      7839       7840       7851       7850       7960       7961       7972       7971  
      7840       7841       7852       7851       7961       7962       7973       7972  
      7841       7842       7853       7852       7962       7963       7974       7973  
      7842       7843       7854       7853       7963       7964       7975       7974  
      7844       7845       7856       7855       7965       7966       7977       7976  
      7845       7846       7857       7856       7966       7967       7978       7977  
      7846       7847       7858       7857       7967       7968       7979       7978  
      7847       7848       7859       7858       7968       7969       7980       7979  
      7848       7849       7860       7859       7969       7970       7981       7980  
      7849       7850       7861       7860       7970       7971       7982       7981  
      7850       7851       7862       7861       7971       7972       7983       7982  
      7851       7852       7863       7862       7972       7973       7984       7983  
      7852       7853       7864       7863       7973       7974       7985       7984  
      7853       7854       7865       7864       7974       7975       7986       7985  
      7866       7867       7878       7877       7987       7988       7999       7998  
      7867       7868       7879       7878       7988       7989       8000       7999  
      7868       7869       7880       7879       7989       7990       8001       8000  
      7869       7870       7881       7880       7990       7991       8002       8001  
      7870       7871       7882       7881       7991       7992       8003       8002  
      7871       7872       7883       7882       7992       7993       8004       8003  
      7872       7873       7884       7883       7993       7994       8005       8004  
      7873       7874       7885       7884       7994       7995       8006       8005  
      7874       7875       7886       7885       7995       7996       8007       8006  
      7875       7876       7887       7886       7996       7997       8008       8007  
      7877       7878       7889       7888       7998       7999       8010       8009  
      7878       7879       7890       7889       7999       8000       8011       8010  
      7879       7880       7891       7890       8000       8001       8012       8011  
      7880       7881       7892       7891       8001       8002       8013       8012  
      7881       7882       7893       7892       8002       8003       8014       8013  
      7882       7883       7894       7893       8003       8004       8015       8014  
      7883       7884       7895       7894       8004       8005       8016       8015  
      7884       7885       7896       7895       8005       8006       8017       8016  
      7885       7886       7897       7896       8006       8007       8018       8017  
      7886       7887       7898       7897       8007       8008       8019       8018  
      7888       7889       7900       7899       8009       8010       8021       8020  
      7889       7890       7901       7900       8010       8011       8022       8021  
      7890       7891       7902       7901       8011       8012       8023       8022  
      7891       7892       7903       7902       8012       8013       8024       8023  
      7892       7893       7904       7903       8013       8014       8025       8024  
      7893       7894       7905       7904       8014       8015       8026       8025  
      7894       7895       7906       7905       8015       8016       8027       8026  
      7895       7896       7907       7906       8016       8017       8028       8027  
      7896       7897       7908       7907       8017       8018       8029       8028  
      7897       7898       7909       7908       8018       8019       8030       8029  
      7899       7900       7911       7910       8020       8021       8032       8031  
      7900       7901       7912       7911       8021       8022       8033       8032  
      7901       7902       7913       7912       8022       8023       8034       8033  
      7902       7903       7914       7913       8023       8024       8035       8034  
      7903       7904       7915       7914       8024       8025       8036       8035  
      7904       7905       7916       7915       8025       8026       8037       8036  
      7905       7906       7917       7916       8026       8027       8038       8037  
      7906       7907       7918       7917       8027       8028       8039       8038  
      7907       7908       7919       7918       8028       8029       8040       8039  
      7908       7909       7920       7919       8029       8030       8041       8040  
      7910       7911       7922       7921       8031       8032       8043       8042  
      7911       7912       7923       7922       8032       8033       8044       8043  
      7912       7913       7924       7923       8033       8034       8045       8044  
      7913       7914       7925       7924       8034       8035       8046       8045  
      7914       7915       7926       7925       8035       8036       8047       8046  
      7915       7916       7927       7926       8036       8037       8048       8047  
      7916       7917       7928       7927       8037       8038       8049       8048  
      7917       7918       7929       7928       8038       8039       8050       8049  
      7918       7919       7930       7929       8039       8040       8051       8050  
      7919       7920       7931       7930       8040       8041       8052       8051  
      7921       7922       7933       7932       8042       8043       8054       8053  
      7922       7923       7934       7933       8043       8044       8055       8054  
      7923       7924       7935       7934       8044       8045       8056       8055  
      7924       7925       7936       7935       8045       8046       8057       8056  
      7925       7926       7937       7936       8046       8047       8058       8057  
      7926       7927       7938       7937       8047       8048       8059       8058  
      7927       7928       7939       7938       8048       8049       8060       8059  
      7928       7929       7940       7939       8049       8050       8061       8060  
      7929       7930       7941       7940       8050       8051       8062       8061  
      7930       7931       7942       7941       8051       8052       8063       8062  
      7932       7933       7944       7943       8053       8054       8065       8064  
      7933       7934       7945       7944       8054       8055       8066       8065  
      7934       7935       7946       7945       8055       8056       8067       8066  
      7935       7936       7947       7946       8056       8057       8068       8067  
      7936       7937       7948       7947       8057       8058       8069       8068  
      7937       7938       7949       7948       8058       8059       8070       8069  
      7938       7939       7950       7949       8059       8060       8071       8070  
      7939       7940       7951       7950       8060       8061       8072       8071  
      7940       7941       7952       7951       8061       8062       8073       8072  
      7941       7942       7953       7952       8062       8063       8074       8073  
      7943       7944       7955       7954       8064       8065       8076       8075  
      7944       7945       7956       7955       8065       8066       8077       8076  
      7945       7946       7957       7956       8066       8067       8078       8077  
      7946       7947       7958       7957       8067       8068       8079       8078  
      7947       7948       7959       7958       8068       8069       8080       8079  
      7948       7949       7960       7959       8069       8070       8081       8080  
      7949       7950       7961       7960       8070       8071       8082       8081  
      7950       7951       7962       7961       8071       8072       8083       8082  
      7951       7952       7963       7962       8072       8073       8084       8083  
      7952       7953       7964       7963       8073       8074       8085       8084  
      7954       7955       7966       7965       8075       8076       8087       8086  
      7955       7956       7967       7966       8076       8077       8088       8087  
      7956       7957       7968       7967       8077       8078       8089       8088  
      7957       7958       7969       7968       8078       8079       8090       8089  
      7958       7959       7970       7969       8079       8080       8091       8090  
      7959       7960       7971       7970       8080       8081       8092       8091  
      7960       7961       7972       7971       8081       8082       8093       8092  
      7961       7962       7973       7972       8082       8083       8094       8093  
      7962       7963       7974       7973       8083       8084       8095       8094  
      7963       7964       7975       7974       8084       8085       8096       8095  
      7965       7966       7977       7976       8086       8087       8098       8097  
      7966       7967       7978       7977       8087       8088       8099       8098  
      7967       7968       7979       7978       8088       8089       8100       8099  
      7968       7969       7980       7979       8089       8090       8101       8100  
      7969       7970       7981       7980       8090       8091       8102       8101  
      7970       7971       7982       7981       8091       8092       8103       8102  
      7971       7972       7983       7982       8092       8093       8104       8103  
      7972       7973       7984       7983       8093       8094       8105       8104  
      7973       7974       7985       7984       8094       8095       8106       8105  
      7974       7975       7986       7985       8095       8096       8107       8106  
      7987       7988       7999       7998       8108       8109       8120       8119  
      7988       7989       8000       7999       8109       8110       8121       8120  
      7989       7990       8001       8000       8110       8111       8122       8121  
      7990       7991       8002       8001       8111       8112       8123       8122  
      7991       7992       8003       8002       8112       8113       8124       8123  
      7992       7993       8004       8003       8113       8114       8125       8124  
      7993       7994       8005       8004       8114       8115       8126       8125  
      7994       7995       8006       8005       8115       8116       8127       8126  
      7995       7996       8007       8006       8116       8117       8128       8127  
      7996       7997       8008       8007       8117       8118       8129       8128  
      7998       7999       8010       8009       8119       8120       8131       8130  
      7999       8000       8011       8010       8120       8121       8132       8131  
      8000       8001       8012       8011       8121       8122       8133       8132  
      8001       8002       8013       8012       8122       8123       8134       8133  
      8002       8003       8014       8013       8123       8124       8135       8134  
      8003       8004       8015       8014       8124       8125       8136       8135  
      8004       8005       8016       8015       8125       8126       8137       8136  
      8005       8006       8017       8016       8126       8127       8138       8137  
      8006       8007       8018       8017       8127       8128       8139       8138  
      8007       8008       8019       8018       8128       8129       8140       8139  
      8009       8010       8021       8020       8130       8131       8142       8141  
      8010       8011       8022       8021       8131       8132       8143       8142  
      8011       8012       8023       8022       8132       8133       8144       8143  
      8012       8013       8024       8023       8133       8134       8145       8144  
      8013       8014       8025       8024       8134       8135       8146       8145  
      8014       8015       8026       8025       8135       8136       8147       8146  
      8015       8016       8027       8026       8136       8137       8148       8147  
      8016       8017       8028       8027       8137       8138       8149       8148  
      8017       8018       8029       8028       8138       8139       8150       8149  
      8018       8019       8030       8029       8139       8140       8151       8150  
      8020       8021       8032       8031       8141       8142       8153       8152  
      8021       8022       8033       8032       8142       8143       8154       8153  
      8022       8023       8034       8033       8143       8144       8155       8154  
      8023       8024       8035       8034       8144       8145       8156       8155  
      8024       8025       8036       8035       8145       8146       8157       8156  
      8025       8026       8037       8036       8146       8147       8158       8157  
      8026       8027       8038       8037       8147       8148       8159       8158  
      8027       8028       8039       8038       8148       8149       8160       8159  
      8028       8029       8040       8039       8149       8150       8161       8160  
      8029       8030       8041       8040       8150       8151       8162       8161  
      8031       8032       8043       8042       8152       8153       8164       8163  
      8032       8033       8044       8043       8153       8154       8165       8164  
      8033       8034       8045       8044       8154       8155       8166       8165  
      8034       8035       8046       8045       8155       8156       8167       8166  
      8035       8036       8047       8046       8156       8157       8168       8167  
      8036       8037       8048       8047       8157       8158       8169       8168  
      8037       8038       8049       8048       8158       8159       8170       8169  
      8038       8039       8050       8049       8159       8160       8171       8170  
      8039       8040       8051       8050       8160       8161       8172       8171  
      8040       8041       8052       8051       8161       8162       8173       8172  
      8042       8043       8054       8053       8163       8164       8175       8174  
      8043       8044       8055       8054       8164       8165       8176       8175  
      8044       8045       8056       8055       8165       8166       8177       8176  
      8045       8046       8057       8056       8166       8167       8178       8177  
      8046       8047       8058       8057       8167       8168       8179       8178  
      8047       8048       8059       8058       8168       8169       8180       8179  
      8048       8049       8060       8059       8169       8170       8181       8180  
      8049       8050       8061       8060       8170       8171       8182       8181  
      8050       8051       8062       8061       8171       8172       8183       8182  
      8051       8052       8063       8062       8172       8173       8184       8183  
      8053       8054       8065       8064       8174       8175       8186       8185  
      8054       8055       8066       8065       8175       8176       8187       8186  
      8055       8056       8067       8066       8176       8177       8188       8187  
      8056       8057       8068       8067       8177       8178       8189       8188  
      8057       8058       8069       8068       8178       8179       8190       8189  
      8058       8059       8070       8069       8179       8180       8191       8190  
      8059       8060       8071       8070       8180       8181       8192       8191  
      8060       8061       8072       8071       8181       8182       8193       8192  
      8061       8062       8073       8072       8182       8183       8194       8193  
      8062       8063       8074       8073       8183       8184       8195       8194  
      8064       8065       8076       8075       8185       8186       8197       8196  
      8065       8066       8077       8076       8186       8187       8198       8197  
      8066       8067       8078       8077       8187       8188       8199       8198  
      8067       8068       8079       8078       8188       8189       8200       8199  
      8068       8069       8080       8079       8189       8190       8201       8200  
      8069       8070       8081       8080       8190       8191       8202       8201  
      8070       8071       8082       8081       8191       8192       8203       8202  
      8071       8072       8083       8082       8192       8193       8204       8203  
      8072       8073       8084       8083       8193       8194       8205       8204  
      8073       8074       8085       8084       8194       8195       8206       8205  
      8075       8076       8087       8086       8196       8197       8208       8207  
      8076       8077       8088       8087       8197       8198       8209       8208  
      8077       8078       8089       8088       8198       8199       8210       8209  
      8078       8079       8090       8089       8199       8200       8211       8210  
      8079       8080       8091       8090       8200       8201       8212       8211  
      8080       8081       8092       8091       8201       8202       8213       8212  
      8081       8082       8093       8092       8202       8203       8214       8213  
      8082       8083       8094       8093       8203       8204       8215       8214  
      8083       8084       8095       8094       8204       8205       8216       8215  
      8084       8085       8096       8095       8205       8206       8217       8216  
      8086       8087       8098       8097       8207       8208       8219       8218  
      8087       8088       8099       8098       8208       8209       8220       8219  
      8088       8089       8100       8099       8209       8210       8221       8220  
      8089       8090       8101       8100       8210       8211       8222       8221  
      8090       8091       8102       8101       8211       8212       8223       8222  
      8091       8092       8103       8102       8212       8213       8224       8223  
      8092       8093       8104       8103       8213       8214       8225       8224  
      8093       8094       8105       8104       8214       8215       8226       8225  
      8094       8095       8106       8105       8215       8216       8227       8226  
      8095       8096       8107       8106       8216       8217       8228       8227  
      8108       8109       8120       8119       8229       8230       8241       8240  
      8109       8110       8121       8120       8230       8231       8242       8241  
      8110       8111       8122       8121       8231       8232       8243       8242  
      8111       8112       8123       8122       8232       8233       8244       8243  
      8112       8113       8124       8123       8233       8234       8245       8244  
      8113       8114       8125       8124       8234       8235       8246       8245  
      8114       8115       8126       8125       8235       8236       8247       8246  
      8115       8116       8127       8126       8236       8237       8248       8247  
      8116       8117       8128       8127       8237       8238       8249       8248  
      8117       8118       8129       8128       8238       8239       8250       8249  
      8119       8120       8131       8130       8240       8241       8252       8251  
      8120       8121       8132       8131       8241       8242       8253       8252  
      8121       8122       8133       8132       8242       8243       8254       8253  
      8122       8123       8134       8133       8243       8244       8255       8254  
      8123       8124       8135       8134       8244       8245       8256       8255  
      8124       8125       8136       8135       8245       8246       8257       8256  
      8125       8126       8137       8136       8246       8247       8258       8257  
      8126       8127       8138       8137       8247       8248       8259       8258  
      8127       8128       8139       8138       8248       8249       8260       8259  
      8128       8129       8140       8139       8249       8250       8261       8260  
      8130       8131       8142       8141       8251       8252       8263       8262  
      8131       8132       8143       8142       8252       8253       8264       8263  
      8132       8133       8144       8143       8253       8254       8265       8264  
      8133       8134       8145       8144       8254       8255       8266       8265  
      8134       8135       8146       8145       8255       8256       8267       8266  
      8135       8136       8147       8146       8256       8257       8268       8267  
      8136       8137       8148       8147       8257       8258       8269       8268  
      8137       8138       8149       8148       8258       8259       8270       8269  
      8138       8139       8150       8149       8259       8260       8271       8270  
      8139       8140       8151       8150       8260       8261       8272       8271  
      8141       8142       8153       8152       8262       8263       8274       8273  
      8142       8143       8154       8153       8263       8264       8275       8274  
      8143       8144       8155       8154       8264       8265       8276       8275  
      8144       8145       8156       8155       8265       8266       8277       8276  
      8145       8146       8157       8156       8266       8267       8278       8277  
      8146       8147       8158       8157       8267       8268       8279       8278  
      8147       8148       8159       8158       8268       8269       8280       8279  
      8148       8149       8160       8159       8269       8270       8281       8280  
      8149       8150       8161       8160       8270       8271       8282       8281  
      8150       8151       8162       8161       8271       8272       8283       8282  
      8152       8153       8164       8163       8273       8274       8285       8284  
      8153       8154       8165       8164       8274       8275       8286       8285  
      8154       8155       8166       8165       8275       8276       8287       8286  
      8155       8156       8167       8166       8276       8277       8288       8287  
      8156       8157       8168       8167       8277       8278       8289       8288  
      8157       8158       8169       8168       8278       8279       8290       8289  
      8158       8159       8170       8169       8279       8280       8291       8290  
      8159       8160       8171       8170       8280       8281       8292       8291  
      8160       8161       8172       8171       8281       8282       8293       8292  
      8161       8162       8173       8172       8282       8283       8294       8293  
      8163       8164       8175       8174       8284       8285       8296       8295  
      8164       8165       8176       8175       8285       8286       8297       8296  
      8165       8166       8177       8176       8286       8287       8298       8297  
      8166       8167       8178       8177       8287       8288       8299       8298  
      8167       8168       8179       8178       8288       8289       8300       8299  
      8168       8169       8180       8179       8289       8290       8301       8300  
      8169       8170       8181       8180       8290       8291       8302       8301  
      8170       8171       8182       8181       8291       8292       8303       8302  
      8171       8172       8183       8182       8292       8293       8304       8303  
      8172       8173       8184       8183       8293       8294       8305       8304  
      8174       8175       8186       8185       8295       8296       8307       8306  
      8175       8176       8187       8186       8296       8297       8308       8307  
      8176       8177       8188       8187       8297       8298       8309       8308  
      8177       8178       8189       8188       8298       8299       8310       8309  
      8178       8179       8190       8189       8299       8300       8311       8310  
      8179       8180       8191       8190       8300       8301       8312       8311  
      8180       8181       8192       8191       8301       8302       8313       8312  
      8181       8182       8193       8192       8302       8303       8314       8313  
      8182       8183       8194       8193       8303       8304       8315       8314  
      8183       8184       8195       8194       8304       8305       8316       8315  
      8185       8186       8197       8196       8306       8307       8318       8317  
      8186       8187       8198       8197       8307       8308       8319       8318  
      8187       8188       8199       8198       8308       8309       8320       8319  
      8188       8189       8200       8199       8309       8310       8321       8320  
      8189       8190       8201       8200       8310       8311       8322       8321  
      8190       8191       8202       8201       8311       8312       8323       8322  
      8191       8192       8203       8202       8312       8313       8324       8323  
      8192       8193       8204       8203       8313       8314       8325       8324  
      8193       8194       8205       8204       8314       8315       8326       8325  
      8194       8195       8206       8205       8315       8316       8327       8326  
      8196       8197       8208       8207       8317       8318       8329       8328  
      8197       8198       8209       8208       8318       8319       8330       8329  
      8198       8199       8210       8209       8319       8320       8331       8330  
      8199       8200       8211       8210       8320       8321       8332       8331  
      8200       8201       8212       8211       8321       8322       8333       8332  
      8201       8202       8213       8212       8322       8323       8334       8333  
      8202       8203       8214       8213       8323       8324       8335       8334  
      8203       8204       8215       8214       8324       8325       8336       8335  
      8204       8205       8216       8215       8325       8326       8337       8336  
      8205       8206       8217       8216       8326       8327       8338       8337  
      8207       8208       8219       8218       8328       8329       8340       8339  
      8208       8209       8220       8219       8329       8330       8341       8340  
      8209       8210       8221       8220       8330       8331       8342       8341  
      8210       8211       8222       8221       8331       8332       8343       8342  
      8211       8212       8223       8222       8332       8333       8344       8343  
      8212       8213       8224       8223       8333       8334       8345       8344  
      8213       8214       8225       8224       8334       8335       8346       8345  
      8214       8215       8226       8225       8335       8336       8347       8346  
      8215       8216       8227       8226       8336       8337       8348       8347  
      8216       8217       8228       8227       8337       8338       8349       8348  
      8229       8230       8241       8240       8350       8351       8362       8361  
      8230       8231       8242       8241       8351       8352       8363       8362  
      8231       8232       8243       8242       8352       8353       8364       8363  
      8232       8233       8244       8243       8353       8354       8365       8364  
      8233       8234       8245       8244       8354       8355       8366       8365  
      8234       8235       8246       8245       8355       8356       8367       8366  
      8235       8236       8247       8246       8356       8357       8368       8367  
      8236       8237       8248       8247       8357       8358       8369       8368  
      8237       8238       8249       8248       8358       8359       8370       8369  
      8238       8239       8250       8249       8359       8360       8371       8370  
      8240       8241       8252       8251       8361       8362       8373       8372  
      8241       8242       8253       8252       8362       8363       8374       8373  
      8242       8243       8254       8253       8363       8364       8375       8374  
      8243       8244       8255       8254       8364       8365       8376       8375  
      8244       8245       8256       8255       8365       8366       8377       8376  
      8245       8246       8257       8256       8366       8367       8378       8377  
      8246       8247       8258       8257       8367       8368       8379       8378  
      8247       8248       8259       8258       8368       8369       8380       8379  
      8248       8249       8260       8259       8369       8370       8381       8380  
      8249       8250       8261       8260       8370       8371       8382       8381  
      8251       8252       8263       8262       8372       8373       8384       8383  
      8252       8253       8264       8263       8373       8374       8385       8384  
      8253       8254       8265       8264       8374       8375       8386       8385  
      8254       8255       8266       8265       8375       8376       8387       8386  
      8255       8256       8267       8266       8376       8377       8388       8387  
      8256       8257       8268       8267       8377       8378       8389       8388  
      8257       8258       8269       8268       8378       8379       8390       8389  
      8258       8259       8270       8269       8379       8380       8391       8390  
      8259       8260       8271       8270       8380       8381       8392       8391  
      8260       8261       8272       8271       8381       8382       8393       8392  
      8262       8263       8274       8273       8383       8384       8395       8394  
      8263       8264       8275       8274       8384       8385       8396       8395  
      8264       8265       8276       8275       8385       8386       8397       8396  
      8265       8266       8277       8276       8386       8387       8398       8397  
      8266       8267       8278       8277       8387       8388       8399       8398  
      8267       8268       8279       8278       8388       8389       8400       8399  
      8268       8269       8280       8279       8389       8390       8401       8400  
      8269       8270       8281       8280       8390       8391       8402       8401  
      8270       8271       8282       8281       8391       8392       8403       8402  
      8271       8272       8283       8282       8392       8393       8404       8403  
      8273       8274       8285       8284       8394       8395       8406       8405  
      8274       8275       8286       8285       8395       8396       8407       8406  
      8275       8276       8287       8286       8396       8397       8408       8407  
      8276       8277       8288       8287       8397       8398       8409       8408  
      8277       8278       8289       8288       8398       8399       8410       8409  
      8278       8279       8290       8289       8399       8400       8411       8410  
      8279       8280       8291       8290       8400       8401       8412       8411  
      8280       8281       8292       8291       8401       8402       8413       8412  
      8281       8282       8293       8292       8402       8403       8414       8413  
      8282       8283       8294       8293       8403       8404       8415       8414  
      8284       8285       8296       8295       8405       8406       8417       8416  
      8285       8286       8297       8296       8406       8407       8418       8417  
      8286       8287       8298       8297       8407       8408       8419       8418  
      8287       8288       8299       8298       8408       8409       8420       8419  
      8288       8289       8300       8299       8409       8410       8421       8420  
      8289       8290       8301       8300       8410       8411       8422       8421  
      8290       8291       8302       8301       8411       8412       8423       8422  
      8291       8292       8303       8302       8412       8413       8424       8423  
      8292       8293       8304       8303       8413       8414       8425       8424  
      8293       8294       8305       8304       8414       8415       8426       8425  
      8295       8296       8307       8306       8416       8417       8428       8427  
      8296       8297       8308       8307       8417       8418       8429       8428  
      8297       8298       8309       8308       8418       8419       8430       8429  
      8298       8299       8310       8309       8419       8420       8431       8430  
      8299       8300       8311       8310       8420       8421       8432       8431  
      8300       8301       8312       8311       8421       8422       8433       8432  
      8301       8302       8313       8312       8422       8423       8434       8433  
      8302       8303       8314       8313       8423       8424       8435       8434  
      8303       8304       8315       8314       8424       8425       8436       8435  
      8304       8305       8316       8315       8425       8426       8437       8436  
      8306       8307       8318       8317       8427       8428       8439       8438  
      8307       8308       8319       8318       8428       8429       8440       8439  
      8308       8309       8320       8319       8429       8430       8441       8440  
      8309       8310       8321       8320       8430       8431       8442       8441  
      8310       8311       8322       8321       8431       8432       8443       8442  
      8311       8312       8323       8322       8432       8433       8444       8443  
      8312       8313       8324       8323       8433       8434       8445       8444  
      8313       8314       8325       8324       8434       8435       8446       8445  
      8314       8315       8326       8325       8435       8436       8447       8446  
      8315       8316       8327       8326       8436       8437       8448       8447  
      8317       8318       8329       8328       8438       8439       8450       8449  
      8318       8319       8330       8329       8439       8440       8451       8450  
      8319       8320       8331       8330       8440       8441       8452       8451  
      8320       8321       8332       8331       8441       8442       8453       8452  
      8321       8322       8333       8332       8442       8443       8454       8453  
      8322       8323       8334       8333       8443       8444       8455       8454  
      8323       8324       8335       8334       8444       8445       8456       8455  
      8324       8325       8336       8335       8445       8446       8457       8456  
      8325       8326       8337       8336       8446       8447       8458       8457  
      8326       8327       8338       8337       8447       8448       8459       8458  
      8328       8329       8340       8339       8449       8450       8461       8460  
      8329       8330       8341       8340       8450       8451       8462       8461  
      8330       8331       8342       8341       8451       8452       8463       8462  
      8331       8332       8343       8342       8452       8453       8464       8463  
      8332       8333       8344       8343       8453       8454       8465       8464  
      8333       8334       8345       8344       8454       8455       8466       8465  
      8334       8335       8346       8345       8455       8456       8467       8466  
      8335       8336       8347       8346       8456       8457       8468       8467  
      8336       8337       8348       8347       8457       8458       8469       8468  
      8337       8338       8349       8348       8458       8459       8470       8469  
      8350       8351       8362       8361       8471       8472       8483       8482  
      8351       8352       8363       8362       8472       8473       8484       8483  
      8352       8353       8364       8363       8473       8474       8485       8484  
      8353       8354       8365       8364       8474       8475       8486       8485  
      8354       8355       8366       8365       8475       8476       8487       8486  
      8355       8356       8367       8366       8476       8477       8488       8487  
      8356       8357       8368       8367       8477       8478       8489       8488  
      8357       8358       8369       8368       8478       8479       8490       8489  
      8358       8359       8370       8369       8479       8480       8491       8490  
      8359       8360       8371       8370       8480       8481       8492       8491  
      8361       8362       8373       8372       8482       8483       8494       8493  
      8362       8363       8374       8373       8483       8484       8495       8494  
      8363       8364       8375       8374       8484       8485       8496       8495  
      8364       8365       8376       8375       8485       8486       8497       8496  
      8365       8366       8377       8376       8486       8487       8498       8497  
      8366       8367       8378       8377       8487       8488       8499       8498  
      8367       8368       8379       8378       8488       8489       8500       8499  
      8368       8369       8380       8379       8489       8490       8501       8500  
      8369       8370       8381       8380       8490       8491       8502       8501  
      8370       8371       8382       8381       8491       8492       8503       8502  
      8372       8373       8384       8383       8493       8494       8505       8504  
      8373       8374       8385       8384       8494       8495       8506       8505  
      8374       8375       8386       8385       8495       8496       8507       8506  
      8375       8376       8387       8386       8496       8497       8508       8507  
      8376       8377       8388       8387       8497       8498       8509       8508  
      8377       8378       8389       8388       8498       8499       8510       8509  
      8378       8379       8390       8389       8499       8500       8511       8510  
      8379       8380       8391       8390       8500       8501       8512       8511  
      8380       8381       8392       8391       8501       8502       8513       8512  
      8381       8382       8393       8392       8502       8503       8514       8513  
      8383       8384       8395       8394       8504       8505       8516       8515  
      8384       8385       8396       8395       8505       8506       8517       8516  
      8385       8386       8397       8396       8506       8507       8518       8517  
      8386       8387       8398       8397       8507       8508       8519       8518  
      8387       8388       8399       8398       8508       8509       8520       8519  
      8388       8389       8400       8399       8509       8510       8521       8520  
      8389       8390       8401       8400       8510       8511       8522       8521  
      8390       8391       8402       8401       8511       8512       8523       8522  
      8391       8392       8403       8402       8512       8513       8524       8523  
      8392       8393       8404       8403       8513       8514       8525       8524  
      8394       8395       8406       8405       8515       8516       8527       8526  
      8395       8396       8407       8406       8516       8517       8528       8527  
      8396       8397       8408       8407       8517       8518       8529       8528  
      8397       8398       8409       8408       8518       8519       8530       8529  
      8398       8399       8410       8409       8519       8520       8531       8530  
      8399       8400       8411       8410       8520       8521       8532       8531  
      8400       8401       8412       8411       8521       8522       8533       8532  
      8401       8402       8413       8412       8522       8523       8534       8533  
      8402       8403       8414       8413       8523       8524       8535       8534  
      8403       8404       8415       8414       8524       8525       8536       8535  
      8405       8406       8417       8416       8526       8527       8538       8537  
      8406       8407       8418       8417       8527       8528       8539       8538  
      8407       8408       8419       8418       8528       8529       8540       8539  
      8408       8409       8420       8419       8529       8530       8541       8540  
      8409       8410       8421       8420       8530       8531       8542       8541  
      8410       8411       8422       8421       8531       8532       8543       8542  
      8411       8412       8423       8422       8532       8533       8544       8543  
      8412       8413       8424       8423       8533       8534       8545       8544  
      8413       8414       8425       8424       8534       8535       8546       8545  
      8414       8415       8426       8425       8535       8536       8547       8546  
      8416       8417       8428       8427       8537       8538       8549       8548  
      8417       8418       8429       8428       8538       8539       8550       8549  
      8418       8419       8430       8429       8539       8540       8551       8550  
      8419       8420       8431       8430       8540       8541       8552       8551  
      8420       8421       8432       8431       8541       8542       8553       8552  
      8421       8422       8433       8432       8542       8543       8554       8553  
      8422       8423       8434       8433       8543       8544       8555       8554  
      8423       8424       8435       8434       8544       8545       8556       8555  
      8424       8425       8436       8435       8545       8546       8557       8556  
      8425       8426       8437       8436       8546       8547       8558       8557  
      8427       8428       8439       8438       8548       8549       8560       8559  
      8428       8429       8440       8439       8549       8550       8561       8560  
      8429       8430       8441       8440       8550       8551       8562       8561  
      8430       8431       8442       8441       8551       8552       8563       8562  
      8431       8432       8443       8442       8552       8553       8564       8563  
      8432       8433       8444       8443       8553       8554       8565       8564  
      8433       8434       8445       8444       8554       8555       8566       8565  
      8434       8435       8446       8445       8555       8556       8567       8566  
      8435       8436       8447       8446       8556       8557       8568       8567  
      8436       8437       8448       8447       8557       8558       8569       8568  
      8438       8439       8450       8449       8559       8560       8571       8570  
      8439       8440       8451       8450       8560       8561       8572       8571  
      8440       8441       8452       8451       8561       8562       8573       8572  
      8441       8442       8453       8452       8562       8563       8574       8573  
      8442       8443       8454       8453       8563       8564       8575       8574  
      8443       8444       8455       8454       8564       8565       8576       8575  
      8444       8445       8456       8455       8565       8566       8577       8576  
      8445       8446       8457       8456       8566       8567       8578       8577  
      8446       8447       8458       8457       8567       8568       8579       8578  
      8447       8448       8459       8458       8568       8569       8580       8579  
      8449       8450       8461       8460       8570       8571       8582       8581  
      8450       8451       8462       8461       8571       8572       8583       8582  
      8451       8452       8463       8462       8572       8573       8584       8583  
      8452       8453       8464       8463       8573       8574       8585       8584  
      8453       8454       8465       8464       8574       8575       8586       8585  
      8454       8455       8466       8465       8575       8576       8587       8586  
      8455       8456       8467       8466       8576       8577       8588       8587  
      8456       8457       8468       8467       8577       8578       8589       8588  
      8457       8458       8469       8468       8578       8579       8590       8589  
      8458       8459       8470       8469       8579       8580       8591       8590  
      8471       8472       8483       8482       8592       8593       8604       8603  
      8472       8473       8484       8483       8593       8594       8605       8604  
      8473       8474       8485       8484       8594       8595       8606       8605  
      8474       8475       8486       8485       8595       8596       8607       8606  
      8475       8476       8487       8486       8596       8597       8608       8607  
      8476       8477       8488       8487       8597       8598       8609       8608  
      8477       8478       8489       8488       8598       8599       8610       8609  
      8478       8479       8490       8489       8599       8600       8611       8610  
      8479       8480       8491       8490       8600       8601       8612       8611  
      8480       8481       8492       8491       8601       8602       8613       8612  
      8482       8483       8494       8493       8603       8604       8615       8614  
      8483       8484       8495       8494       8604       8605       8616       8615  
      8484       8485       8496       8495       8605       8606       8617       8616  
      8485       8486       8497       8496       8606       8607       8618       8617  
      8486       8487       8498       8497       8607       8608       8619       8618  
      8487       8488       8499       8498       8608       8609       8620       8619  
      8488       8489       8500       8499       8609       8610       8621       8620  
      8489       8490       8501       8500       8610       8611       8622       8621  
      8490       8491       8502       8501       8611       8612       8623       8622  
      8491       8492       8503       8502       8612       8613       8624       8623  
      8493       8494       8505       8504       8614       8615       8626       8625  
      8494       8495       8506       8505       8615       8616       8627       8626  
      8495       8496       8507       8506       8616       8617       8628       8627  
      8496       8497       8508       8507       8617       8618       8629       8628  
      8497       8498       8509       8508       8618       8619       8630       8629  
      8498       8499       8510       8509       8619       8620       8631       8630  
      8499       8500       8511       8510       8620       8621       8632       8631  
      8500       8501       8512       8511       8621       8622       8633       8632  
      8501       8502       8513       8512       8622       8623       8634       8633  
      8502       8503       8514       8513       8623       8624       8635       8634  
      8504       8505       8516       8515       8625       8626       8637       8636  
      8505       8506       8517       8516       8626       8627       8638       8637  
      8506       8507       8518       8517       8627       8628       8639       8638  
      8507       8508       8519       8518       8628       8629       8640       8639  
      8508       8509       8520       8519       8629       8630       8641       8640  
      8509       8510       8521       8520       8630       8631       8642       8641  
      8510       8511       8522       8521       8631       8632       8643       8642  
      8511       8512       8523       8522       8632       8633       8644       8643  
      8512       8513       8524       8523       8633       8634       8645       8644  
      8513       8514       8525       8524       8634       8635       8646       8645  
      8515       8516       8527       8526       8636       8637       8648       8647  
      8516       8517       8528       8527       8637       8638       8649       8648  
      8517       8518       8529       8528       8638       8639       8650       8649  
      8518       8519       8530       8529       8639       8640       8651       8650  
      8519       8520       8531       8530       8640       8641       8652       8651  
      8520       8521       8532       8531       8641       8642       8653       8652  
      8521       8522       8533       8532       8642       8643       8654       8653  
      8522       8523       8534       8533       8643       8644       8655       8654  
      8523       8524       8535       8534       8644       8645       8656       8655  
      8524       8525       8536       8535       8645       8646       8657       8656  
      8526       8527       8538       8537       8647       8648       8659       8658  
      8527       8528       8539       8538       8648       8649       8660       8659  
      8528       8529       8540       8539       8649       8650       8661       8660  
      8529       8530       8541       8540       8650       8651       8662       8661  
      8530       8531       8542       8541       8651       8652       8663       8662  
      8531       8532       8543       8542       8652       8653       8664       8663  
      8532       8533       8544       8543       8653       8654       8665       8664  
      8533       8534       8545       8544       8654       8655       8666       8665  
      8534       8535       8546       8545       8655       8656       8667       8666  
      8535       8536       8547       8546       8656       8657       8668       8667  
      8537       8538       8549       8548       8658       8659       8670       8669  
      8538       8539       8550       8549       8659       8660       8671       8670  
      8539       8540       8551       8550       8660       8661       8672       8671  
      8540       8541       8552       8551       8661       8662       8673       8672  
      8541       8542       8553       8552       8662       8663       8674       8673  
      8542       8543       8554       8553       8663       8664       8675       8674  
      8543       8544       8555       8554       8664       8665       8676       8675  
      8544       8545       8556       8555       8665       8666       8677       8676  
      8545       8546       8557       8556       8666       8667       8678       8677  
      8546       8547       8558       8557       8667       8668       8679       8678  
      8548       8549       8560       8559       8669       8670       8681       8680  
      8549       8550       8561       8560       8670       8671       8682       8681  
      8550       8551       8562       8561       8671       8672       8683       8682  
      8551       8552       8563       8562       8672       8673       8684       8683  
      8552       8553       8564       8563       8673       8674       8685       8684  
      8553       8554       8565       8564       8674       8675       8686       8685  
      8554       8555       8566       8565       8675       8676       8687       8686  
      8555       8556       8567       8566       8676       8677       8688       8687  
      8556       8557       8568       8567       8677       8678       8689       8688  
      8557       8558       8569       8568       8678       8679       8690       8689  
      8559       8560       8571       8570       8680       8681       8692       8691  
      8560       8561       8572       8571       8681       8682       8693       8692  
      8561       8562       8573       8572       8682       8683       8694       8693  
      8562       8563       8574       8573       8683       8684       8695       8694  
      8563       8564       8575       8574       8684       8685       8696       8695  
      8564       8565       8576       8575       8685       8686       8697       8696  
      8565       8566       8577       8576       8686       8687       8698       8697  
      8566       8567       8578       8577       8687       8688       8699       8698  
      8567       8568       8579       8578       8688       8689       8700       8699  
      8568       8569       8580       8579       8689       8690       8701       8700  
      8570       8571       8582       8581       8691       8692       8703       8702  
      8571       8572       8583       8582       8692       8693       8704       8703  
      8572       8573       8584       8583       8693       8694       8705       8704  
      8573       8574       8585       8584       8694       8695       8706       8705  
      8574       8575       8586       8585       8695       8696       8707       8706  
      8575       8576       8587       8586       8696       8697       8708       8707  
      8576       8577       8588       8587       8697       8698       8709       8708  
      8577       8578       8589       8588       8698       8699       8710       8709  
      8578       8579       8590       8589       8699       8700       8711       8710  
      8579       8580       8591       8590       8700       8701       8712       8711  
      8592       8593       8604       8603       8713       8714       8725       8724  
      8593       8594       8605       8604       8714       8715       8726       8725  
      8594       8595       8606       8605       8715       8716       8727       8726  
      8595       8596       8607       8606       8716       8717       8728       8727  
      8596       8597       8608       8607       8717       8718       8729       8728  
      8597       8598       8609       8608       8718       8719       8730       8729  
      8598       8599       8610       8609       8719       8720       8731       8730  
      8599       8600       8611       8610       8720       8721       8732       8731  
      8600       8601       8612       8611       8721       8722       8733       8732  
      8601       8602       8613       8612       8722       8723       8734       8733  
      8603       8604       8615       8614       8724       8725       8736       8735  
      8604       8605       8616       8615       8725       8726       8737       8736  
      8605       8606       8617       8616       8726       8727       8738       8737  
      8606       8607       8618       8617       8727       8728       8739       8738  
      8607       8608       8619       8618       8728       8729       8740       8739  
      8608       8609       8620       8619       8729       8730       8741       8740  
      8609       8610       8621       8620       8730       8731       8742       8741  
      8610       8611       8622       8621       8731       8732       8743       8742  
      8611       8612       8623       8622       8732       8733       8744       8743  
      8612       8613       8624       8623       8733       8734       8745       8744  
      8614       8615       8626       8625       8735       8736       8747       8746  
      8615       8616       8627       8626       8736       8737       8748       8747  
      8616       8617       8628       8627       8737       8738       8749       8748  
      8617       8618       8629       8628       8738       8739       8750       8749  
      8618       8619       8630       8629       8739       8740       8751       8750  
      8619       8620       8631       8630       8740       8741       8752       8751  
      8620       8621       8632       8631       8741       8742       8753       8752  
      8621       8622       8633       8632       8742       8743       8754       8753  
      8622       8623       8634       8633       8743       8744       8755       8754  
      8623       8624       8635       8634       8744       8745       8756       8755  
      8625       8626       8637       8636       8746       8747       8758       8757  
      8626       8627       8638       8637       8747       8748       8759       8758  
      8627       8628       8639       8638       8748       8749       8760       8759  
      8628       8629       8640       8639       8749       8750       8761       8760  
      8629       8630       8641       8640       8750       8751       8762       8761  
      8630       8631       8642       8641       8751       8752       8763       8762  
      8631       8632       8643       8642       8752       8753       8764       8763  
      8632       8633       8644       8643       8753       8754       8765       8764  
      8633       8634       8645       8644       8754       8755       8766       8765  
      8634       8635       8646       8645       8755       8756       8767       8766  
      8636       8637       8648       8647       8757       8758       8769       8768  
      8637       8638       8649       8648       8758       8759       8770       8769  
      8638       8639       8650       8649       8759       8760       8771       8770  
      8639       8640       8651       8650       8760       8761       8772       8771  
      8640       8641       8652       8651       8761       8762       8773       8772  
      8641       8642       8653       8652       8762       8763       8774       8773  
      8642       8643       8654       8653       8763       8764       8775       8774  
      8643       8644       8655       8654       8764       8765       8776       8775  
      8644       8645       8656       8655       8765       8766       8777       8776  
      8645       8646       8657       8656       8766       8767       8778       8777  
      8647       8648       8659       8658       8768       8769       8780       8779  
      8648       8649       8660       8659       8769       8770       8781       8780  
      8649       8650       8661       8660       8770       8771       8782       8781  
      8650       8651       8662       8661       8771       8772       8783       8782  
      8651       8652       8663       8662       8772       8773       8784       8783  
      8652       8653       8664       8663       8773       8774       8785       8784  
      8653       8654       8665       8664       8774       8775       8786       8785  
      8654       8655       8666       8665       8775       8776       8787       8786  
      8655       8656       8667       8666       8776       8777       8788       8787  
      8656       8657       8668       8667       8777       8778       8789       8788  
      8658       8659       8670       8669       8779       8780       8791       8790  
      8659       8660       8671       8670       8780       8781       8792       8791  
      8660       8661       8672       8671       8781       8782       8793       8792  
      8661       8662       8673       8672       8782       8783       8794       8793  
      8662       8663       8674       8673       8783       8784       8795       8794  
      8663       8664       8675       8674       8784       8785       8796       8795  
      8664       8665       8676       8675       8785       8786       8797       8796  
      8665       8666       8677       8676       8786       8787       8798       8797  
      8666       8667       8678       8677       8787       8788       8799       8798  
      8667       8668       8679       8678       8788       8789       8800       8799  
      8669       8670       8681       8680       8790       8791       8802       8801  
      8670       8671       8682       8681       8791       8792       8803       8802  
      8671       8672       8683       8682       8792       8793       8804       8803  
      8672       8673       8684       8683       8793       8794       8805       8804  
      8673       8674       8685       8684       8794       8795       8806       8805  
      8674       8675       8686       8685       8795       8796       8807       8806  
      8675       8676       8687       8686       8796       8797       8808       8807  
      8676       8677       8688       8687       8797       8798       8809       8808  
      8677       8678       8689       8688       8798       8799       8810       8809  
      8678       8679       8690       8689       8799       8800       8811       8810  
      8680       8681       8692       8691       8801       8802       8813       8812  
      8681       8682       8693       8692       8802       8803       8814       8813  
      8682       8683       8694       8693       8803       8804       8815       8814  
      8683       8684       8695       8694       8804       8805       8816       8815  
      8684       8685       8696       8695       8805       8806       8817       8816  
      8685       8686       8697       8696       8806       8807       8818       8817  
      8686       8687       8698       8697       8807       8808       8819       8818  
      8687       8688       8699       8698       8808       8809       8820       8819  
      8688       8689       8700       8699       8809       8810       8821       8820  
      8689       8690       8701       8700       8810       8811       8822       8821  
      8691       8692       8703       8702       8812       8813       8824       8823  
      8692       8693       8704       8703       8813       8814       8825       8824  
      8693       8694       8705       8704       8814       8815       8826       8825  
      8694       8695       8706       8705       8815       8816       8827       8826  
      8695       8696       8707       8706       8816       8817       8828       8827  
      8696       8697       8708       8707       8817       8818       8829       8828  
      8697       8698       8709       8708       8818       8819       8830       8829  
      8698       8699       8710       8709       8819       8820       8831       8830  
      8699       8700       8711       8710       8820       8821       8832       8831  
      8700       8701       8712       8711       8821       8822       8833       8832  
      8713       8714       8725       8724       8834       8835       8846       8845  
      8714       8715       8726       8725       8835       8836       8847       8846  
      8715       8716       8727       8726       8836       8837       8848       8847  
      8716       8717       8728       8727       8837       8838       8849       8848  
      8717       8718       8729       8728       8838       8839       8850       8849  
      8718       8719       8730       8729       8839       8840       8851       8850  
      8719       8720       8731       8730       8840       8841       8852       8851  
      8720       8721       8732       8731       8841       8842       8853       8852  
      8721       8722       8733       8732       8842       8843       8854       8853  
      8722       8723       8734       8733       8843       8844       8855       8854  
      8724       8725       8736       8735       8845       8846       8857       8856  
      8725       8726       8737       8736       8846       8847       8858       8857  
      8726       8727       8738       8737       8847       8848       8859       8858  
      8727       8728       8739       8738       8848       8849       8860       8859  
      8728       8729       8740       8739       8849       8850       8861       8860  
      8729       8730       8741       8740       8850       8851       8862       8861  
      8730       8731       8742       8741       8851       8852       8863       8862  
      8731       8732       8743       8742       8852       8853       8864       8863  
      8732       8733       8744       8743       8853       8854       8865       8864  
      8733       8734       8745       8744       8854       8855       8866       8865  
      8735       8736       8747       8746       8856       8857       8868       8867  
      8736       8737       8748       8747       8857       8858       8869       8868  
      8737       8738       8749       8748       8858       8859       8870       8869  
      8738       8739       8750       8749       8859       8860       8871       8870  
      8739       8740       8751       8750       8860       8861       8872       8871  
      8740       8741       8752       8751       8861       8862       8873       8872  
      8741       8742       8753       8752       8862       8863       8874       8873  
      8742       8743       8754       8753       8863       8864       8875       8874  
      8743       8744       8755       8754       8864       8865       8876       8875  
      8744       8745       8756       8755       8865       8866       8877       8876  
      8746       8747       8758       8757       8867       8868       8879       8878  
      8747       8748       8759       8758       8868       8869       8880       8879  
      8748       8749       8760       8759       8869       8870       8881       8880  
      8749       8750       8761       8760       8870       8871       8882       8881  
      8750       8751       8762       8761       8871       8872       8883       8882  
      8751       8752       8763       8762       8872       8873       8884       8883  
      8752       8753       8764       8763       8873       8874       8885       8884  
      8753       8754       8765       8764       8874       8875       8886       8885  
      8754       8755       8766       8765       8875       8876       8887       8886  
      8755       8756       8767       8766       8876       8877       8888       8887  
      8757       8758       8769       8768       8878       8879       8890       8889  
      8758       8759       8770       8769       8879       8880       8891       8890  
      8759       8760       8771       8770       8880       8881       8892       8891  
      8760       8761       8772       8771       8881       8882       8893       8892  
      8761       8762       8773       8772       8882       8883       8894       8893  
      8762       8763       8774       8773       8883       8884       8895       8894  
      8763       8764       8775       8774       8884       8885       8896       8895  
      8764       8765       8776       8775       8885       8886       8897       8896  
      8765       8766       8777       8776       8886       8887       8898       8897  
      8766       8767       8778       8777       8887       8888       8899       8898  
      8768       8769       8780       8779       8889       8890       8901       8900  
      8769       8770       8781       8780       8890       8891       8902       8901  
      8770       8771       8782       8781       8891       8892       8903       8902  
      8771       8772       8783       8782       8892       8893       8904       8903  
      8772       8773       8784       8783       8893       8894       8905       8904  
      8773       8774       8785       8784       8894       8895       8906       8905  
      8774       8775       8786       8785       8895       8896       8907       8906  
      8775       8776       8787       8786       8896       8897       8908       8907  
      8776       8777       8788       8787       8897       8898       8909       8908  
      8777       8778       8789       8788       8898       8899       8910       8909  
      8779       8780       8791       8790       8900       8901       8912       8911  
      8780       8781       8792       8791       8901       8902       8913       8912  
      8781       8782       8793       8792       8902       8903       8914       8913  
      8782       8783       8794       8793       8903       8904       8915       8914  
      8783       8784       8795       8794       8904       8905       8916       8915  
      8784       8785       8796       8795       8905       8906       8917       8916  
      8785       8786       8797       8796       8906       8907       8918       8917  
      8786       8787       8798       8797       8907       8908       8919       8918  
      8787       8788       8799       8798       8908       8909       8920       8919  
      8788       8789       8800       8799       8909       8910       8921       8920  
      8790       8791       8802       8801       8911       8912       8923       8922  
      8791       8792       8803       8802       8912       8913       8924       8923  
      8792       8793       8804       8803       8913       8914       8925       8924  
      8793       8794       8805       8804       8914       8915       8926       8925  
      8794       8795       8806       8805       8915       8916       8927       8926  
      8795       8796       8807       8806       8916       8917       8928       8927  
      8796       8797       8808       8807       8917       8918       8929       8928  
      8797       8798       8809       8808       8918       8919       8930       8929  
      8798       8799       8810       8809       8919       8920       8931       8930  
      8799       8800       8811       8810       8920       8921       8932       8931  
      8801       8802       8813       8812       8922       8923       8934       8933  
      8802       8803       8814       8813       8923       8924       8935       8934  
      8803       8804       8815       8814       8924       8925       8936       8935  
      8804       8805       8816       8815       8925       8926       8937       8936  
      8805       8806       8817       8816       8926       8927       8938       8937  
      8806       8807       8818       8817       8927       8928       8939       8938  
      8807       8808       8819       8818       8928       8929       8940       8939  
      8808       8809       8820       8819       8929       8930       8941       8940  
      8809       8810       8821       8820       8930       8931       8942       8941  
      8810       8811       8822       8821       8931       8932       8943       8942  
      8812       8813       8824       8823       8933       8934       8945       8944  
      8813       8814       8825       8824       8934       8935       8946       8945  
      8814       8815       8826       8825       8935       8936       8947       8946  
      8815       8816       8827       8826       8936       8937       8948       8947  
      8816       8817       8828       8827       8937       8938       8949       8948  
      8817       8818       8829       8828       8938       8939       8950       8949  
      8818       8819       8830       8829       8939       8940       8951       8950  
      8819       8820       8831       8830       8940       8941       8952       8951  
      8820       8821       8832       8831       8941       8942       8953       8952  
      8821       8822       8833       8832       8942       8943       8954       8953  
      8834       8835       8846       8845       8955       8956       8967       8966  
      8835       8836       8847       8846       8956       8957       8968       8967  
      8836       8837       8848       8847       8957       8958       8969       8968  
      8837       8838       8849       8848       8958       8959       8970       8969  
      8838       8839       8850       8849       8959       8960       8971       8970  
      8839       8840       8851       8850       8960       8961       8972       8971  
      8840       8841       8852       8851       8961       8962       8973       8972  
      8841       8842       8853       8852       8962       8963       8974       8973  
      8842       8843       8854       8853       8963       8964       8975       8974  
      8843       8844       8855       8854       8964       8965       8976       8975  
      8845       8846       8857       8856       8966       8967       8978       8977  
      8846       8847       8858       8857       8967       8968       8979       8978  
      8847       8848       8859       8858       8968       8969       8980       8979  
      8848       8849       8860       8859       8969       8970       8981       8980  
      8849       8850       8861       8860       8970       8971       8982       8981  
      8850       8851       8862       8861       8971       8972       8983       8982  
      8851       8852       8863       8862       8972       8973       8984       8983  
      8852       8853       8864       8863       8973       8974       8985       8984  
      8853       8854       8865       8864       8974       8975       8986       8985  
      8854       8855       8866       8865       8975       8976       8987       8986  
      8856       8857       8868       8867       8977       8978       8989       8988  
      8857       8858       8869       8868       8978       8979       8990       8989  
      8858       8859       8870       8869       8979       8980       8991       8990  
      8859       8860       8871       8870       8980       8981       8992       8991  
      8860       8861       8872       8871       8981       8982       8993       8992  
      8861       8862       8873       8872       8982       8983       8994       8993  
      8862       8863       8874       8873       8983       8984       8995       8994  
      8863       8864       8875       8874       8984       8985       8996       8995  
      8864       8865       8876       8875       8985       8986       8997       8996  
      8865       8866       8877       8876       8986       8987       8998       8997  
      8867       8868       8879       8878       8988       8989       9000       8999  
      8868       8869       8880       8879       8989       8990       9001       9000  
      8869       8870       8881       8880       8990       8991       9002       9001  
      8870       8871       8882       8881       8991       8992       9003       9002  
      8871       8872       8883       8882       8992       8993       9004       9003  
      8872       8873       8884       8883       8993       8994       9005       9004  
      8873       8874       8885       8884       8994       8995       9006       9005  
      8874       8875       8886       8885       8995       8996       9007       9006  
      8875       8876       8887       8886       8996       8997       9008       9007  
      8876       8877       8888       8887       8997       8998       9009       9008  
      8878       8879       8890       8889       8999       9000       9011       9010  
      8879       8880       8891       8890       9000       9001       9012       9011  
      8880       8881       8892       8891       9001       9002       9013       9012  
      8881       8882       8893       8892       9002       9003       9014       9013  
      8882       8883       8894       8893       9003       9004       9015       9014  
      8883       8884       8895       8894       9004       9005       9016       9015  
      8884       8885       8896       8895       9005       9006       9017       9016  
      8885       8886       8897       8896       9006       9007       9018       9017  
      8886       8887       8898       8897       9007       9008       9019       9018  
      8887       8888       8899       8898       9008       9009       9020       9019  
      8889       8890       8901       8900       9010       9011       9022       9021  
      8890       8891       8902       8901       9011       9012       9023       9022  
      8891       8892       8903       8902       9012       9013       9024       9023  
      8892       8893       8904       8903       9013       9014       9025       9024  
      8893       8894       8905       8904       9014       9015       9026       9025  
      8894       8895       8906       8905       9015       9016       9027       9026  
      8895       8896       8907       8906       9016       9017       9028       9027  
      8896       8897       8908       8907       9017       9018       9029       9028  
      8897       8898       8909       8908       9018       9019       9030       9029  
      8898       8899       8910       8909       9019       9020       9031       9030  
      8900       8901       8912       8911       9021       9022       9033       9032  
      8901       8902       8913       8912       9022       9023       9034       9033  
      8902       8903       8914       8913       9023       9024       9035       9034  
      8903       8904       8915       8914       9024       9025       9036       9035  
      8904       8905       8916       8915       9025       9026       9037       9036  
      8905       8906       8917       8916       9026       9027       9038       9037  
      8906       8907       8918       8917       9027       9028       9039       9038  
      8907       8908       8919       8918       9028       9029       9040       9039  
      8908       8909       8920       8919       9029       9030       9041       9040  
      8909       8910       8921       8920       9030       9031       9042       9041  
      8911       8912       8923       8922       9032       9033       9044       9043  
      8912       8913       8924       8923       9033       9034       9045       9044  
      8913       8914       8925       8924       9034       9035       9046       9045  
      8914       8915       8926       8925       9035       9036       9047       9046  
      8915       8916       8927       8926       9036       9037       9048       9047  
      8916       8917       8928       8927       9037       9038       9049       9048  
      8917       8918       8929       8928       9038       9039       9050       9049  
      8918       8919       8930       8929       9039       9040       9051       9050  
      8919       8920       8931       8930       9040       9041       9052       9051  
      8920       8921       8932       8931       9041       9042       9053       9052  
      8922       8923       8934       8933       9043       9044       9055       9054  
      8923       8924       8935       8934       9044       9045       9056       9055  
      8924       8925       8936       8935       9045       9046       9057       9056  
      8925       8926       8937       8936       9046       9047       9058       9057  
      8926       8927       8938       8937       9047       9048       9059       9058  
      8927       8928       8939       8938       9048       9049       9060       9059  
      8928       8929       8940       8939       9049       9050       9061       9060  
      8929       8930       8941       8940       9050       9051       9062       9061  
      8930       8931       8942       8941       9051       9052       9063       9062  
      8931       8932       8943       8942       9052       9053       9064       9063  
      8933       8934       8945       8944       9054       9055       9066       9065  
      8934       8935       8946       8945       9055       9056       9067       9066  
      8935       8936       8947       8946       9056       9057       9068       9067  
      8936       8937       8948       8947       9057       9058       9069       9068  
      8937       8938       8949       8948       9058       9059       9070       9069  
      8938       8939       8950       8949       9059       9060       9071       9070  
      8939       8940       8951       8950       9060       9061       9072       9071  
      8940       8941       8952       8951       9061       9062       9073       9072  
      8941       8942       8953       8952       9062       9063       9074       9073  
      8942       8943       8954       8953       9063       9064       9075       9074  
      8955       8956       8967       8966       9076       9077       9088       9087  
      8956       8957       8968       8967       9077       9078       9089       9088  
      8957       8958       8969       8968       9078       9079       9090       9089  
      8958       8959       8970       8969       9079       9080       9091       9090  
      8959       8960       8971       8970       9080       9081       9092       9091  
      8960       8961       8972       8971       9081       9082       9093       9092  
      8961       8962       8973       8972       9082       9083       9094       9093  
      8962       8963       8974       8973       9083       9084       9095       9094  
      8963       8964       8975       8974       9084       9085       9096       9095  
      8964       8965       8976       8975       9085       9086       9097       9096  
      8966       8967       8978       8977       9087       9088       9099       9098  
      8967       8968       8979       8978       9088       9089       9100       9099  
      8968       8969       8980       8979       9089       9090       9101       9100  
      8969       8970       8981       8980       9090       9091       9102       9101  
      8970       8971       8982       8981       9091       9092       9103       9102  
      8971       8972       8983       8982       9092       9093       9104       9103  
      8972       8973       8984       8983       9093       9094       9105       9104  
      8973       8974       8985       8984       9094       9095       9106       9105  
      8974       8975       8986       8985       9095       9096       9107       9106  
      8975       8976       8987       8986       9096       9097       9108       9107  
      8977       8978       8989       8988       9098       9099       9110       9109  
      8978       8979       8990       8989       9099       9100       9111       9110  
      8979       8980       8991       8990       9100       9101       9112       9111  
      8980       8981       8992       8991       9101       9102       9113       9112  
      8981       8982       8993       8992       9102       9103       9114       9113  
      8982       8983       8994       8993       9103       9104       9115       9114  
      8983       8984       8995       8994       9104       9105       9116       9115  
      8984       8985       8996       8995       9105       9106       9117       9116  
      8985       8986       8997       8996       9106       9107       9118       9117  
      8986       8987       8998       8997       9107       9108       9119       9118  
      8988       8989       9000       8999       9109       9110       9121       9120  
      8989       8990       9001       9000       9110       9111       9122       9121  
      8990       8991       9002       9001       9111       9112       9123       9122  
      8991       8992       9003       9002       9112       9113       9124       9123  
      8992       8993       9004       9003       9113       9114       9125       9124  
      8993       8994       9005       9004       9114       9115       9126       9125  
      8994       8995       9006       9005       9115       9116       9127       9126  
      8995       8996       9007       9006       9116       9117       9128       9127  
      8996       8997       9008       9007       9117       9118       9129       9128  
      8997       8998       9009       9008       9118       9119       9130       9129  
      8999       9000       9011       9010       9120       9121       9132       9131  
      9000       9001       9012       9011       9121       9122       9133       9132  
      9001       9002       9013       9012       9122       9123       9134       9133  
      9002       9003       9014       9013       9123       9124       9135       9134  
      9003       9004       9015       9014       9124       9125       9136       9135  
      9004       9005       9016       9015       9125       9126       9137       9136  
      9005       9006       9017       9016       9126       9127       9138       9137  
      9006       9007       9018       9017       9127       9128       9139       9138  
      9007       9008       9019       9018       9128       9129       9140       9139  
      9008       9009       9020       9019       9129       9130       9141       9140  
      9010       9011       9022       9021       9131       9132       9143       9142  
      9011       9012       9023       9022       9132       9133       9144       9143  
      9012       9013       9024       9023       9133       9134       9145       9144  
      9013       9014       9025       9024       9134       9135       9146       9145  
      9014       9015       9026       9025       9135       9136       9147       9146  
      9015       9016       9027       9026       9136       9137       9148       9147  
      9016       9017       9028       9027       9137       9138       9149       9148  
      9017       9018       9029       9028       9138       9139       9150       9149  
      9018       9019       9030       9029       9139       9140       9151       9150  
      9019       9020       9031       9030       9140       9141       9152       9151  
      9021       9022       9033       9032       9142       9143       9154       9153  
      9022       9023       9034       9033       9143       9144       9155       9154  
      9023       9024       9035       9034       9144       9145       9156       9155  
      9024       9025       9036       9035       9145       9146       9157       9156  
      9025       9026       9037       9036       9146       9147       9158       9157  
      9026       9027       9038       9037       9147       9148       9159       9158  
      9027       9028       9039       9038       9148       9149       9160       9159  
      9028       9029       9040       9039       9149       9150       9161       9160  
      9029       9030       9041       9040       9150       9151       9162       9161  
      9030       9031       9042       9041       9151       9152       9163       9162  
      9032       9033       9044       9043       9153       9154       9165       9164  
      9033       9034       9045       9044       9154       9155       9166       9165  
      9034       9035       9046       9045       9155       9156       9167       9166  
      9035       9036       9047       9046       9156       9157       9168       9167  
      9036       9037       9048       9047       9157       9158       9169       9168  
      9037       9038       9049       9048       9158       9159       9170       9169  
      9038       9039       9050       9049       9159       9160       9171       9170  
      9039       9040       9051       9050       9160       9161       9172       9171  
      9040       9041       9052       9051       9161       9162       9173       9172  
      9041       9042       9053       9052       9162       9163       9174       9173  
      9043       9044       9055       9054       9164       9165       9176       9175  
      9044       9045       9056       9055       9165       9166       9177       9176  
      9045       9046       9057       9056       9166       9167       9178       9177  
      9046       9047       9058       9057       9167       9168       9179       9178  
      9047       9048       9059       9058       9168       9169       9180       9179  
      9048       9049       9060       9059       9169       9170       9181       9180  
      9049       9050       9061       9060       9170       9171       9182       9181  
      9050       9051       9062       9061       9171       9172       9183       9182  
      9051       9052       9063       9062       9172       9173       9184       9183  
      9052       9053       9064       9063       9173       9174       9185       9184  
      9054       9055       9066       9065       9175       9176       9187       9186  
      9055       9056       9067       9066       9176       9177       9188       9187  
      9056       9057       9068       9067       9177       9178       9189       9188  
      9057       9058       9069       9068       9178       9179       9190       9189  
      9058       9059       9070       9069       9179       9180       9191       9190  
      9059       9060       9071       9070       9180       9181       9192       9191  
      9060       9061       9072       9071       9181       9182       9193       9192  
      9061       9062       9073       9072       9182       9183       9194       9193  
      9062       9063       9074       9073       9183       9184       9195       9194  
      9063       9064       9075       9074       9184       9185       9196       9195  
      9076       9077       9088       9087       9197       9198       9209       9208  
      9077       9078       9089       9088       9198       9199       9210       9209  
      9078       9079       9090       9089       9199       9200       9211       9210  
      9079       9080       9091       9090       9200       9201       9212       9211  
      9080       9081       9092       9091       9201       9202       9213       9212  
      9081       9082       9093       9092       9202       9203       9214       9213  
      9082       9083       9094       9093       9203       9204       9215       9214  
      9083       9084       9095       9094       9204       9205       9216       9215  
      9084       9085       9096       9095       9205       9206       9217       9216  
      9085       9086       9097       9096       9206       9207       9218       9217  
      9087       9088       9099       9098       9208       9209       9220       9219  
      9088       9089       9100       9099       9209       9210       9221       9220  
      9089       9090       9101       9100       9210       9211       9222       9221  
      9090       9091       9102       9101       9211       9212       9223       9222  
      9091       9092       9103       9102       9212       9213       9224       9223  
      9092       9093       9104       9103       9213       9214       9225       9224  
      9093       9094       9105       9104       9214       9215       9226       9225  
      9094       9095       9106       9105       9215       9216       9227       9226  
      9095       9096       9107       9106       9216       9217       9228       9227  
      9096       9097       9108       9107       9217       9218       9229       9228  
      9098       9099       9110       9109       9219       9220       9231       9230  
      9099       9100       9111       9110       9220       9221       9232       9231  
      9100       9101       9112       9111       9221       9222       9233       9232  
      9101       9102       9113       9112       9222       9223       9234       9233  
      9102       9103       9114       9113       9223       9224       9235       9234  
      9103       9104       9115       9114       9224       9225       9236       9235  
      9104       9105       9116       9115       9225       9226       9237       9236  
      9105       9106       9117       9116       9226       9227       9238       9237  
      9106       9107       9118       9117       9227       9228       9239       9238  
      9107       9108       9119       9118       9228       9229       9240       9239  
      9109       9110       9121       9120       9230       9231       9242       9241  
      9110       9111       9122       9121       9231       9232       9243       9242  
      9111       9112       9123       9122       9232       9233       9244       9243  
      9112       9113       9124       9123       9233       9234       9245       9244  
      9113       9114       9125       9124       9234       9235       9246       9245  
      9114       9115       9126       9125       9235       9236       9247       9246  
      9115       9116       9127       9126       9236       9237       9248       9247  
      9116       9117       9128       9127       9237       9238       9249       9248  
      9117       9118       9129       9128       9238       9239       9250       9249  
      9118       9119       9130       9129       9239       9240       9251       9250  
      9120       9121       9132       9131       9241       9242       9253       9252  
      9121       9122       9133       9132       9242       9243       9254       9253  
      9122       9123       9134       9133       9243       9244       9255       9254  
      9123       9124       9135       9134       9244       9245       9256       9255  
      9124       9125       9136       9135       9245       9246       9257       9256  
      9125       9126       9137       9136       9246       9247       9258       9257  
      9126       9127       9138       9137       9247       9248       9259       9258  
      9127       9128       9139       9138       9248       9249       9260       9259  
      9128       9129       9140       9139       9249       9250       9261       9260  
      9129       9130       9141       9140       9250       9251       9262       9261  
      9131       9132       9143       9142       9252       9253       9264       9263  
      9132       9133       9144       9143       9253       9254       9265       9264  
      9133       9134       9145       9144       9254       9255       9266       9265  
      9134       9135       9146       9145       9255       9256       9267       9266  
      9135       9136       9147       9146       9256       9257       9268       9267  
      9136       9137       9148       9147       9257       9258       9269       9268  
      9137       9138       9149       9148       9258       9259       9270       9269  
      9138       9139       9150       9149       9259       9260       9271       9270  
      9139       9140       9151       9150       9260       9261       9272       9271  
      9140       9141       9152       9151       9261       9262       9273       9272  
      9142       9143       9154       9153       9263       9264       9275       9274  
      9143       9144       9155       9154       9264       9265       9276       9275  
      9144       9145       9156       9155       9265       9266       9277       9276  
      9145       9146       9157       9156       9266       9267       9278       9277  
      9146       9147       9158       9157       9267       9268       9279       9278  
      9147       9148       9159       9158       9268       9269       9280       9279  
      9148       9149       9160       9159       9269       9270       9281       9280  
      9149       9150       9161       9160       9270       9271       9282       9281  
      9150       9151       9162       9161       9271       9272       9283       9282  
      9151       9152       9163       9162       9272       9273       9284       9283  
      9153       9154       9165       9164       9274       9275       9286       9285  
      9154       9155       9166       9165       9275       9276       9287       9286  
      9155       9156       9167       9166       9276       9277       9288       9287  
      9156       9157       9168       9167       9277       9278       9289       9288  
      9157       9158       9169       9168       9278       9279       9290       9289  
      9158       9159       9170       9169       9279       9280       9291       9290  
      9159       9160       9171       9170       9280       9281       9292       9291  
      9160       9161       9172       9171       9281       9282       9293       9292  
      9161       9162       9173       9172       9282       9283       9294       9293  
      9162       9163       9174       9173       9283       9284       9295       9294  
      9164       9165       9176       9175       9285       9286       9297       9296  
      9165       9166       9177       9176       9286       9287       9298       9297  
      9166       9167       9178       9177       9287       9288       9299       9298  
      9167       9168       9179       9178       9288       9289       9300       9299  
      9168       9169       9180       9179       9289       9290       9301       9300  
      9169       9170       9181       9180       9290       9291       9302       9301  
      9170       9171       9182       9181       9291       9292       9303       9302  
      9171       9172       9183       9182       9292       9293       9304       9303  
      9172       9173       9184       9183       9293       9294       9305       9304  
      9173       9174       9185       9184       9294       9295       9306       9305  
      9175       9176       9187       9186       9296       9297       9308       9307  
      9176       9177       9188       9187       9297       9298       9309       9308  
      9177       9178       9189       9188       9298       9299       9310       9309  
      9178       9179       9190       9189       9299       9300       9311       9310  
      9179       9180       9191       9190       9300       9301       9312       9311  
      9180       9181       9192       9191       9301       9302       9313       9312  
      9181       9182       9193       9192       9302       9303       9314       9313  
      9182       9183       9194       9193       9303       9304       9315       9314  
      9183       9184       9195       9194       9304       9305       9316       9315  
      9184       9185       9196       9195       9305       9306       9317       9316  
      9197       9198       9209       9208       9318       9319       9330       9329  
      9198       9199       9210       9209       9319       9320       9331       9330  
      9199       9200       9211       9210       9320       9321       9332       9331  
      9200       9201       9212       9211       9321       9322       9333       9332  
      9201       9202       9213       9212       9322       9323       9334       9333  
      9202       9203       9214       9213       9323       9324       9335       9334  
      9203       9204       9215       9214       9324       9325       9336       9335  
      9204       9205       9216       9215       9325       9326       9337       9336  
      9205       9206       9217       9216       9326       9327       9338       9337  
      9206       9207       9218       9217       9327       9328       9339       9338  
      9208       9209       9220       9219       9329       9330       9341       9340  
      9209       9210       9221       9220       9330       9331       9342       9341  
      9210       9211       9222       9221       9331       9332       9343       9342  
      9211       9212       9223       9222       9332       9333       9344       9343  
      9212       9213       9224       9223       9333       9334       9345       9344  
      9213       9214       9225       9224       9334       9335       9346       9345  
      9214       9215       9226       9225       9335       9336       9347       9346  
      9215       9216       9227       9226       9336       9337       9348       9347  
      9216       9217       9228       9227       9337       9338       9349       9348  
      9217       9218       9229       9228       9338       9339       9350       9349  
      9219       9220       9231       9230       9340       9341       9352       9351  
      9220       9221       9232       9231       9341       9342       9353       9352  
      9221       9222       9233       9232       9342       9343       9354       9353  
      9222       9223       9234       9233       9343       9344       9355       9354  
      9223       9224       9235       9234       9344       9345       9356       9355  
      9224       9225       9236       9235       9345       9346       9357       9356  
      9225       9226       9237       9236       9346       9347       9358       9357  
      9226       9227       9238       9237       9347       9348       9359       9358  
      9227       9228       9239       9238       9348       9349       9360       9359  
      9228       9229       9240       9239       9349       9350       9361       9360  
      9230       9231       9242       9241       9351       9352       9363       9362  
      9231       9232       9243       9242       9352       9353       9364       9363  
      9232       9233       9244       9243       9353       9354       9365       9364  
      9233       9234       9245       9244       9354       9355       9366       9365  
      9234       9235       9246       9245       9355       9356       9367       9366  
      9235       9236       9247       9246       9356       9357       9368       9367  
      9236       9237       9248       9247       9357       9358       9369       9368  
      9237       9238       9249       9248       9358       9359       9370       9369  
      9238       9239       9250       9249       9359       9360       9371       9370  
      9239       9240       9251       9250       9360       9361       9372       9371  
      9241       9242       9253       9252       9362       9363       9374       9373  
      9242       9243       9254       9253       9363       9364       9375       9374  
      9243       9244       9255       9254       9364       9365       9376       9375  
      9244       9245       9256       9255       9365       9366       9377       9376  
      9245       9246       9257       9256       9366       9367       9378       9377  
      9246       9247       9258       9257       9367       9368       9379       9378  
      9247       9248       9259       9258       9368       9369       9380       9379  
      9248       9249       9260       9259       9369       9370       9381       9380  
      9249       9250       9261       9260       9370       9371       9382       9381  
      9250       9251       9262       9261       9371       9372       9383       9382  
      9252       9253       9264       9263       9373       9374       9385       9384  
      9253       9254       9265       9264       9374       9375       9386       9385  
      9254       9255       9266       9265       9375       9376       9387       9386  
      9255       9256       9267       9266       9376       9377       9388       9387  
      9256       9257       9268       9267       9377       9378       9389       9388  
      9257       9258       9269       9268       9378       9379       9390       9389  
      9258       9259       9270       9269       9379       9380       9391       9390  
      9259       9260       9271       9270       9380       9381       9392       9391  
      9260       9261       9272       9271       9381       9382       9393       9392  
      9261       9262       9273       9272       9382       9383       9394       9393  
      9263       9264       9275       9274       9384       9385       9396       9395  
      9264       9265       9276       9275       9385       9386       9397       9396  
      9265       9266       9277       9276       9386       9387       9398       9397  
      9266       9267       9278       9277       9387       9388       9399       9398  
      9267       9268       9279       9278       9388       9389       9400       9399  
      9268       9269       9280       9279       9389       9390       9401       9400  
      9269       9270       9281       9280       9390       9391       9402       9401  
      9270       9271       9282       9281       9391       9392       9403       9402  
      9271       9272       9283       9282       9392       9393       9404       9403  
      9272       9273       9284       9283       9393       9394       9405       9404  
      9274       9275       9286       9285       9395       9396       9407       9406  
      9275       9276       9287       9286       9396       9397       9408       9407  
      9276       9277       9288       9287       9397       9398       9409       9408  
      9277       9278       9289       9288       9398       9399       9410       9409  
      9278       9279       9290       9289       9399       9400       9411       9410  
      9279       9280       9291       9290       9400       9401       9412       9411  
      9280       9281       9292       9291       9401       9402       9413       9412  
      9281       9282       9293       9292       9402       9403       9414       9413  
      9282       9283       9294       9293       9403       9404       9415       9414  
      9283       9284       9295       9294       9404       9405       9416       9415  
      9285       9286       9297       9296       9406       9407       9418       9417  
      9286       9287       9298       9297       9407       9408       9419       9418  
      9287       9288       9299       9298       9408       9409       9420       9419  
      9288       9289       9300       9299       9409       9410       9421       9420  
      9289       9290       9301       9300       9410       9411       9422       9421  
      9290       9291       9302       9301       9411       9412       9423       9422  
      9291       9292       9303       9302       9412       9413       9424       9423  
      9292       9293       9304       9303       9413       9414       9425       9424  
      9293       9294       9305       9304       9414       9415       9426       9425  
      9294       9295       9306       9305       9415       9416       9427       9426  
      9296       9297       9308       9307       9417       9418       9429       9428  
      9297       9298       9309       9308       9418       9419       9430       9429  
      9298       9299       9310       9309       9419       9420       9431       9430  
      9299       9300       9311       9310       9420       9421       9432       9431  
      9300       9301       9312       9311       9421       9422       9433       9432  
      9301       9302       9313       9312       9422       9423       9434       9433  
      9302       9303       9314       9313       9423       9424       9435       9434  
      9303       9304       9315       9314       9424       9425       9436       9435  
      9304       9305       9316       9315       9425       9426       9437       9436  
      9305       9306       9317       9316       9426       9427       9438       9437  
      9318       9319       9330       9329       9439       9440       9451       9450  
      9319       9320       9331       9330       9440       9441       9452       9451  
      9320       9321       9332       9331       9441       9442       9453       9452  
      9321       9322       9333       9332       9442       9443       9454       9453  
      9322       9323       9334       9333       9443       9444       9455       9454  
      9323       9324       9335       9334       9444       9445       9456       9455  
      9324       9325       9336       9335       9445       9446       9457       9456  
      9325       9326       9337       9336       9446       9447       9458       9457  
      9326       9327       9338       9337       9447       9448       9459       9458  
      9327       9328       9339       9338       9448       9449       9460       9459  
      9329       9330       9341       9340       9450       9451       9462       9461  
      9330       9331       9342       9341       9451       9452       9463       9462  
      9331       9332       9343       9342       9452       9453       9464       9463  
      9332       9333       9344       9343       9453       9454       9465       9464  
      9333       9334       9345       9344       9454       9455       9466       9465  
      9334       9335       9346       9345       9455       9456       9467       9466  
      9335       9336       9347       9346       9456       9457       9468       9467  
      9336       9337       9348       9347       9457       9458       9469       9468  
      9337       9338       9349       9348       9458       9459       9470       9469  
      9338       9339       9350       9349       9459       9460       9471       9470  
      9340       9341       9352       9351       9461       9462       9473       9472  
      9341       9342       9353       9352       9462       9463       9474       9473  
      9342       9343       9354       9353       9463       9464       9475       9474  
      9343       9344       9355       9354       9464       9465       9476       9475  
      9344       9345       9356       9355       9465       9466       9477       9476  
      9345       9346       9357       9356       9466       9467       9478       9477  
      9346       9347       9358       9357       9467       9468       9479       9478  
      9347       9348       9359       9358       9468       9469       9480       9479  
      9348       9349       9360       9359       9469       9470       9481       9480  
      9349       9350       9361       9360       9470       9471       9482       9481  
      9351       9352       9363       9362       9472       9473       9484       9483  
      9352       9353       9364       9363       9473       9474       9485       9484  
      9353       9354       9365       9364       9474       9475       9486       9485  
      9354       9355       9366       9365       9475       9476       9487       9486  
      9355       9356       9367       9366       9476       9477       9488       9487  
      9356       9357       9368       9367       9477       9478       9489       9488  
      9357       9358       9369       9368       9478       9479       9490       9489  
      9358       9359       9370       9369       9479       9480       9491       9490  
      9359       9360       9371       9370       9480       9481       9492       9491  
      9360       9361       9372       9371       9481       9482       9493       9492  
      9362       9363       9374       9373       9483       9484       9495       9494  
      9363       9364       9375       9374       9484       9485       9496       9495  
      9364       9365       9376       9375       9485       9486       9497       9496  
      9365       9366       9377       9376       9486       9487       9498       9497  
      9366       9367       9378       9377       9487       9488       9499       9498  
      9367       9368       9379       9378       9488       9489       9500       9499  
      9368       9369       9380       9379       9489       9490       9501       9500  
      9369       9370       9381       9380       9490       9491       9502       9501  
      9370       9371       9382       9381       9491       9492       9503       9502  
      9371       9372       9383       9382       9492       9493       9504       9503  
      9373       9374       9385       9384       9494       9495       9506       9505  
      9374       9375       9386       9385       9495       9496       9507       9506  
      9375       9376       9387       9386       9496       9497       9508       9507  
      9376       9377       9388       9387       9497       9498       9509       9508  
      9377       9378       9389       9388       9498       9499       9510       9509  
      9378       9379       9390       9389       9499       9500       9511       9510  
      9379       9380       9391       9390       9500       9501       9512       9511  
      9380       9381       9392       9391       9501       9502       9513       9512  
      9381       9382       9393       9392       9502       9503       9514       9513  
      9382       9383       9394       9393       9503       9504       9515       9514  
      9384       9385       9396       9395       9505       9506       9517       9516  
      9385       9386       9397       9396       9506       9507       9518       9517  
      9386       9387       9398       9397       9507       9508       9519       9518  
      9387       9388       9399       9398       9508       9509       9520       9519  
      9388       9389       9400       9399       9509       9510       9521       9520  
      9389       9390       9401       9400       9510       9511       9522       9521  
      9390       9391       9402       9401       9511       9512       9523       9522  
      9391       9392       9403       9402       9512       9513       9524       9523  
      9392       9393       9404       9403       9513       9514       9525       9524  
      9393       9394       9405       9404       9514       9515       9526       9525  
      9395       9396       9407       9406       9516       9517       9528       9527  
      9396       9397       9408       9407       9517       9518       9529       9528  
      9397       9398       9409       9408       9518       9519       9530       9529  
      9398       9399       9410       9409       9519       9520       9531       9530  
      9399       9400       9411       9410       9520       9521       9532       9531  
      9400       9401       9412       9411       9521       9522       9533       9532  
      9401       9402       9413       9412       9522       9523       9534       9533  
      9402       9403       9414       9413       9523       9524       9535       9534  
      9403       9404       9415       9414       9524       9525       9536       9535  
      9404       9405       9416       9415       9525       9526       9537       9536  
      9406       9407       9418       9417       9527       9528       9539       9538  
      9407       9408       9419       9418       9528       9529       9540       9539  
      9408       9409       9420       9419       9529       9530       9541       9540  
      9409       9410       9421       9420       9530       9531       9542       9541  
      9410       9411       9422       9421       9531       9532       9543       9542  
      9411       9412       9423       9422       9532       9533       9544       9543  
      9412       9413       9424       9423       9533       9534       9545       9544  
      9413       9414       9425       9424       9534       9535       9546       9545  
      9414       9415       9426       9425       9535       9536       9547       9546  
      9415       9416       9427       9426       9536       9537       9548       9547  
      9417       9418       9429       9428       9538       9539       9550       9549  
      9418       9419       9430       9429       9539       9540       9551       9550  
      9419       9420       9431       9430       9540       9541       9552       9551  
      9420       9421       9432       9431       9541       9542       9553       9552  
      9421       9422       9433       9432       9542       9543       9554       9553  
      9422       9423       9434       9433       9543       9544       9555       9554  
      9423       9424       9435       9434       9544       9545       9556       9555  
      9424       9425       9436       9435       9545       9546       9557       9556  
      9425       9426       9437       9436       9546       9547       9558       9557  
      9426       9427       9438       9437       9547       9548       9559       9558  
      9439       9440       9451       9450       9560       9561       9572       9571  
      9440       9441       9452       9451       9561       9562       9573       9572  
      9441       9442       9453       9452       9562       9563       9574       9573  
      9442       9443       9454       9453       9563       9564       9575       9574  
      9443       9444       9455       9454       9564       9565       9576       9575  
      9444       9445       9456       9455       9565       9566       9577       9576  
      9445       9446       9457       9456       9566       9567       9578       9577  
      9446       9447       9458       9457       9567       9568       9579       9578  
      9447       9448       9459       9458       9568       9569       9580       9579  
      9448       9449       9460       9459       9569       9570       9581       9580  
      9450       9451       9462       9461       9571       9572       9583       9582  
      9451       9452       9463       9462       9572       9573       9584       9583  
      9452       9453       9464       9463       9573       9574       9585       9584  
      9453       9454       9465       9464       9574       9575       9586       9585  
      9454       9455       9466       9465       9575       9576       9587       9586  
      9455       9456       9467       9466       9576       9577       9588       9587  
      9456       9457       9468       9467       9577       9578       9589       9588  
      9457       9458       9469       9468       9578       9579       9590       9589  
      9458       9459       9470       9469       9579       9580       9591       9590  
      9459       9460       9471       9470       9580       9581       9592       9591  
      9461       9462       9473       9472       9582       9583       9594       9593  
      9462       9463       9474       9473       9583       9584       9595       9594  
      9463       9464       9475       9474       9584       9585       9596       9595  
      9464       9465       9476       9475       9585       9586       9597       9596  
      9465       9466       9477       9476       9586       9587       9598       9597  
      9466       9467       9478       9477       9587       9588       9599       9598  
      9467       9468       9479       9478       9588       9589       9600       9599  
      9468       9469       9480       9479       9589       9590       9601       9600  
      9469       9470       9481       9480       9590       9591       9602       9601  
      9470       9471       9482       9481       9591       9592       9603       9602  
      9472       9473       9484       9483       9593       9594       9605       9604  
      9473       9474       9485       9484       9594       9595       9606       9605  
      9474       9475       9486       9485       9595       9596       9607       9606  
      9475       9476       9487       9486       9596       9597       9608       9607  
      9476       9477       9488       9487       9597       9598       9609       9608  
      9477       9478       9489       9488       9598       9599       9610       9609  
      9478       9479       9490       9489       9599       9600       9611       9610  
      9479       9480       9491       9490       9600       9601       9612       9611  
      9480       9481       9492       9491       9601       9602       9613       9612  
      9481       9482       9493       9492       9602       9603       9614       9613  
      9483       9484       9495       9494       9604       9605       9616       9615  
      9484       9485       9496       9495       9605       9606       9617       9616  
      9485       9486       9497       9496       9606       9607       9618       9617  
      9486       9487       9498       9497       9607       9608       9619       9618  
      9487       9488       9499       9498       9608       9609       9620       9619  
      9488       9489       9500       9499       9609       9610       9621       9620  
      9489       9490       9501       9500       9610       9611       9622       9621  
      9490       9491       9502       9501       9611       9612       9623       9622  
      9491       9492       9503       9502       9612       9613       9624       9623  
      9492       9493       9504       9503       9613       9614       9625       9624  
      9494       9495       9506       9505       9615       9616       9627       9626  
      9495       9496       9507       9506       9616       9617       9628       9627  
      9496       9497       9508       9507       9617       9618       9629       9628  
      9497       9498       9509       9508       9618       9619       9630       9629  
      9498       9499       9510       9509       9619       9620       9631       9630  
      9499       9500       9511       9510       9620       9621       9632       9631  
      9500       9501       9512       9511       9621       9622       9633       9632  
      9501       9502       9513       9512       9622       9623       9634       9633  
      9502       9503       9514       9513       9623       9624       9635       9634  
      9503       9504       9515       9514       9624       9625       9636       9635  
      9505       9506       9517       9516       9626       9627       9638       9637  
      9506       9507       9518       9517       9627       9628       9639       9638  
      9507       9508       9519       9518       9628       9629       9640       9639  
      9508       9509       9520       9519       9629       9630       9641       9640  
      9509       9510       9521       9520       9630       9631       9642       9641  
      9510       9511       9522       9521       9631       9632       9643       9642  
      9511       9512       9523       9522       9632       9633       9644       9643  
      9512       9513       9524       9523       9633       9634       9645       9644  
      9513       9514       9525       9524       9634       9635       9646       9645  
      9514       9515       9526       9525       9635       9636       9647       9646  
      9516       9517       9528       9527       9637       9638       9649       9648  
      9517       9518       9529       9528       9638       9639       9650       9649  
      9518       9519       9530       9529       9639       9640       9651       9650  
      9519       9520       9531       9530       9640       9641       9652       9651  
      9520       9521       9532       9531       9641       9642       9653       9652  
      9521       9522       9533       9532       9642       9643       9654       9653  
      9522       9523       9534       9533       9643       9644       9655       9654  
      9523       9524       9535       9534       9644       9645       9656       9655  
      9524       9525       9536       9535       9645       9646       9657       9656  
      9525       9526       9537       9536       9646       9647       9658       9657  
      9527       9528       9539       9538       9648       9649       9660       9659  
      9528       9529       9540       9539       9649       9650       9661       9660  
      9529       9530       9541       9540       9650       9651       9662       9661  
      9530       9531       9542       9541       9651       9652       9663       9662  
      9531       9532       9543       9542       9652       9653       9664       9663  
      9532       9533       9544       9543       9653       9654       9665       9664  
      9533       9534       9545       9544       9654       9655       9666       9665  
      9534       9535       9546       9545       9655       9656       9667       9666  
      9535       9536       9547       9546       9656       9657       9668       9667  
      9536       9537       9548       9547       9657       9658       9669       9668  
      9538       9539       9550       9549       9659       9660       9671       9670  
      9539       9540       9551       9550       9660       9661       9672       9671  
      9540       9541       9552       9551       9661       9662       9673       9672  
      9541       9542       9553       9552       9662       9663       9674       9673  
      9542       9543       9554       9553       9663       9664       9675       9674  
      9543       9544       9555       9554       9664       9665       9676       9675  
      9544       9545       9556       9555       9665       9666       9677       9676  
      9545       9546       9557       9556       9666       9667       9678       9677  
      9546       9547       9558       9557       9667       9668       9679       9678  
      9547       9548       9559       9558       9668       9669       9680       9679  
      9560       9561       9572       9571       9681       9682       9693       9692  
      9561       9562       9573       9572       9682       9683       9694       9693  
      9562       9563       9574       9573       9683       9684       9695       9694  
      9563       9564       9575       9574       9684       9685       9696       9695  
      9564       9565       9576       9575       9685       9686       9697       9696  
      9565       9566       9577       9576       9686       9687       9698       9697  
      9566       9567       9578       9577       9687       9688       9699       9698  
      9567       9568       9579       9578       9688       9689       9700       9699  
      9568       9569       9580       9579       9689       9690       9701       9700  
      9569       9570       9581       9580       9690       9691       9702       9701  
      9571       9572       9583       9582       9692       9693       9704       9703  
      9572       9573       9584       9583       9693       9694       9705       9704  
      9573       9574       9585       9584       9694       9695       9706       9705  
      9574       9575       9586       9585       9695       9696       9707       9706  
      9575       9576       9587       9586       9696       9697       9708       9707  
      9576       9577       9588       9587       9697       9698       9709       9708  
      9577       9578       9589       9588       9698       9699       9710       9709  
      9578       9579       9590       9589       9699       9700       9711       9710  
      9579       9580       9591       9590       9700       9701       9712       9711  
      9580       9581       9592       9591       9701       9702       9713       9712  
      9582       9583       9594       9593       9703       9704       9715       9714  
      9583       9584       9595       9594       9704       9705       9716       9715  
      9584       9585       9596       9595       9705       9706       9717       9716  
      9585       9586       9597       9596       9706       9707       9718       9717  
      9586       9587       9598       9597       9707       9708       9719       9718  
      9587       9588       9599       9598       9708       9709       9720       9719  
      9588       9589       9600       9599       9709       9710       9721       9720  
      9589       9590       9601       9600       9710       9711       9722       9721  
      9590       9591       9602       9601       9711       9712       9723       9722  
      9591       9592       9603       9602       9712       9713       9724       9723  
      9593       9594       9605       9604       9714       9715       9726       9725  
      9594       9595       9606       9605       9715       9716       9727       9726  
      9595       9596       9607       9606       9716       9717       9728       9727  
      9596       9597       9608       9607       9717       9718       9729       9728  
      9597       9598       9609       9608       9718       9719       9730       9729  
      9598       9599       9610       9609       9719       9720       9731       9730  
      9599       9600       9611       9610       9720       9721       9732       9731  
      9600       9601       9612       9611       9721       9722       9733       9732  
      9601       9602       9613       9612       9722       9723       9734       9733  
      9602       9603       9614       9613       9723       9724       9735       9734  
      9604       9605       9616       9615       9725       9726       9737       9736  
      9605       9606       9617       9616       9726       9727       9738       9737  
      9606       9607       9618       9617       9727       9728       9739       9738  
      9607       9608       9619       9618       9728       9729       9740       9739  
      9608       9609       9620       9619       9729       9730       9741       9740  
      9609       9610       9621       9620       9730       9731       9742       9741  
      9610       9611       9622       9621       9731       9732       9743       9742  
      9611       9612       9623       9622       9732       9733       9744       9743  
      9612       9613       9624       9623       9733       9734       9745       9744  
      9613       9614       9625       9624       9734       9735       9746       9745  
      9615       9616       9627       9626       9736       9737       9748       9747  
      9616       9617       9628       9627       9737       9738       9749       9748  
      9617       9618       9629       9628       9738       9739       9750       9749  
      9618       9619       9630       9629       9739       9740       9751       9750  
      9619       9620       9631       9630       9740       9741       9752       9751  
      9620       9621       9632       9631       9741       9742       9753       9752  
      9621       9622       9633       9632       9742       9743       9754       9753  
      9622       9623       9634       9633       9743       9744       9755       9754  
      9623       9624       9635       9634       9744       9745       9756       9755  
      9624       9625       9636       9635       9745       9746       9757       9756  
      9626       9627       9638       9637       9747       9748       9759       9758  
      9627       9628       9639       9638       9748       9749       9760       9759  
      9628       9629       9640       9639       9749       9750       9761       9760  
      9629       9630       9641       9640       9750       9751       9762       9761  
      9630       9631       9642       9641       9751       9752       9763       9762  
      9631       9632       9643       9642       9752       9753       9764       9763  
      9632       9633       9644       9643       9753       9754       9765       9764  
      9633       9634       9645       9644       9754       9755       9766       9765  
      9634       9635       9646       9645       9755       9756       9767       9766  
      9635       9636       9647       9646       9756       9757       9768       9767  
      9637       9638       9649       9648       9758       9759       9770       9769  
      9638       9639       9650       9649       9759       9760       9771       9770  
      9639       9640       9651       9650       9760       9761       9772       9771  
      9640       9641       9652       9651       9761       9762       9773       9772  
      9641       9642       9653       9652       9762       9763       9774       9773  
      9642       9643       9654       9653       9763       9764       9775       9774  
      9643       9644       9655       9654       9764       9765       9776       9775  
      9644       9645       9656       9655       9765       9766       9777       9776  
      9645       9646       9657       9656       9766       9767       9778       9777  
      9646       9647       9658       9657       9767       9768       9779       9778  
      9648       9649       9660       9659       9769       9770       9781       9780  
      9649       9650       9661       9660       9770       9771       9782       9781  
      9650       9651       9662       9661       9771       9772       9783       9782  
      9651       9652       9663       9662       9772       9773       9784       9783  
      9652       9653       9664       9663       9773       9774       9785       9784  
      9653       9654       9665       9664       9774       9775       9786       9785  
      9654       9655       9666       9665       9775       9776       9787       9786  
      9655       9656       9667       9666       9776       9777       9788       9787  
      9656       9657       9668       9667       9777       9778       9789       9788  
      9657       9658       9669       9668       9778       9779       9790       9789  
      9659       9660       9671       9670       9780       9781       9792       9791  
      9660       9661       9672       9671       9781       9782       9793       9792  
      9661       9662       9673       9672       9782       9783       9794       9793  
      9662       9663       9674       9673       9783       9784       9795       9794  
      9663       9664       9675       9674       9784       9785       9796       9795  
      9664       9665       9676       9675       9785       9786       9797       9796  
      9665       9666       9677       9676       9786       9787       9798       9797  
      9666       9667       9678       9677       9787       9788       9799       9798  
      9667       9668       9679       9678       9788       9789       9800       9799  
      9668       9669       9680       9679       9789       9790       9801       9800  
      9681       9682       9693       9692       9802       9803       9814       9813  
      9682       9683       9694       9693       9803       9804       9815       9814  
      9683       9684       9695       9694       9804       9805       9816       9815  
      9684       9685       9696       9695       9805       9806       9817       9816  
      9685       9686       9697       9696       9806       9807       9818       9817  
      9686       9687       9698       9697       9807       9808       9819       9818  
      9687       9688       9699       9698       9808       9809       9820       9819  
      9688       9689       9700       9699       9809       9810       9821       9820  
      9689       9690       9701       9700       9810       9811       9822       9821  
      9690       9691       9702       9701       9811       9812       9823       9822  
      9692       9693       9704       9703       9813       9814       9825       9824  
      9693       9694       9705       9704       9814       9815       9826       9825  
      9694       9695       9706       9705       9815       9816       9827       9826  
      9695       9696       9707       9706       9816       9817       9828       9827  
      9696       9697       9708       9707       9817       9818       9829       9828  
      9697       9698       9709       9708       9818       9819       9830       9829  
      9698       9699       9710       9709       9819       9820       9831       9830  
      9699       9700       9711       9710       9820       9821       9832       9831  
      9700       9701       9712       9711       9821       9822       9833       9832  
      9701       9702       9713       9712       9822       9823       9834       9833  
      9703       9704       9715       9714       9824       9825       9836       9835  
      9704       9705       9716       9715       9825       9826       9837       9836  
      9705       9706       9717       9716       9826       9827       9838       9837  
      9706       9707       9718       9717       9827       9828       9839       9838  
      9707       9708       9719       9718       9828       9829       9840       9839  
      9708       9709       9720       9719       9829       9830       9841       9840  
      9709       9710       9721       9720       9830       9831       9842       9841  
      9710       9711       9722       9721       9831       9832       9843       9842  
      9711       9712       9723       9722       9832       9833       9844       9843  
      9712       9713       9724       9723       9833       9834       9845       9844  
      9714       9715       9726       9725       9835       9836       9847       9846  
      9715       9716       9727       9726       9836       9837       9848       9847  
      9716       9717       9728       9727       9837       9838       9849       9848  
      9717       9718       9729       9728       9838       9839       9850       9849  
      9718       9719       9730       9729       9839       9840       9851       9850  
      9719       9720       9731       9730       9840       9841       9852       9851  
      9720       9721       9732       9731       9841       9842       9853       9852  
      9721       9722       9733       9732       9842       9843       9854       9853  
      9722       9723       9734       9733       9843       9844       9855       9854  
      9723       9724       9735       9734       9844       9845       9856       9855  
      9725       9726       9737       9736       9846       9847       9858       9857  
      9726       9727       9738       9737       9847       9848       9859       9858  
      9727       9728       9739       9738       9848       9849       9860       9859  
      9728       9729       9740       9739       9849       9850       9861       9860  
      9729       9730       9741       9740       9850       9851       9862       9861  
      9730       9731       9742       9741       9851       9852       9863       9862  
      9731       9732       9743       9742       9852       9853       9864       9863  
      9732       9733       9744       9743       9853       9854       9865       9864  
      9733       9734       9745       9744       9854       9855       9866       9865  
      9734       9735       9746       9745       9855       9856       9867       9866  
      9736       9737       9748       9747       9857       9858       9869       9868  
      9737       9738       9749       9748       9858       9859       9870       9869  
      9738       9739       9750       9749       9859       9860       9871       9870  
      9739       9740       9751       9750       9860       9861       9872       9871  
      9740       9741       9752       9751       9861       9862       9873       9872  
      9741       9742       9753       9752       9862       9863       9874       9873  
      9742       9743       9754       9753       9863       9864       9875       9874  
      9743       9744       9755       9754       9864       9865       9876       9875  
      9744       9745       9756       9755       9865       9866       9877       9876  
      9745       9746       9757       9756       9866       9867       9878       9877  
      9747       9748       9759       9758       9868       9869       9880       9879  
      9748       9749       9760       9759       9869       9870       9881       9880  
      9749       9750       9761       9760       9870       9871       9882       9881  
      9750       9751       9762       9761       9871       9872       9883       9882  
      9751       9752       9763       9762       9872       9873       9884       9883  
      9752       9753       9764       9763       9873       9874       9885       9884  
      9753       9754       9765       9764       9874       9875       9886       9885  
      9754       9755       9766       9765       9875       9876       9887       9886  
      9755       9756       9767       9766       9876       9877       9888       9887  
      9756       9757       9768       9767       9877       9878       9889       9888  
      9758       9759       9770       9769       9879       9880       9891       9890  
      9759       9760       9771       9770       9880       9881       9892       9891  
      9760       9761       9772       9771       9881       9882       9893       9892  
      9761       9762       9773       9772       9882       9883       9894       9893  
      9762       9763       9774       9773       9883       9884       9895       9894  
      9763       9764       9775       9774       9884       9885       9896       9895  
      9764       9765       9776       9775       9885       9886       9897       9896  
      9765       9766       9777       9776       9886       9887       9898       9897  
      9766       9767       9778       9777       9887       9888       9899       9898  
      9767       9768       9779       9778       9888       9889       9900       9899  
      9769       9770       9781       9780       9890       9891       9902       9901  
      9770       9771       9782       9781       9891       9892       9903       9902  
      9771       9772       9783       9782       9892       9893       9904       9903  
      9772       9773       9784       9783       9893       9894       9905       9904  
      9773       9774       9785       9784       9894       9895       9906       9905  
      9774       9775       9786       9785       9895       9896       9907       9906  
      9775       9776       9787       9786       9896       9897       9908       9907  
      9776       9777       9788       9787       9897       9898       9909       9908  
      9777       9778       9789       9788       9898       9899       9910       9909  
      9778       9779       9790       9789       9899       9900       9911       9910  
      9780       9781       9792       9791       9901       9902       9913       9912  
      9781       9782       9793       9792       9902       9903       9914       9913  
      9782       9783       9794       9793       9903       9904       9915       9914  
      9783       9784       9795       9794       9904       9905       9916       9915  
      9784       9785       9796       9795       9905       9906       9917       9916  
      9785       9786       9797       9796       9906       9907       9918       9917  
      9786       9787       9798       9797       9907       9908       9919       9918  
      9787       9788       9799       9798       9908       9909       9920       9919  
      9788       9789       9800       9799       9909       9910       9921       9920  
      9789       9790       9801       9800       9910       9911       9922       9921  
      9802       9803       9814       9813       9923       9924       9935       9934  
      9803       9804       9815       9814       9924       9925       9936       9935  
      9804       9805       9816       9815       9925       9926       9937       9936  
      9805       9806       9817       9816       9926       9927       9938       9937  
      9806       9807       9818       9817       9927       9928       9939       9938  
      9807       9808       9819       9818       9928       9929       9940       9939  
      9808       9809       9820       9819       9929       9930       9941       9940  
      9809       9810       9821       9820       9930       9931       9942       9941  
      9810       9811       9822       9821       9931       9932       9943       9942  
      9811       9812       9823       9822       9932       9933       9944       9943  
      9813       9814       9825       9824       9934       9935       9946       9945  
      9814       9815       9826       9825       9935       9936       9947       9946  
      9815       9816       9827       9826       9936       9937       9948       9947  
      9816       9817       9828       9827       9937       9938       9949       9948  
      9817       9818       9829       9828       9938       9939       9950       9949  
      9818       9819       9830       9829       9939       9940       9951       9950  
      9819       9820       9831       9830       9940       9941       9952       9951  
      9820       9821       9832       9831       9941       9942       9953       9952  
      9821       9822       9833       9832       9942       9943       9954       9953  
      9822       9823       9834       9833       9943       9944       9955       9954  
      9824       9825       9836       9835       9945       9946       9957       9956  
      9825       9826       9837       9836       9946       9947       9958       9957  
      9826       9827       9838       9837       9947       9948       9959       9958  
      9827       9828       9839       9838       9948       9949       9960       9959  
      9828       9829       9840       9839       9949       9950       9961       9960  
      9829       9830       9841       9840       9950       9951       9962       9961  
      9830       9831       9842       9841       9951       9952       9963       9962  
      9831       9832       9843       9842       9952       9953       9964       9963  
      9832       9833       9844       9843       9953       9954       9965       9964  
      9833       9834       9845       9844       9954       9955       9966       9965  
      9835       9836       9847       9846       9956       9957       9968       9967  
      9836       9837       9848       9847       9957       9958       9969       9968  
      9837       9838       9849       9848       9958       9959       9970       9969  
      9838       9839       9850       9849       9959       9960       9971       9970  
      9839       9840       9851       9850       9960       9961       9972       9971  
      9840       9841       9852       9851       9961       9962       9973       9972  
      9841       9842       9853       9852       9962       9963       9974       9973  
      9842       9843       9854       9853       9963       9964       9975       9974  
      9843       9844       9855       9854       9964       9965       9976       9975  
      9844       9845       9856       9855       9965       9966       9977       9976  
      9846       9847       9858       9857       9967       9968       9979       9978  
      9847       9848       9859       9858       9968       9969       9980       9979  
      9848       9849       9860       9859       9969       9970       9981       9980  
      9849       9850       9861       9860       9970       9971       9982       9981  
      9850       9851       9862       9861       9971       9972       9983       9982  
      9851       9852       9863       9862       9972       9973       9984       9983  
      9852       9853       9864       9863       9973       9974       9985       9984  
      9853       9854       9865       9864       9974       9975       9986       9985  
      9854       9855       9866       9865       9975       9976       9987       9986  
      9855       9856       9867       9866       9976       9977       9988       9987  
      9857       9858       9869       9868       9978       9979       9990       9989  
      9858       9859       9870       9869       9979       9980       9991       9990  
      9859       9860       9871       9870       9980       9981       9992       9991  
      9860       9861       9872       9871       9981       9982       9993       9992  
      9861       9862       9873       9872       9982       9983       9994       9993  
      9862       9863       9874       9873       9983       9984       9995       9994  
      9863       9864       9875       9874       9984       9985       9996       9995  
      9864       9865       9876       9875       9985       9986       9997       9996  
      9865       9866       9877       9876       9986       9987       9998       9997  
      9866       9867       9878       9877       9987       9988       9999       9998  
      9868       9869       9880       9879       9989       9990      10001      10000  
      9869       9870       9881       9880       9990       9991      10002      10001  
      9870       9871       9882       9881       9991       9992      10003      10002  
      9871       9872       9883       9882       9992       9993      10004      10003  
      9872       9873       9884       9883       9993       9994      10005      10004  
      9873       9874       9885       9884       9994       9995      10006      10005  
      9874       9875       9886       9885       9995       9996      10007      10006  
      9875       9876       9887       9886       9996       9997      10008      10007  
      9876       9877       9888       9887       9997       9998      10009      10008  
      9877       9878       9889       9888       9998       9999      10010      10009  
      9879       9880       9891       9890      10000      10001      10012      10011  
      9880       9881       9892       9891      10001      10002      10013      10012  
      9881       9882       9893       9892      10002      10003      10014      10013  
      9882       9883       9894       9893      10003      10004      10015      10014  
      9883       9884       9895       9894      10004      10005      10016      10015  
      9884       9885       9896       9895      10005      10006      10017      10016  
      9885       9886       9897       9896      10006      10007      10018      10017  
      9886       9887       9898       9897      10007      10008      10019      10018  
      9887       9888       9899       9898      10008      10009      10020      10019  
      9888       9889       9900       9899      10009      10010      10021      10020  
      9890       9891       9902       9901      10011      10012      10023      10022  
      9891       9892       9903       9902      10012      10013      10024      10023  
      9892       9893       9904       9903      10013      10014      10025      10024  
      9893       9894       9905       9904      10014      10015      10026      10025  
      9894       9895       9906       9905      10015      10016      10027      10026  
      9895       9896       9907       9906      10016      10017      10028      10027  
      9896       9897       9908       9907      10017      10018      10029      10028  
      9897       9898       9909       9908      10018      10019      10030      10029  
      9898       9899       9910       9909      10019      10020      10031      10030  
      9899       9900       9911       9910      10020      10021      10032      10031  
      9901       9902       9913       9912      10022      10023      10034      10033  
      9902       9903       9914       9913      10023      10024      10035      10034  
      9903       9904       9915       9914      10024      10025      10036      10035  
      9904       9905       9916       9915      10025      10026      10037      10036  
      9905       9906       9917       9916      10026      10027      10038      10037  
      9906       9907       9918       9917      10027      10028      10039      10038  
      9907       9908       9919       9918      10028      10029      10040      10039  
      9908       9909       9920       9919      10029      10030      10041      10040  
      9909       9910       9921       9920      10030      10031      10042      10041  
      9910       9911       9922       9921      10031      10032      10043      10042  
      9923       9924       9935       9934      10044      10045      10056      10055  
      9924       9925       9936       9935      10045      10046      10057      10056  
      9925       9926       9937       9936      10046      10047      10058      10057  
      9926       9927       9938       9937      10047      10048      10059      10058  
      9927       9928       9939       9938      10048      10049      10060      10059  
      9928       9929       9940       9939      10049      10050      10061      10060  
      9929       9930       9941       9940      10050      10051      10062      10061  
      9930       9931       9942       9941      10051      10052      10063      10062  
      9931       9932       9943       9942      10052      10053      10064      10063  
      9932       9933       9944       9943      10053      10054      10065      10064  
      9934       9935       9946       9945      10055      10056      10067      10066  
      9935       9936       9947       9946      10056      10057      10068      10067  
      9936       9937       9948       9947      10057      10058      10069      10068  
      9937       9938       9949       9948      10058      10059      10070      10069  
      9938       9939       9950       9949      10059      10060      10071      10070  
      9939       9940       9951       9950      10060      10061      10072      10071  
      9940       9941       9952       9951      10061      10062      10073      10072  
      9941       9942       9953       9952      10062      10063      10074      10073  
      9942       9943       9954       9953      10063      10064      10075      10074  
      9943       9944       9955       9954      10064      10065      10076      10075  
      9945       9946       9957       9956      10066      10067      10078      10077  
      9946       9947       9958       9957      10067      10068      10079      10078  
      9947       9948       9959       9958      10068      10069      10080      10079  
      9948       9949       9960       9959      10069      10070      10081      10080  
      9949       9950       9961       9960      10070      10071      10082      10081  
      9950       9951       9962       9961      10071      10072      10083      10082  
      9951       9952       9963       9962      10072      10073      10084      10083  
      9952       9953       9964       9963      10073      10074      10085      10084  
      9953       9954       9965       9964      10074      10075      10086      10085  
      9954       9955       9966       9965      10075      10076      10087      10086  
      9956       9957       9968       9967      10077      10078      10089      10088  
      9957       9958       9969       9968      10078      10079      10090      10089  
      9958       9959       9970       9969      10079      10080      10091      10090  
      9959       9960       9971       9970      10080      10081      10092      10091  
      9960       9961       9972       9971      10081      10082      10093      10092  
      9961       9962       9973       9972      10082      10083      10094      10093  
      9962       9963       9974       9973      10083      10084      10095      10094  
      9963       9964       9975       9974      10084      10085      10096      10095  
      9964       9965       9976       9975      10085      10086      10097      10096  
      9965       9966       9977       9976      10086      10087      10098      10097  
      9967       9968       9979       9978      10088      10089      10100      10099  
      9968       9969       9980       9979      10089      10090      10101      10100  
      9969       9970       9981       9980      10090      10091      10102      10101  
      9970       9971       9982       9981      10091      10092      10103      10102  
      9971       9972       9983       9982      10092      10093      10104      10103  
      9972       9973       9984       9983      10093      10094      10105      10104  
      9973       9974       9985       9984      10094      10095      10106      10105  
      9974       9975       9986       9985      10095      10096      10107      10106  
      9975       9976       9987       9986      10096      10097      10108      10107  
      9976       9977       9988       9987      10097      10098      10109      10108  
      9978       9979       9990       9989      10099      10100      10111      10110  
      9979       9980       9991       9990      10100      10101      10112      10111  
      9980       9981       9992       9991      10101      10102      10113      10112  
      9981       9982       9993       9992      10102      10103      10114      10113  
      9982       9983       9994       9993      10103      10104      10115      10114  
      9983       9984       9995       9994      10104      10105      10116      10115  
      9984       9985       9996       9995      10105      10106      10117      10116  
      9985       9986       9997       9996      10106      10107      10118      10117  
      9986       9987       9998       9997      10107      10108      10119      10118  
      9987       9988       9999       9998      10108      10109      10120      10119  
      9989       9990      10001      10000      10110      10111      10122      10121  
      9990       9991      10002      10001      10111      10112      10123      10122  
      9991       9992      10003      10002      10112      10113      10124      10123  
      9992       9993      10004      10003      10113      10114      10125      10124  
      9993       9994      10005      10004      10114      10115      10126      10125  
      9994       9995      10006      10005      10115      10116      10127      10126  
      9995       9996      10007      10006      10116      10117      10128      10127  
      9996       9997      10008      10007      10117      10118      10129      10128  
      9997       9998      10009      10008      10118      10119      10130      10129  
      9998       9999      10010      10009      10119      10120      10131      10130  
     10000      10001      10012      10011      10121      10122      10133      10132  
     10001      10002      10013      10012      10122      10123      10134      10133  
     10002      10003      10014      10013      10123      10124      10135      10134  
     10003      10004      10015      10014      10124      10125      10136      10135  
     10004      10005      10016      10015      10125      10126      10137      10136  
     10005      10006      10017      10016      10126      10127      10138      10137  
     10006      10007      10018      10017      10127      10128      10139      10138  
     10007      10008      10019      10018      10128      10129      10140      10139  
     10008      10009      10020      10019      10129      10130      10141      10140  
     10009      10010      10021      10020      10130      10131      10142      10141  
     10011      10012      10023      10022      10132      10133      10144      10143  
     10012      10013      10024      10023      10133      10134      10145      10144  
     10013      10014      10025      10024      10134      10135      10146      10145  
     10014      10015      10026      10025      10135      10136      10147      10146  
     10015      10016      10027      10026      10136      10137      10148      10147  
     10016      10017      10028      10027      10137      10138      10149      10148  
     10017      10018      10029      10028      10138      10139      10150      10149  
     10018      10019      10030      10029      10139      10140      10151      10150  
     10019      10020      10031      10030      10140      10141      10152      10151  
     10020      10021      10032      10031      10141      10142      10153      10152  
     10022      10023      10034      10033      10143      10144      10155      10154  
     10023      10024      10035      10034      10144      10145      10156      10155  
     10024      10025      10036      10035      10145      10146      10157      10156  
     10025      10026      10037      10036      10146      10147      10158      10157  
     10026      10027      10038      10037      10147      10148      10159      10158  
     10027      10028      10039      10038      10148      10149      10160      10159  
     10028      10029      10040      10039      10149      10150      10161      10160  
     10029      10030      10041      10040      10150      10151      10162      10161  
     10030      10031      10042      10041      10151      10152      10163      10162  
     10031      10032      10043      10042      10152      10153      10164      10163  
     10044      10045      10056      10055      10165      10166      10177      10176  
     10045      10046      10057      10056      10166      10167      10178      10177  
     10046      10047      10058      10057      10167      10168      10179      10178  
     10047      10048      10059      10058      10168      10169      10180      10179  
     10048      10049      10060      10059      10169      10170      10181      10180  
     10049      10050      10061      10060      10170      10171      10182      10181  
     10050      10051      10062      10061      10171      10172      10183      10182  
     10051      10052      10063      10062      10172      10173      10184      10183  
     10052      10053      10064      10063      10173      10174      10185      10184  
     10053      10054      10065      10064      10174      10175      10186      10185  
     10055      10056      10067      10066      10176      10177      10188      10187  
     10056      10057      10068      10067      10177      10178      10189      10188  
     10057      10058      10069      10068      10178      10179      10190      10189  
     10058      10059      10070      10069      10179      10180      10191      10190  
     10059      10060      10071      10070      10180      10181      10192      10191  
     10060      10061      10072      10071      10181      10182      10193      10192  
     10061      10062      10073      10072      10182      10183      10194      10193  
     10062      10063      10074      10073      10183      10184      10195      10194  
     10063      10064      10075      10074      10184      10185      10196      10195  
     10064      10065      10076      10075      10185      10186      10197      10196  
     10066      10067      10078      10077      10187      10188      10199      10198  
     10067      10068      10079      10078      10188      10189      10200      10199  
     10068      10069      10080      10079      10189      10190      10201      10200  
     10069      10070      10081      10080      10190      10191      10202      10201  
     10070      10071      10082      10081      10191      10192      10203      10202  
     10071      10072      10083      10082      10192      10193      10204      10203  
     10072      10073      10084      10083      10193      10194      10205      10204  
     10073      10074      10085      10084      10194      10195      10206      10205  
     10074      10075      10086      10085      10195      10196      10207      10206  
     10075      10076      10087      10086      10196      10197      10208      10207  
     10077      10078      10089      10088      10198      10199      10210      10209  
     10078      10079      10090      10089      10199      10200      10211      10210  
     10079      10080      10091      10090      10200      10201      10212      10211  
     10080      10081      10092      10091      10201      10202      10213      10212  
     10081      10082      10093      10092      10202      10203      10214      10213  
     10082      10083      10094      10093      10203      10204      10215      10214  
     10083      10084      10095      10094      10204      10205      10216      10215  
     10084      10085      10096      10095      10205      10206      10217      10216  
     10085      10086      10097      10096      10206      10207      10218      10217  
     10086      10087      10098      10097      10207      10208      10219      10218  
     10088      10089      10100      10099      10209      10210      10221      10220  
     10089      10090      10101      10100      10210      10211      10222      10221  
     10090      10091      10102      10101      10211      10212      10223      10222  
     10091      10092      10103      10102      10212      10213      10224      10223  
     10092      10093      10104      10103      10213      10214      10225      10224  
     10093      10094      10105      10104      10214      10215      10226      10225  
     10094      10095      10106      10105      10215      10216      10227      10226  
     10095      10096      10107      10106      10216      10217      10228      10227  
     10096      10097      10108      10107      10217      10218      10229      10228  
     10097      10098      10109      10108      10218      10219      10230      10229  
     10099      10100      10111      10110      10220      10221      10232      10231  
     10100      10101      10112      10111      10221      10222      10233      10232  
     10101      10102      10113      10112      10222      10223      10234      10233  
     10102      10103      10114      10113      10223      10224      10235      10234  
     10103      10104      10115      10114      10224      10225      10236      10235  
     10104      10105      10116      10115      10225      10226      10237      10236  
     10105      10106      10117      10116      10226      10227      10238      10237  
     10106      10107      10118      10117      10227      10228      10239      10238  
     10107      10108      10119      10118      10228      10229      10240      10239  
     10108      10109      10120      10119      10229      10230      10241      10240  
     10110      10111      10122      10121      10231      10232      10243      10242  
     10111      10112      10123      10122      10232      10233      10244      10243  
     10112      10113      10124      10123      10233      10234      10245      10244  
     10113      10114      10125      10124      10234      10235      10246      10245  
     10114      10115      10126      10125      10235      10236      10247      10246  
     10115      10116      10127      10126      10236      10237      10248      10247  
     10116      10117      10128      10127      10237      10238      10249      10248  
     10117      10118      10129      10128      10238      10239      10250      10249  
     10118      10119      10130      10129      10239      10240      10251      10250  
     10119      10120      10131      10130      10240      10241      10252      10251  
     10121      10122      10133      10132      10242      10243      10254      10253  
     10122      10123      10134      10133      10243      10244      10255      10254  
     10123      10124      10135      10134      10244      10245      10256      10255  
     10124      10125      10136      10135      10245      10246      10257      10256  
     10125      10126      10137      10136      10246      10247      10258      10257  
     10126      10127      10138      10137      10247      10248      10259      10258  
     10127      10128      10139      10138      10248      10249      10260      10259  
     10128      10129      10140      10139      10249      10250      10261      10260  
     10129      10130      10141      10140      10250      10251      10262      10261  
     10130      10131      10142      10141      10251      10252      10263      10262  
     10132      10133      10144      10143      10253      10254      10265      10264  
     10133      10134      10145      10144      10254      10255      10266      10265  
     10134      10135      10146      10145      10255      10256      10267      10266  
     10135      10136      10147      10146      10256      10257      10268      10267  
     10136      10137      10148      10147      10257      10258      10269      10268  
     10137      10138      10149      10148      10258      10259      10270      10269  
     10138      10139      10150      10149      10259      10260      10271      10270  
     10139      10140      10151      10150      10260      10261      10272      10271  
     10140      10141      10152      10151      10261      10262      10273      10272  
     10141      10142      10153      10152      10262      10263      10274      10273  
     10143      10144      10155      10154      10264      10265      10276      10275  
     10144      10145      10156      10155      10265      10266      10277      10276  
     10145      10146      10157      10156      10266      10267      10278      10277  
     10146      10147      10158      10157      10267      10268      10279      10278  
     10147      10148      10159      10158      10268      10269      10280      10279  
     10148      10149      10160      10159      10269      10270      10281      10280  
     10149      10150      10161      10160      10270      10271      10282      10281  
     10150      10151      10162      10161      10271      10272      10283      10282  
     10151      10152      10163      10162      10272      10273      10284      10283  
     10152      10153      10164      10163      10273      10274      10285      10284  
     10165      10166      10177      10176      10286      10287      10298      10297  
     10166      10167      10178      10177      10287      10288      10299      10298  
     10167      10168      10179      10178      10288      10289      10300      10299  
     10168      10169      10180      10179      10289      10290      10301      10300  
     10169      10170      10181      10180      10290      10291      10302      10301  
     10170      10171      10182      10181      10291      10292      10303      10302  
     10171      10172      10183      10182      10292      10293      10304      10303  
     10172      10173      10184      10183      10293      10294      10305      10304  
     10173      10174      10185      10184      10294      10295      10306      10305  
     10174      10175      10186      10185      10295      10296      10307      10306  
     10176      10177      10188      10187      10297      10298      10309      10308  
     10177      10178      10189      10188      10298      10299      10310      10309  
     10178      10179      10190      10189      10299      10300      10311      10310  
     10179      10180      10191      10190      10300      10301      10312      10311  
     10180      10181      10192      10191      10301      10302      10313      10312  
     10181      10182      10193      10192      10302      10303      10314      10313  
     10182      10183      10194      10193      10303      10304      10315      10314  
     10183      10184      10195      10194      10304      10305      10316      10315  
     10184      10185      10196      10195      10305      10306      10317      10316  
     10185      10186      10197      10196      10306      10307      10318      10317  
     10187      10188      10199      10198      10308      10309      10320      10319  
     10188      10189      10200      10199      10309      10310      10321      10320  
     10189      10190      10201      10200      10310      10311      10322      10321  
     10190      10191      10202      10201      10311      10312      10323      10322  
     10191      10192      10203      10202      10312      10313      10324      10323  
     10192      10193      10204      10203      10313      10314      10325      10324  
     10193      10194      10205      10204      10314      10315      10326      10325  
     10194      10195      10206      10205      10315      10316      10327      10326  
     10195      10196      10207      10206      10316      10317      10328      10327  
     10196      10197      10208      10207      10317      10318      10329      10328  
     10198      10199      10210      10209      10319      10320      10331      10330  
     10199      10200      10211      10210      10320      10321      10332      10331  
     10200      10201      10212      10211      10321      10322      10333      10332  
     10201      10202      10213      10212      10322      10323      10334      10333  
     10202      10203      10214      10213      10323      10324      10335      10334  
     10203      10204      10215      10214      10324      10325      10336      10335  
     10204      10205      10216      10215      10325      10326      10337      10336  
     10205      10206      10217      10216      10326      10327      10338      10337  
     10206      10207      10218      10217      10327      10328      10339      10338  
     10207      10208      10219      10218      10328      10329      10340      10339  
     10209      10210      10221      10220      10330      10331      10342      10341  
     10210      10211      10222      10221      10331      10332      10343      10342  
     10211      10212      10223      10222      10332      10333      10344      10343  
     10212      10213      10224      10223      10333      10334      10345      10344  
     10213      10214      10225      10224      10334      10335      10346      10345  
     10214      10215      10226      10225      10335      10336      10347      10346  
     10215      10216      10227      10226      10336      10337      10348      10347  
     10216      10217      10228      10227      10337      10338      10349      10348  
     10217      10218      10229      10228      10338      10339      10350      10349  
     10218      10219      10230      10229      10339      10340      10351      10350  
     10220      10221      10232      10231      10341      10342      10353      10352  
     10221      10222      10233      10232      10342      10343      10354      10353  
     10222      10223      10234      10233      10343      10344      10355      10354  
     10223      10224      10235      10234      10344      10345      10356      10355  
     10224      10225      10236      10235      10345      10346      10357      10356  
     10225      10226      10237      10236      10346      10347      10358      10357  
     10226      10227      10238      10237      10347      10348      10359      10358  
     10227      10228      10239      10238      10348      10349      10360      10359  
     10228      10229      10240      10239      10349      10350      10361      10360  
     10229      10230      10241      10240      10350      10351      10362      10361  
     10231      10232      10243      10242      10352      10353      10364      10363  
     10232      10233      10244      10243      10353      10354      10365      10364  
     10233      10234      10245      10244      10354      10355      10366      10365  
     10234      10235      10246      10245      10355      10356      10367      10366  
     10235      10236      10247      10246      10356      10357      10368      10367  
     10236      10237      10248      10247      10357      10358      10369      10368  
     10237      10238      10249      10248      10358      10359      10370      10369  
     10238      10239      10250      10249      10359      10360      10371      10370  
     10239      10240      10251      10250      10360      10361      10372      10371  
     10240      10241      10252      10251      10361      10362      10373      10372  
     10242      10243      10254      10253      10363      10364      10375      10374  
     10243      10244      10255      10254      10364      10365      10376      10375  
     10244      10245      10256      10255      10365      10366      10377      10376  
     10245      10246      10257      10256      10366      10367      10378      10377  
     10246      10247      10258      10257      10367      10368      10379      10378  
     10247      10248      10259      10258      10368      10369      10380      10379  
     10248      10249      10260      10259      10369      10370      10381      10380  
     10249      10250      10261      10260      10370      10371      10382      10381  
     10250      10251      10262      10261      10371      10372      10383      10382  
     10251      10252      10263      10262      10372      10373      10384      10383  
     10253      10254      10265      10264      10374      10375      10386      10385  
     10254      10255      10266      10265      10375      10376      10387      10386  
     10255      10256      10267      10266      10376      10377      10388      10387  
     10256      10257      10268      10267      10377      10378      10389      10388  
     10257      10258      10269      10268      10378      10379      10390      10389  
     10258      10259      10270      10269      10379      10380      10391      10390  
     10259      10260      10271      10270      10380      10381      10392      10391  
     10260      10261      10272      10271      10381      10382      10393      10392  
     10261      10262      10273      10272      10382      10383      10394      10393  
     10262      10263      10274      10273      10383      10384      10395      10394  
     10264      10265      10276      10275      10385      10386      10397      10396  
     10265      10266      10277      10276      10386      10387      10398      10397  
     10266      10267      10278      10277      10387      10388      10399      10398  
     10267      10268      10279      10278      10388      10389      10400      10399  
     10268      10269      10280      10279      10389      10390      10401      10400  
     10269      10270      10281      10280      10390      10391      10402      10401  
     10270      10271      10282      10281      10391      10392      10403      10402  
     10271      10272      10283      10282      10392      10393      10404      10403  
     10272      10273      10284      10283      10393      10394      10405      10404  
     10273      10274      10285      10284      10394      10395      10406      10405  
     10286      10287      10298      10297      10407      10408      10419      10418  
     10287      10288      10299      10298      10408      10409      10420      10419  
     10288      10289      10300      10299      10409      10410      10421      10420  
     10289      10290      10301      10300      10410      10411      10422      10421  
     10290      10291      10302      10301      10411      10412      10423      10422  
     10291      10292      10303      10302      10412      10413      10424      10423  
     10292      10293      10304      10303      10413      10414      10425      10424  
     10293      10294      10305      10304      10414      10415      10426      10425  
     10294      10295      10306      10305      10415      10416      10427      10426  
     10295      10296      10307      10306      10416      10417      10428      10427  
     10297      10298      10309      10308      10418      10419      10430      10429  
     10298      10299      10310      10309      10419      10420      10431      10430  
     10299      10300      10311      10310      10420      10421      10432      10431  
     10300      10301      10312      10311      10421      10422      10433      10432  
     10301      10302      10313      10312      10422      10423      10434      10433  
     10302      10303      10314      10313      10423      10424      10435      10434  
     10303      10304      10315      10314      10424      10425      10436      10435  
     10304      10305      10316      10315      10425      10426      10437      10436  
     10305      10306      10317      10316      10426      10427      10438      10437  
     10306      10307      10318      10317      10427      10428      10439      10438  
     10308      10309      10320      10319      10429      10430      10441      10440  
     10309      10310      10321      10320      10430      10431      10442      10441  
     10310      10311      10322      10321      10431      10432      10443      10442  
     10311      10312      10323      10322      10432      10433      10444      10443  
     10312      10313      10324      10323      10433      10434      10445      10444  
     10313      10314      10325      10324      10434      10435      10446      10445  
     10314      10315      10326      10325      10435      10436      10447      10446  
     10315      10316      10327      10326      10436      10437      10448      10447  
     10316      10317      10328      10327      10437      10438      10449      10448  
     10317      10318      10329      10328      10438      10439      10450      10449  
     10319      10320      10331      10330      10440      10441      10452      10451  
     10320      10321      10332      10331      10441      10442      10453      10452  
     10321      10322      10333      10332      10442      10443      10454      10453  
     10322      10323      10334      10333      10443      10444      10455      10454  
     10323      10324      10335      10334      10444      10445      10456      10455  
     10324      10325      10336      10335      10445      10446      10457      10456  
     10325      10326      10337      10336      10446      10447      10458      10457  
     10326      10327      10338      10337      10447      10448      10459      10458  
     10327      10328      10339      10338      10448      10449      10460      10459  
     10328      10329      10340      10339      10449      10450      10461      10460  
     10330      10331      10342      10341      10451      10452      10463      10462  
     10331      10332      10343      10342      10452      10453      10464      10463  
     10332      10333      10344      10343      10453      10454      10465      10464  
     10333      10334      10345      10344      10454      10455      10466      10465  
     10334      10335      10346      10345      10455      10456      10467      10466  
     10335      10336      10347      10346      10456      10457      10468      10467  
     10336      10337      10348      10347      10457      10458      10469      10468  
     10337      10338      10349      10348      10458      10459      10470      10469  
     10338      10339      10350      10349      10459      10460      10471      10470  
     10339      10340      10351      10350      10460      10461      10472      10471  
     10341      10342      10353      10352      10462      10463      10474      10473  
     10342      10343      10354      10353      10463      10464      10475      10474  
     10343      10344      10355      10354      10464      10465      10476      10475  
     10344      10345      10356      10355      10465      10466      10477      10476  
     10345      10346      10357      10356      10466      10467      10478      10477  
     10346      10347      10358      10357      10467      10468      10479      10478  
     10347      10348      10359      10358      10468      10469      10480      10479  
     10348      10349      10360      10359      10469      10470      10481      10480  
     10349      10350      10361      10360      10470      10471      10482      10481  
     10350      10351      10362      10361      10471      10472      10483      10482  
     10352      10353      10364      10363      10473      10474      10485      10484  
     10353      10354      10365      10364      10474      10475      10486      10485  
     10354      10355      10366      10365      10475      10476      10487      10486  
     10355      10356      10367      10366      10476      10477      10488      10487  
     10356      10357      10368      10367      10477      10478      10489      10488  
     10357      10358      10369      10368      10478      10479      10490      10489  
     10358      10359      10370      10369      10479      10480      10491      10490  
     10359      10360      10371      10370      10480      10481      10492      10491  
     10360      10361      10372      10371      10481      10482      10493      10492  
     10361      10362      10373      10372      10482      10483      10494      10493  
     10363      10364      10375      10374      10484      10485      10496      10495  
     10364      10365      10376      10375      10485      10486      10497      10496  
     10365      10366      10377      10376      10486      10487      10498      10497  
     10366      10367      10378      10377      10487      10488      10499      10498  
     10367      10368      10379      10378      10488      10489      10500      10499  
     10368      10369      10380      10379      10489      10490      10501      10500  
     10369      10370      10381      10380      10490      10491      10502      10501  
     10370      10371      10382      10381      10491      10492      10503      10502  
     10371      10372      10383      10382      10492      10493      10504      10503  
     10372      10373      10384      10383      10493      10494      10505      10504  
     10374      10375      10386      10385      10495      10496      10507      10506  
     10375      10376      10387      10386      10496      10497      10508      10507  
     10376      10377      10388      10387      10497      10498      10509      10508  
     10377      10378      10389      10388      10498      10499      10510      10509  
     10378      10379      10390      10389      10499      10500      10511      10510  
     10379      10380      10391      10390      10500      10501      10512      10511  
     10380      10381      10392      10391      10501      10502      10513      10512  
     10381      10382      10393      10392      10502      10503      10514      10513  
     10382      10383      10394      10393      10503      10504      10515      10514  
     10383      10384      10395      10394      10504      10505      10516      10515  
     10385      10386      10397      10396      10506      10507      10518      10517  
     10386      10387      10398      10397      10507      10508      10519      10518  
     10387      10388      10399      10398      10508      10509      10520      10519  
     10388      10389      10400      10399      10509      10510      10521      10520  
     10389      10390      10401      10400      10510      10511      10522      10521  
     10390      10391      10402      10401      10511      10512      10523      10522  
     10391      10392      10403      10402      10512      10513      10524      10523  
     10392      10393      10404      10403      10513      10514      10525      10524  
     10393      10394      10405      10404      10514      10515      10526      10525  
     10394      10395      10406      10405      10515      10516      10527      10526  
     10407      10408      10419      10418      10528      10529      10540      10539  
     10408      10409      10420      10419      10529      10530      10541      10540  
     10409      10410      10421      10420      10530      10531      10542      10541  
     10410      10411      10422      10421      10531      10532      10543      10542  
     10411      10412      10423      10422      10532      10533      10544      10543  
     10412      10413      10424      10423      10533      10534      10545      10544  
     10413      10414      10425      10424      10534      10535      10546      10545  
     10414      10415      10426      10425      10535      10536      10547      10546  
     10415      10416      10427      10426      10536      10537      10548      10547  
     10416      10417      10428      10427      10537      10538      10549      10548  
     10418      10419      10430      10429      10539      10540      10551      10550  
     10419      10420      10431      10430      10540      10541      10552      10551  
     10420      10421      10432      10431      10541      10542      10553      10552  
     10421      10422      10433      10432      10542      10543      10554      10553  
     10422      10423      10434      10433      10543      10544      10555      10554  
     10423      10424      10435      10434      10544      10545      10556      10555  
     10424      10425      10436      10435      10545      10546      10557      10556  
     10425      10426      10437      10436      10546      10547      10558      10557  
     10426      10427      10438      10437      10547      10548      10559      10558  
     10427      10428      10439      10438      10548      10549      10560      10559  
     10429      10430      10441      10440      10550      10551      10562      10561  
     10430      10431      10442      10441      10551      10552      10563      10562  
     10431      10432      10443      10442      10552      10553      10564      10563  
     10432      10433      10444      10443      10553      10554      10565      10564  
     10433      10434      10445      10444      10554      10555      10566      10565  
     10434      10435      10446      10445      10555      10556      10567      10566  
     10435      10436      10447      10446      10556      10557      10568      10567  
     10436      10437      10448      10447      10557      10558      10569      10568  
     10437      10438      10449      10448      10558      10559      10570      10569  
     10438      10439      10450      10449      10559      10560      10571      10570  
     10440      10441      10452      10451      10561      10562      10573      10572  
     10441      10442      10453      10452      10562      10563      10574      10573  
     10442      10443      10454      10453      10563      10564      10575      10574  
     10443      10444      10455      10454      10564      10565      10576      10575  
     10444      10445      10456      10455      10565      10566      10577      10576  
     10445      10446      10457      10456      10566      10567      10578      10577  
     10446      10447      10458      10457      10567      10568      10579      10578  
     10447      10448      10459      10458      10568      10569      10580      10579  
     10448      10449      10460      10459      10569      10570      10581      10580  
     10449      10450      10461      10460      10570      10571      10582      10581  
     10451      10452      10463      10462      10572      10573      10584      10583  
     10452      10453      10464      10463      10573      10574      10585      10584  
     10453      10454      10465      10464      10574      10575      10586      10585  
     10454      10455      10466      10465      10575      10576      10587      10586  
     10455      10456      10467      10466      10576      10577      10588      10587  
     10456      10457      10468      10467      10577      10578      10589      10588  
     10457      10458      10469      10468      10578      10579      10590      10589  
     10458      10459      10470      10469      10579      10580      10591      10590  
     10459      10460      10471      10470      10580      10581      10592      10591  
     10460      10461      10472      10471      10581      10582      10593      10592  
     10462      10463      10474      10473      10583      10584      10595      10594  
     10463      10464      10475      10474      10584      10585      10596      10595  
     10464      10465      10476      10475      10585      10586      10597      10596  
     10465      10466      10477      10476      10586      10587      10598      10597  
     10466      10467      10478      10477      10587      10588      10599      10598  
     10467      10468      10479      10478      10588      10589      10600      10599  
     10468      10469      10480      10479      10589      10590      10601      10600  
     10469      10470      10481      10480      10590      10591      10602      10601  
     10470      10471      10482      10481      10591      10592      10603      10602  
     10471      10472      10483      10482      10592      10593      10604      10603  
     10473      10474      10485      10484      10594      10595      10606      10605  
     10474      10475      10486      10485      10595      10596      10607      10606  
     10475      10476      10487      10486      10596      10597      10608      10607  
     10476      10477      10488      10487      10597      10598      10609      10608  
     10477      10478      10489      10488      10598      10599      10610      10609  
     10478      10479      10490      10489      10599      10600      10611      10610  
     10479      10480      10491      10490      10600      10601      10612      10611  
     10480      10481      10492      10491      10601      10602      10613      10612  
     10481      10482      10493      10492      10602      10603      10614      10613  
     10482      10483      10494      10493      10603      10604      10615      10614  
     10484      10485      10496      10495      10605      10606      10617      10616  
     10485      10486      10497      10496      10606      10607      10618      10617  
     10486      10487      10498      10497      10607      10608      10619      10618  
     10487      10488      10499      10498      10608      10609      10620      10619  
     10488      10489      10500      10499      10609      10610      10621      10620  
     10489      10490      10501      10500      10610      10611      10622      10621  
     10490      10491      10502      10501      10611      10612      10623      10622  
     10491      10492      10503      10502      10612      10613      10624      10623  
     10492      10493      10504      10503      10613      10614      10625      10624  
     10493      10494      10505      10504      10614      10615      10626      10625  
     10495      10496      10507      10506      10616      10617      10628      10627  
     10496      10497      10508      10507      10617      10618      10629      10628  
     10497      10498      10509      10508      10618      10619      10630      10629  
     10498      10499      10510      10509      10619      10620      10631      10630  
     10499      10500      10511      10510      10620      10621      10632      10631  
     10500      10501      10512      10511      10621      10622      10633      10632  
     10501      10502      10513      10512      10622      10623      10634      10633  
     10502      10503      10514      10513      10623      10624      10635      10634  
     10503      10504      10515      10514      10624      10625      10636      10635  
     10504      10505      10516      10515      10625      10626      10637      10636  
     10506      10507      10518      10517      10627      10628      10639      10638  
     10507      10508      10519      10518      10628      10629      10640      10639  
     10508      10509      10520      10519      10629      10630      10641      10640  
     10509      10510      10521      10520      10630      10631      10642      10641  
     10510      10511      10522      10521      10631      10632      10643      10642  
     10511      10512      10523      10522      10632      10633      10644      10643  
     10512      10513      10524      10523      10633      10634      10645      10644  
     10513      10514      10525      10524      10634      10635      10646      10645  
     10514      10515      10526      10525      10635      10636      10647      10646  
     10515      10516      10527      10526      10636      10637      10648      10647  
     10528      10529      10540      10539      10649      10650      10661      10660  
     10529      10530      10541      10540      10650      10651      10662      10661  
     10530      10531      10542      10541      10651      10652      10663      10662  
     10531      10532      10543      10542      10652      10653      10664      10663  
     10532      10533      10544      10543      10653      10654      10665      10664  
     10533      10534      10545      10544      10654      10655      10666      10665  
     10534      10535      10546      10545      10655      10656      10667      10666  
     10535      10536      10547      10546      10656      10657      10668      10667  
     10536      10537      10548      10547      10657      10658      10669      10668  
     10537      10538      10549      10548      10658      10659      10670      10669  
     10539      10540      10551      10550      10660      10661      10672      10671  
     10540      10541      10552      10551      10661      10662      10673      10672  
     10541      10542      10553      10552      10662      10663      10674      10673  
     10542      10543      10554      10553      10663      10664      10675      10674  
     10543      10544      10555      10554      10664      10665      10676      10675  
     10544      10545      10556      10555      10665      10666      10677      10676  
     10545      10546      10557      10556      10666      10667      10678      10677  
     10546      10547      10558      10557      10667      10668      10679      10678  
     10547      10548      10559      10558      10668      10669      10680      10679  
     10548      10549      10560      10559      10669      10670      10681      10680  
     10550      10551      10562      10561      10671      10672      10683      10682  
     10551      10552      10563      10562      10672      10673      10684      10683  
     10552      10553      10564      10563      10673      10674      10685      10684  
     10553      10554      10565      10564      10674      10675      10686      10685  
     10554      10555      10566      10565      10675      10676      10687      10686  
     10555      10556      10567      10566      10676      10677      10688      10687  
     10556      10557      10568      10567      10677      10678      10689      10688  
     10557      10558      10569      10568      10678      10679      10690      10689  
     10558      10559      10570      10569      10679      10680      10691      10690  
     10559      10560      10571      10570      10680      10681      10692      10691  
     10561      10562      10573      10572      10682      10683      10694      10693  
     10562      10563      10574      10573      10683      10684      10695      10694  
     10563      10564      10575      10574      10684      10685      10696      10695  
     10564      10565      10576      10575      10685      10686      10697      10696  
     10565      10566      10577      10576      10686      10687      10698      10697  
     10566      10567      10578      10577      10687      10688      10699      10698  
     10567      10568      10579      10578      10688      10689      10700      10699  
     10568      10569      10580      10579      10689      10690      10701      10700  
     10569      10570      10581      10580      10690      10691      10702      10701  
     10570      10571      10582      10581      10691      10692      10703      10702  
     10572      10573      10584      10583      10693      10694      10705      10704  
     10573      10574      10585      10584      10694      10695      10706      10705  
     10574      10575      10586      10585      10695      10696      10707      10706  
     10575      10576      10587      10586      10696      10697      10708      10707  
     10576      10577      10588      10587      10697      10698      10709      10708  
     10577      10578      10589      10588      10698      10699      10710      10709  
     10578      10579      10590      10589      10699      10700      10711      10710  
     10579      10580      10591      10590      10700      10701      10712      10711  
     10580      10581      10592      10591      10701      10702      10713      10712  
     10581      10582      10593      10592      10702      10703      10714      10713  
     10583      10584      10595      10594      10704      10705      10716      10715  
     10584      10585      10596      10595      10705      10706      10717      10716  
     10585      10586      10597      10596      10706      10707      10718      10717  
     10586      10587      10598      10597      10707      10708      10719      10718  
     10587      10588      10599      10598      10708      10709      10720      10719  
     10588      10589      10600      10599      10709      10710      10721      10720  
     10589      10590      10601      10600      10710      10711      10722      10721  
     10590      10591      10602      10601      10711      10712      10723      10722  
     10591      10592      10603      10602      10712      10713      10724      10723  
     10592      10593      10604      10603      10713      10714      10725      10724  
     10594      10595      10606      10605      10715      10716      10727      10726  
     10595      10596      10607      10606      10716      10717      10728      10727  
     10596      10597      10608      10607      10717      10718      10729      10728  
     10597      10598      10609      10608      10718      10719      10730      10729  
     10598      10599      10610      10609      10719      10720      10731      10730  
     10599      10600      10611      10610      10720      10721      10732      10731  
     10600      10601      10612      10611      10721      10722      10733      10732  
     10601      10602      10613      10612      10722      10723      10734      10733  
     10602      10603      10614      10613      10723      10724      10735      10734  
     10603      10604      10615      10614      10724      10725      10736      10735  
     10605      10606      10617      10616      10726      10727      10738      10737  
     10606      10607      10618      10617      10727      10728      10739      10738  
     10607      10608      10619      10618      10728      10729      10740      10739  
     10608      10609      10620      10619      10729      10730      10741      10740  
     10609      10610      10621      10620      10730      10731      10742      10741  
     10610      10611      10622      10621      10731      10732      10743      10742  
     10611      10612      10623      10622      10732      10733      10744      10743  
     10612      10613      10624      10623      10733      10734      10745      10744  
     10613      10614      10625      10624      10734      10735      10746      10745  
     10614      10615      10626      10625      10735      10736      10747      10746  
     10616      10617      10628      10627      10737      10738      10749      10748  
     10617      10618      10629      10628      10738      10739      10750      10749  
     10618      10619      10630      10629      10739      10740      10751      10750  
     10619      10620      10631      10630      10740      10741      10752      10751  
     10620      10621      10632      10631      10741      10742      10753      10752  
     10621      10622      10633      10632      10742      10743      10754      10753  
     10622      10623      10634      10633      10743      10744      10755      10754  
     10623      10624      10635      10634      10744      10745      10756      10755  
     10624      10625      10636      10635      10745      10746      10757      10756  
     10625      10626      10637      10636      10746      10747      10758      10757  
     10627      10628      10639      10638      10748      10749      10760      10759  
     10628      10629      10640      10639      10749      10750      10761      10760  
     10629      10630      10641      10640      10750      10751      10762      10761  
     10630      10631      10642      10641      10751      10752      10763      10762  
     10631      10632      10643      10642      10752      10753      10764      10763  
     10632      10633      10644      10643      10753      10754      10765      10764  
     10633      10634      10645      10644      10754      10755      10766      10765  
     10634      10635      10646      10645      10755      10756      10767      10766  
     10635      10636      10647      10646      10756      10757      10768      10767  
     10636      10637      10648      10647      10757      10758      10769      10768  
     10649      10650      10661      10660      10770      10771      10782      10781  
     10650      10651      10662      10661      10771      10772      10783      10782  
     10651      10652      10663      10662      10772      10773      10784      10783  
     10652      10653      10664      10663      10773      10774      10785      10784  
     10653      10654      10665      10664      10774      10775      10786      10785  
     10654      10655      10666      10665      10775      10776      10787      10786  
     10655      10656      10667      10666      10776      10777      10788      10787  
     10656      10657      10668      10667      10777      10778      10789      10788  
     10657      10658      10669      10668      10778      10779      10790      10789  
     10658      10659      10670      10669      10779      10780      10791      10790  
     10660      10661      10672      10671      10781      10782      10793      10792  
     10661      10662      10673      10672      10782      10783      10794      10793  
     10662      10663      10674      10673      10783      10784      10795      10794  
     10663      10664      10675      10674      10784      10785      10796      10795  
     10664      10665      10676      10675      10785      10786      10797      10796  
     10665      10666      10677      10676      10786      10787      10798      10797  
     10666      10667      10678      10677      10787      10788      10799      10798  
     10667      10668      10679      10678      10788      10789      10800      10799  
     10668      10669      10680      10679      10789      10790      10801      10800  
     10669      10670      10681      10680      10790      10791      10802      10801  
     10671      10672      10683      10682      10792      10793      10804      10803  
     10672      10673      10684      10683      10793      10794      10805      10804  
     10673      10674      10685      10684      10794      10795      10806      10805  
     10674      10675      10686      10685      10795      10796      10807      10806  
     10675      10676      10687      10686      10796      10797      10808      10807  
     10676      10677      10688      10687      10797      10798      10809      10808  
     10677      10678      10689      10688      10798      10799      10810      10809  
     10678      10679      10690      10689      10799      10800      10811      10810  
     10679      10680      10691      10690      10800      10801      10812      10811  
     10680      10681      10692      10691      10801      10802      10813      10812  
     10682      10683      10694      10693      10803      10804      10815      10814  
     10683      10684      10695      10694      10804      10805      10816      10815  
     10684      10685      10696      10695      10805      10806      10817      10816  
     10685      10686      10697      10696      10806      10807      10818      10817  
     10686      10687      10698      10697      10807      10808      10819      10818  
     10687      10688      10699      10698      10808      10809      10820      10819  
     10688      10689      10700      10699      10809      10810      10821      10820  
     10689      10690      10701      10700      10810      10811      10822      10821  
     10690      10691      10702      10701      10811      10812      10823      10822  
     10691      10692      10703      10702      10812      10813      10824      10823  
     10693      10694      10705      10704      10814      10815      10826      10825  
     10694      10695      10706      10705      10815      10816      10827      10826  
     10695      10696      10707      10706      10816      10817      10828      10827  
     10696      10697      10708      10707      10817      10818      10829      10828  
     10697      10698      10709      10708      10818      10819      10830      10829  
     10698      10699      10710      10709      10819      10820      10831      10830  
     10699      10700      10711      10710      10820      10821      10832      10831  
     10700      10701      10712      10711      10821      10822      10833      10832  
     10701      10702      10713      10712      10822      10823      10834      10833  
     10702      10703      10714      10713      10823      10824      10835      10834  
     10704      10705      10716      10715      10825      10826      10837      10836  
     10705      10706      10717      10716      10826      10827      10838      10837  
     10706      10707      10718      10717      10827      10828      10839      10838  
     10707      10708      10719      10718      10828      10829      10840      10839  
     10708      10709      10720      10719      10829      10830      10841      10840  
     10709      10710      10721      10720      10830      10831      10842      10841  
     10710      10711      10722      10721      10831      10832      10843      10842  
     10711      10712      10723      10722      10832      10833      10844      10843  
     10712      10713      10724      10723      10833      10834      10845      10844  
     10713      10714      10725      10724      10834      10835      10846      10845  
     10715      10716      10727      10726      10836      10837      10848      10847  
     10716      10717      10728      10727      10837      10838      10849      10848  
     10717      10718      10729      10728      10838      10839      10850      10849  
     10718      10719      10730      10729      10839      10840      10851      10850  
     10719      10720      10731      10730      10840      10841      10852      10851  
     10720      10721      10732      10731      10841      10842      10853      10852  
     10721      10722      10733      10732      10842      10843      10854      10853  
     10722      10723      10734      10733      10843      10844      10855      10854  
     10723      10724      10735      10734      10844      10845      10856      10855  
     10724      10725      10736      10735      10845      10846      10857      10856  
     10726      10727      10738      10737      10847      10848      10859      10858  
     10727      10728      10739      10738      10848      10849      10860      10859  
     10728      10729      10740      10739      10849      10850      10861      10860  
     10729      10730      10741      10740      10850      10851      10862      10861  
     10730      10731      10742      10741      10851      10852      10863      10862  
     10731      10732      10743      10742      10852      10853      10864      10863  
     10732      10733      10744      10743      10853      10854      10865      10864  
     10733      10734      10745      10744      10854      10855      10866      10865  
     10734      10735      10746      10745      10855      10856      10867      10866  
     10735      10736      10747      10746      10856      10857      10868      10867  
     10737      10738      10749      10748      10858      10859      10870      10869  
     10738      10739      10750      10749      10859      10860      10871      10870  
     10739      10740      10751      10750      10860      10861      10872      10871  
     10740      10741      10752      10751      10861      10862      10873      10872  
     10741      10742      10753      10752      10862      10863      10874      10873  
     10742      10743      10754      10753      10863      10864      10875      10874  
     10743      10744      10755      10754      10864      10865      10876      10875  
     10744      10745      10756      10755      10865      10866      10877      10876  
     10745      10746      10757      10756      10866      10867      10878      10877  
     10746      10747      10758      10757      10867      10868      10879      10878  
     10748      10749      10760      10759      10869      10870      10881      10880  
     10749      10750      10761      10760      10870      10871      10882      10881  
     10750      10751      10762      10761      10871      10872      10883      10882  
     10751      10752      10763      10762      10872      10873      10884      10883  
     10752      10753      10764      10763      10873      10874      10885      10884  
     10753      10754      10765      10764      10874      10875      10886      10885  
     10754      10755      10766      10765      10875      10876      10887      10886  
     10755      10756      10767      10766      10876      10877      10888      10887  
     10756      10757      10768      10767      10877      10878      10889      10888  
     10757      10758      10769      10768      10878      10879      10890      10889  
     10770      10771      10782      10781      10891      10892      10903      10902  
     10771      10772      10783      10782      10892      10893      10904      10903  
     10772      10773      10784      10783      10893      10894      10905      10904  
     10773      10774      10785      10784      10894      10895      10906      10905  
     10774      10775      10786      10785      10895      10896      10907      10906  
     10775      10776      10787      10786      10896      10897      10908      10907  
     10776      10777      10788      10787      10897      10898      10909      10908  
     10777      10778      10789      10788      10898      10899      10910      10909  
     10778      10779      10790      10789      10899      10900      10911      10910  
     10779      10780      10791      10790      10900      10901      10912      10911  
     10781      10782      10793      10792      10902      10903      10914      10913  
     10782      10783      10794      10793      10903      10904      10915      10914  
     10783      10784      10795      10794      10904      10905      10916      10915  
     10784      10785      10796      10795      10905      10906      10917      10916  
     10785      10786      10797      10796      10906      10907      10918      10917  
     10786      10787      10798      10797      10907      10908      10919      10918  
     10787      10788      10799      10798      10908      10909      10920      10919  
     10788      10789      10800      10799      10909      10910      10921      10920  
     10789      10790      10801      10800      10910      10911      10922      10921  
     10790      10791      10802      10801      10911      10912      10923      10922  
     10792      10793      10804      10803      10913      10914      10925      10924  
     10793      10794      10805      10804      10914      10915      10926      10925  
     10794      10795      10806      10805      10915      10916      10927      10926  
     10795      10796      10807      10806      10916      10917      10928      10927  
     10796      10797      10808      10807      10917      10918      10929      10928  
     10797      10798      10809      10808      10918      10919      10930      10929  
     10798      10799      10810      10809      10919      10920      10931      10930  
     10799      10800      10811      10810      10920      10921      10932      10931  
     10800      10801      10812      10811      10921      10922      10933      10932  
     10801      10802      10813      10812      10922      10923      10934      10933  
     10803      10804      10815      10814      10924      10925      10936      10935  
     10804      10805      10816      10815      10925      10926      10937      10936  
     10805      10806      10817      10816      10926      10927      10938      10937  
     10806      10807      10818      10817      10927      10928      10939      10938  
     10807      10808      10819      10818      10928      10929      10940      10939  
     10808      10809      10820      10819      10929      10930      10941      10940  
     10809      10810      10821      10820      10930      10931      10942      10941  
     10810      10811      10822      10821      10931      10932      10943      10942  
     10811      10812      10823      10822      10932      10933      10944      10943  
     10812      10813      10824      10823      10933      10934      10945      10944  
     10814      10815      10826      10825      10935      10936      10947      10946  
     10815      10816      10827      10826      10936      10937      10948      10947  
     10816      10817      10828      10827      10937      10938      10949      10948  
     10817      10818      10829      10828      10938      10939      10950      10949  
     10818      10819      10830      10829      10939      10940      10951      10950  
     10819      10820      10831      10830      10940      10941      10952      10951  
     10820      10821      10832      10831      10941      10942      10953      10952  
     10821      10822      10833      10832      10942      10943      10954      10953  
     10822      10823      10834      10833      10943      10944      10955      10954  
     10823      10824      10835      10834      10944      10945      10956      10955  
     10825      10826      10837      10836      10946      10947      10958      10957  
     10826      10827      10838      10837      10947      10948      10959      10958  
     10827      10828      10839      10838      10948      10949      10960      10959  
     10828      10829      10840      10839      10949      10950      10961      10960  
     10829      10830      10841      10840      10950      10951      10962      10961  
     10830      10831      10842      10841      10951      10952      10963      10962  
     10831      10832      10843      10842      10952      10953      10964      10963  
     10832      10833      10844      10843      10953      10954      10965      10964  
     10833      10834      10845      10844      10954      10955      10966      10965  
     10834      10835      10846      10845      10955      10956      10967      10966  
     10836      10837      10848      10847      10957      10958      10969      10968  
     10837      10838      10849      10848      10958      10959      10970      10969  
     10838      10839      10850      10849      10959      10960      10971      10970  
     10839      10840      10851      10850      10960      10961      10972      10971  
     10840      10841      10852      10851      10961      10962      10973      10972  
     10841      10842      10853      10852      10962      10963      10974      10973  
     10842      10843      10854      10853      10963      10964      10975      10974  
     10843      10844      10855      10854      10964      10965      10976      10975  
     10844      10845      10856      10855      10965      10966      10977      10976  
     10845      10846      10857      10856      10966      10967      10978      10977  
     10847      10848      10859      10858      10968      10969      10980      10979  
     10848      10849      10860      10859      10969      10970      10981      10980  
     10849      10850      10861      10860      10970      10971      10982      10981  
     10850      10851      10862      10861      10971      10972      10983      10982  
     10851      10852      10863      10862      10972      10973      10984      10983  
     10852      10853      10864      10863      10973      10974      10985      10984  
     10853      10854      10865      10864      10974      10975      10986      10985  
     10854      10855      10866      10865      10975      10976      10987      10986  
     10855      10856      10867      10866      10976      10977      10988      10987  
     10856      10857      10868      10867      10977      10978      10989      10988  
     10858      10859      10870      10869      10979      10980      10991      10990  
     10859      10860      10871      10870      10980      10981      10992      10991  
     10860      10861      10872      10871      10981      10982      10993      10992  
     10861      10862      10873      10872      10982      10983      10994      10993  
     10862      10863      10874      10873      10983      10984      10995      10994  
     10863      10864      10875      10874      10984      10985      10996      10995  
     10864      10865      10876      10875      10985      10986      10997      10996  
     10865      10866      10877      10876      10986      10987      10998      10997  
     10866      10867      10878      10877      10987      10988      10999      10998  
     10867      10868      10879      10878      10988      10989      11000      10999  
     10869      10870      10881      10880      10990      10991      11002      11001  
     10870      10871      10882      10881      10991      10992      11003      11002  
     10871      10872      10883      10882      10992      10993      11004      11003  
     10872      10873      10884      10883      10993      10994      11005      11004  
     10873      10874      10885      10884      10994      10995      11006      11005  
     10874      10875      10886      10885      10995      10996      11007      11006  
     10875      10876      10887      10886      10996      10997      11008      11007  
     10876      10877      10888      10887      10997      10998      11009      11008  
     10877      10878      10889      10888      10998      10999      11010      11009  
     10878      10879      10890      10889      10999      11000      11011      11010  
     10891      10892      10903      10902      11012      11013      11024      11023  
     10892      10893      10904      10903      11013      11014      11025      11024  
     10893      10894      10905      10904      11014      11015      11026      11025  
     10894      10895      10906      10905      11015      11016      11027      11026  
     10895      10896      10907      10906      11016      11017      11028      11027  
     10896      10897      10908      10907      11017      11018      11029      11028  
     10897      10898      10909      10908      11018      11019      11030      11029  
     10898      10899      10910      10909      11019      11020      11031      11030  
     10899      10900      10911      10910      11020      11021      11032      11031  
     10900      10901      10912      10911      11021      11022      11033      11032  
     10902      10903      10914      10913      11023      11024      11035      11034  
     10903      10904      10915      10914      11024      11025      11036      11035  
     10904      10905      10916      10915      11025      11026      11037      11036  
     10905      10906      10917      10916      11026      11027      11038      11037  
     10906      10907      10918      10917      11027      11028      11039      11038  
     10907      10908      10919      10918      11028      11029      11040      11039  
     10908      10909      10920      10919      11029      11030      11041      11040  
     10909      10910      10921      10920      11030      11031      11042      11041  
     10910      10911      10922      10921      11031      11032      11043      11042  
     10911      10912      10923      10922      11032      11033      11044      11043  
     10913      10914      10925      10924      11034      11035      11046      11045  
     10914      10915      10926      10925      11035      11036      11047      11046  
     10915      10916      10927      10926      11036      11037      11048      11047  
     10916      10917      10928      10927      11037      11038      11049      11048  
     10917      10918      10929      10928      11038      11039      11050      11049  
     10918      10919      10930      10929      11039      11040      11051      11050  
     10919      10920      10931      10930      11040      11041      11052      11051  
     10920      10921      10932      10931      11041      11042      11053      11052  
     10921      10922      10933      10932      11042      11043      11054      11053  
     10922      10923      10934      10933      11043      11044      11055      11054  
     10924      10925      10936      10935      11045      11046      11057      11056  
     10925      10926      10937      10936      11046      11047      11058      11057  
     10926      10927      10938      10937      11047      11048      11059      11058  
     10927      10928      10939      10938      11048      11049      11060      11059  
     10928      10929      10940      10939      11049      11050      11061      11060  
     10929      10930      10941      10940      11050      11051      11062      11061  
     10930      10931      10942      10941      11051      11052      11063      11062  
     10931      10932      10943      10942      11052      11053      11064      11063  
     10932      10933      10944      10943      11053      11054      11065      11064  
     10933      10934      10945      10944      11054      11055      11066      11065  
     10935      10936      10947      10946      11056      11057      11068      11067  
     10936      10937      10948      10947      11057      11058      11069      11068  
     10937      10938      10949      10948      11058      11059      11070      11069  
     10938      10939      10950      10949      11059      11060      11071      11070  
     10939      10940      10951      10950      11060      11061      11072      11071  
     10940      10941      10952      10951      11061      11062      11073      11072  
     10941      10942      10953      10952      11062      11063      11074      11073  
     10942      10943      10954      10953      11063      11064      11075      11074  
     10943      10944      10955      10954      11064      11065      11076      11075  
     10944      10945      10956      10955      11065      11066      11077      11076  
     10946      10947      10958      10957      11067      11068      11079      11078  
     10947      10948      10959      10958      11068      11069      11080      11079  
     10948      10949      10960      10959      11069      11070      11081      11080  
     10949      10950      10961      10960      11070      11071      11082      11081  
     10950      10951      10962      10961      11071      11072      11083      11082  
     10951      10952      10963      10962      11072      11073      11084      11083  
     10952      10953      10964      10963      11073      11074      11085      11084  
     10953      10954      10965      10964      11074      11075      11086      11085  
     10954      10955      10966      10965      11075      11076      11087      11086  
     10955      10956      10967      10966      11076      11077      11088      11087  
     10957      10958      10969      10968      11078      11079      11090      11089  
     10958      10959      10970      10969      11079      11080      11091      11090  
     10959      10960      10971      10970      11080      11081      11092      11091  
     10960      10961      10972      10971      11081      11082      11093      11092  
     10961      10962      10973      10972      11082      11083      11094      11093  
     10962      10963      10974      10973      11083      11084      11095      11094  
     10963      10964      10975      10974      11084      11085      11096      11095  
     10964      10965      10976      10975      11085      11086      11097      11096  
     10965      10966      10977      10976      11086      11087      11098      11097  
     10966      10967      10978      10977      11087      11088      11099      11098  
     10968      10969      10980      10979      11089      11090      11101      11100  
     10969      10970      10981      10980      11090      11091      11102      11101  
     10970      10971      10982      10981      11091      11092      11103      11102  
     10971      10972      10983      10982      11092      11093      11104      11103  
     10972      10973      10984      10983      11093      11094      11105      11104  
     10973      10974      10985      10984      11094      11095      11106      11105  
     10974      10975      10986      10985      11095      11096      11107      11106  
     10975      10976      10987      10986      11096      11097      11108      11107  
     10976      10977      10988      10987      11097      11098      11109      11108  
     10977      10978      10989      10988      11098      11099      11110      11109  
     10979      10980      10991      10990      11100      11101      11112      11111  
     10980      10981      10992      10991      11101      11102      11113      11112  
     10981      10982      10993      10992      11102      11103      11114      11113  
     10982      10983      10994      10993      11103      11104      11115      11114  
     10983      10984      10995      10994      11104      11105      11116      11115  
     10984      10985      10996      10995      11105      11106      11117      11116  
     10985      10986      10997      10996      11106      11107      11118      11117  
     10986      10987      10998      10997      11107      11108      11119      11118  
     10987      10988      10999      10998      11108      11109      11120      11119  
     10988      10989      11000      10999      11109      11110      11121      11120  
     10990      10991      11002      11001      11111      11112      11123      11122  
     10991      10992      11003      11002      11112      11113      11124      11123  
     10992      10993      11004      11003      11113      11114      11125      11124  
     10993      10994      11005      11004      11114      11115      11126      11125  
     10994      10995      11006      11005      11115      11116      11127      11126  
     10995      10996      11007      11006      11116      11117      11128      11127  
     10996      10997      11008      11007      11117      11118      11129      11128  
     10997      10998      11009      11008      11118      11119      11130      11129  
     10998      10999      11010      11009      11119      11120      11131      11130  
     10999      11000      11011      11010      11120      11121      11132      11131  
     11012      11013      11024      11023      11133      11134      11145      11144  
     11013      11014      11025      11024      11134      11135      11146      11145  
     11014      11015      11026      11025      11135      11136      11147      11146  
     11015      11016      11027      11026      11136      11137      11148      11147  
     11016      11017      11028      11027      11137      11138      11149      11148  
     11017      11018      11029      11028      11138      11139      11150      11149  
     11018      11019      11030      11029      11139      11140      11151      11150  
     11019      11020      11031      11030      11140      11141      11152      11151  
     11020      11021      11032      11031      11141      11142      11153      11152  
     11021      11022      11033      11032      11142      11143      11154      11153  
     11023      11024      11035      11034      11144      11145      11156      11155  
     11024      11025      11036      11035      11145      11146      11157      11156  
     11025      11026      11037      11036      11146      11147      11158      11157  
     11026      11027      11038      11037      11147      11148      11159      11158  
     11027      11028      11039      11038      11148      11149      11160      11159  
     11028      11029      11040      11039      11149      11150      11161      11160  
     11029      11030      11041      11040      11150      11151      11162      11161  
     11030      11031      11042      11041      11151      11152      11163      11162  
     11031      11032      11043      11042      11152      11153      11164      11163  
     11032      11033      11044      11043      11153      11154      11165      11164  
     11034      11035      11046      11045      11155      11156      11167      11166  
     11035      11036      11047      11046      11156      11157      11168      11167  
     11036      11037      11048      11047      11157      11158      11169      11168  
     11037      11038      11049      11048      11158      11159      11170      11169  
     11038      11039      11050      11049      11159      11160      11171      11170  
     11039      11040      11051      11050      11160      11161      11172      11171  
     11040      11041      11052      11051      11161      11162      11173      11172  
     11041      11042      11053      11052      11162      11163      11174      11173  
     11042      11043      11054      11053      11163      11164      11175      11174  
     11043      11044      11055      11054      11164      11165      11176      11175  
     11045      11046      11057      11056      11166      11167      11178      11177  
     11046      11047      11058      11057      11167      11168      11179      11178  
     11047      11048      11059      11058      11168      11169      11180      11179  
     11048      11049      11060      11059      11169      11170      11181      11180  
     11049      11050      11061      11060      11170      11171      11182      11181  
     11050      11051      11062      11061      11171      11172      11183      11182  
     11051      11052      11063      11062      11172      11173      11184      11183  
     11052      11053      11064      11063      11173      11174      11185      11184  
     11053      11054      11065      11064      11174      11175      11186      11185  
     11054      11055      11066      11065      11175      11176      11187      11186  
     11056      11057      11068      11067      11177      11178      11189      11188  
     11057      11058      11069      11068      11178      11179      11190      11189  
     11058      11059      11070      11069      11179      11180      11191      11190  
     11059      11060      11071      11070      11180      11181      11192      11191  
     11060      11061      11072      11071      11181      11182      11193      11192  
     11061      11062      11073      11072      11182      11183      11194      11193  
     11062      11063      11074      11073      11183      11184      11195      11194  
     11063      11064      11075      11074      11184      11185      11196      11195  
     11064      11065      11076      11075      11185      11186      11197      11196  
     11065      11066      11077      11076      11186      11187      11198      11197  
     11067      11068      11079      11078      11188      11189      11200      11199  
     11068      11069      11080      11079      11189      11190      11201      11200  
     11069      11070      11081      11080      11190      11191      11202      11201  
     11070      11071      11082      11081      11191      11192      11203      11202  
     11071      11072      11083      11082      11192      11193      11204      11203  
     11072      11073      11084      11083      11193      11194      11205      11204  
     11073      11074      11085      11084      11194      11195      11206      11205  
     11074      11075      11086      11085      11195      11196      11207      11206  
     11075      11076      11087      11086      11196      11197      11208      11207  
     11076      11077      11088      11087      11197      11198      11209      11208  
     11078      11079      11090      11089      11199      11200      11211      11210  
     11079      11080      11091      11090      11200      11201      11212      11211  
     11080      11081      11092      11091      11201      11202      11213      11212  
     11081      11082      11093      11092      11202      11203      11214      11213  
     11082      11083      11094      11093      11203      11204      11215      11214  
     11083      11084      11095      11094      11204      11205      11216      11215  
     11084      11085      11096      11095      11205      11206      11217      11216  
     11085      11086      11097      11096      11206      11207      11218      11217  
     11086      11087      11098      11097      11207      11208      11219      11218  
     11087      11088      11099      11098      11208      11209      11220      11219  
     11089      11090      11101      11100      11210      11211      11222      11221  
     11090      11091      11102      11101      11211      11212      11223      11222  
     11091      11092      11103      11102      11212      11213      11224      11223  
     11092      11093      11104      11103      11213      11214      11225      11224  
     11093      11094      11105      11104      11214      11215      11226      11225  
     11094      11095      11106      11105      11215      11216      11227      11226  
     11095      11096      11107      11106      11216      11217      11228      11227  
     11096      11097      11108      11107      11217      11218      11229      11228  
     11097      11098      11109      11108      11218      11219      11230      11229  
     11098      11099      11110      11109      11219      11220      11231      11230  
     11100      11101      11112      11111      11221      11222      11233      11232  
     11101      11102      11113      11112      11222      11223      11234      11233  
     11102      11103      11114      11113      11223      11224      11235      11234  
     11103      11104      11115      11114      11224      11225      11236      11235  
     11104      11105      11116      11115      11225      11226      11237      11236  
     11105      11106      11117      11116      11226      11227      11238      11237  
     11106      11107      11118      11117      11227      11228      11239      11238  
     11107      11108      11119      11118      11228      11229      11240      11239  
     11108      11109      11120      11119      11229      11230      11241      11240  
     11109      11110      11121      11120      11230      11231      11242      11241  
     11111      11112      11123      11122      11232      11233      11244      11243  
     11112      11113      11124      11123      11233      11234      11245      11244  
     11113      11114      11125      11124      11234      11235      11246      11245  
     11114      11115      11126      11125      11235      11236      11247      11246  
     11115      11116      11127      11126      11236      11237      11248      11247  
     11116      11117      11128      11127      11237      11238      11249      11248  
     11117      11118      11129      11128      11238      11239      11250      11249  
     11118      11119      11130      11129      11239      11240      11251      11250  
     11119      11120      11131      11130      11240      11241      11252      11251  
     11120      11121      11132      11131      11241      11242      11253      11252  
     11133      11134      11145      11144      11254      11255      11266      11265  
     11134      11135      11146      11145      11255      11256      11267      11266  
     11135      11136      11147      11146      11256      11257      11268      11267  
     11136      11137      11148      11147      11257      11258      11269      11268  
     11137      11138      11149      11148      11258      11259      11270      11269  
     11138      11139      11150      11149      11259      11260      11271      11270  
     11139      11140      11151      11150      11260      11261      11272      11271  
     11140      11141      11152      11151      11261      11262      11273      11272  
     11141      11142      11153      11152      11262      11263      11274      11273  
     11142      11143      11154      11153      11263      11264      11275      11274  
     11144      11145      11156      11155      11265      11266      11277      11276  
     11145      11146      11157      11156      11266      11267      11278      11277  
     11146      11147      11158      11157      11267      11268      11279      11278  
     11147      11148      11159      11158      11268      11269      11280      11279  
     11148      11149      11160      11159      11269      11270      11281      11280  
     11149      11150      11161      11160      11270      11271      11282      11281  
     11150      11151      11162      11161      11271      11272      11283      11282  
     11151      11152      11163      11162      11272      11273      11284      11283  
     11152      11153      11164      11163      11273      11274      11285      11284  
     11153      11154      11165      11164      11274      11275      11286      11285  
     11155      11156      11167      11166      11276      11277      11288      11287  
     11156      11157      11168      11167      11277      11278      11289      11288  
     11157      11158      11169      11168      11278      11279      11290      11289  
     11158      11159      11170      11169      11279      11280      11291      11290  
     11159      11160      11171      11170      11280      11281      11292      11291  
     11160      11161      11172      11171      11281      11282      11293      11292  
     11161      11162      11173      11172      11282      11283      11294      11293  
     11162      11163      11174      11173      11283      11284      11295      11294  
     11163      11164      11175      11174      11284      11285      11296      11295  
     11164      11165      11176      11175      11285      11286      11297      11296  
     11166      11167      11178      11177      11287      11288      11299      11298  
     11167      11168      11179      11178      11288      11289      11300      11299  
     11168      11169      11180      11179      11289      11290      11301      11300  
     11169      11170      11181      11180      11290      11291      11302      11301  
     11170      11171      11182      11181      11291      11292      11303      11302  
     11171      11172      11183      11182      11292      11293      11304      11303  
     11172      11173      11184      11183      11293      11294      11305      11304  
     11173      11174      11185      11184      11294      11295      11306      11305  
     11174      11175      11186      11185      11295      11296      11307      11306  
     11175      11176      11187      11186      11296      11297      11308      11307  
     11177      11178      11189      11188      11298      11299      11310      11309  
     11178      11179      11190      11189      11299      11300      11311      11310  
     11179      11180      11191      11190      11300      11301      11312      11311  
     11180      11181      11192      11191      11301      11302      11313      11312  
     11181      11182      11193      11192      11302      11303      11314      11313  
     11182      11183      11194      11193      11303      11304      11315      11314  
     11183      11184      11195      11194      11304      11305      11316      11315  
     11184      11185      11196      11195      11305      11306      11317      11316  
     11185      11186      11197      11196      11306      11307      11318      11317  
     11186      11187      11198      11197      11307      11308      11319      11318  
     11188      11189      11200      11199      11309      11310      11321      11320  
     11189      11190      11201      11200      11310      11311      11322      11321  
     11190      11191      11202      11201      11311      11312      11323      11322  
     11191      11192      11203      11202      11312      11313      11324      11323  
     11192      11193      11204      11203      11313      11314      11325      11324  
     11193      11194      11205      11204      11314      11315      11326      11325  
     11194      11195      11206      11205      11315      11316      11327      11326  
     11195      11196      11207      11206      11316      11317      11328      11327  
     11196      11197      11208      11207      11317      11318      11329      11328  
     11197      11198      11209      11208      11318      11319      11330      11329  
     11199      11200      11211      11210      11320      11321      11332      11331  
     11200      11201      11212      11211      11321      11322      11333      11332  
     11201      11202      11213      11212      11322      11323      11334      11333  
     11202      11203      11214      11213      11323      11324      11335      11334  
     11203      11204      11215      11214      11324      11325      11336      11335  
     11204      11205      11216      11215      11325      11326      11337      11336  
     11205      11206      11217      11216      11326      11327      11338      11337  
     11206      11207      11218      11217      11327      11328      11339      11338  
     11207      11208      11219      11218      11328      11329      11340      11339  
     11208      11209      11220      11219      11329      11330      11341      11340  
     11210      11211      11222      11221      11331      11332      11343      11342  
     11211      11212      11223      11222      11332      11333      11344      11343  
     11212      11213      11224      11223      11333      11334      11345      11344  
     11213      11214      11225      11224      11334      11335      11346      11345  
     11214      11215      11226      11225      11335      11336      11347      11346  
     11215      11216      11227      11226      11336      11337      11348      11347  
     11216      11217      11228      11227      11337      11338      11349      11348  
     11217      11218      11229      11228      11338      11339      11350      11349  
     11218      11219      11230      11229      11339      11340      11351      11350  
     11219      11220      11231      11230      11340      11341      11352      11351  
     11221      11222      11233      11232      11342      11343      11354      11353  
     11222      11223      11234      11233      11343      11344      11355      11354  
     11223      11224      11235      11234      11344      11345      11356      11355  
     11224      11225      11236      11235      11345      11346      11357      11356  
     11225      11226      11237      11236      11346      11347      11358      11357  
     11226      11227      11238      11237      11347      11348      11359      11358  
     11227      11228      11239      11238      11348      11349      11360      11359  
     11228      11229      11240      11239      11349      11350      11361      11360  
     11229      11230      11241      11240      11350      11351      11362      11361  
     11230      11231      11242      11241      11351      11352      11363      11362  
     11232      11233      11244      11243      11353      11354      11365      11364  
     11233      11234      11245      11244      11354      11355      11366      11365  
     11234      11235      11246      11245      11355      11356      11367      11366  
     11235      11236      11247      11246      11356      11357      11368      11367  
     11236      11237      11248      11247      11357      11358      11369      11368  
     11237      11238      11249      11248      11358      11359      11370      11369  
     11238      11239      11250      11249      11359      11360      11371      11370  
     11239      11240      11251      11250      11360      11361      11372      11371  
     11240      11241      11252      11251      11361      11362      11373      11372  
     11241      11242      11253      11252      11362      11363      11374      11373  
     11254      11255      11266      11265      11375      11376      11387      11386  
     11255      11256      11267      11266      11376      11377      11388      11387  
     11256      11257      11268      11267      11377      11378      11389      11388  
     11257      11258      11269      11268      11378      11379      11390      11389  
     11258      11259      11270      11269      11379      11380      11391      11390  
     11259      11260      11271      11270      11380      11381      11392      11391  
     11260      11261      11272      11271      11381      11382      11393      11392  
     11261      11262      11273      11272      11382      11383      11394      11393  
     11262      11263      11274      11273      11383      11384      11395      11394  
     11263      11264      11275      11274      11384      11385      11396      11395  
     11265      11266      11277      11276      11386      11387      11398      11397  
     11266      11267      11278      11277      11387      11388      11399      11398  
     11267      11268      11279      11278      11388      11389      11400      11399  
     11268      11269      11280      11279      11389      11390      11401      11400  
     11269      11270      11281      11280      11390      11391      11402      11401  
     11270      11271      11282      11281      11391      11392      11403      11402  
     11271      11272      11283      11282      11392      11393      11404      11403  
     11272      11273      11284      11283      11393      11394      11405      11404  
     11273      11274      11285      11284      11394      11395      11406      11405  
     11274      11275      11286      11285      11395      11396      11407      11406  
     11276      11277      11288      11287      11397      11398      11409      11408  
     11277      11278      11289      11288      11398      11399      11410      11409  
     11278      11279      11290      11289      11399      11400      11411      11410  
     11279      11280      11291      11290      11400      11401      11412      11411  
     11280      11281      11292      11291      11401      11402      11413      11412  
     11281      11282      11293      11292      11402      11403      11414      11413  
     11282      11283      11294      11293      11403      11404      11415      11414  
     11283      11284      11295      11294      11404      11405      11416      11415  
     11284      11285      11296      11295      11405      11406      11417      11416  
     11285      11286      11297      11296      11406      11407      11418      11417  
     11287      11288      11299      11298      11408      11409      11420      11419  
     11288      11289      11300      11299      11409      11410      11421      11420  
     11289      11290      11301      11300      11410      11411      11422      11421  
     11290      11291      11302      11301      11411      11412      11423      11422  
     11291      11292      11303      11302      11412      11413      11424      11423  
     11292      11293      11304      11303      11413      11414      11425      11424  
     11293      11294      11305      11304      11414      11415      11426      11425  
     11294      11295      11306      11305      11415      11416      11427      11426  
     11295      11296      11307      11306      11416      11417      11428      11427  
     11296      11297      11308      11307      11417      11418      11429      11428  
     11298      11299      11310      11309      11419      11420      11431      11430  
     11299      11300      11311      11310      11420      11421      11432      11431  
     11300      11301      11312      11311      11421      11422      11433      11432  
     11301      11302      11313      11312      11422      11423      11434      11433  
     11302      11303      11314      11313      11423      11424      11435      11434  
     11303      11304      11315      11314      11424      11425      11436      11435  
     11304      11305      11316      11315      11425      11426      11437      11436  
     11305      11306      11317      11316      11426      11427      11438      11437  
     11306      11307      11318      11317      11427      11428      11439      11438  
     11307      11308      11319      11318      11428      11429      11440      11439  
     11309      11310      11321      11320      11430      11431      11442      11441  
     11310      11311      11322      11321      11431      11432      11443      11442  
     11311      11312      11323      11322      11432      11433      11444      11443  
     11312      11313      11324      11323      11433      11434      11445      11444  
     11313      11314      11325      11324      11434      11435      11446      11445  
     11314      11315      11326      11325      11435      11436      11447      11446  
     11315      11316      11327      11326      11436      11437      11448      11447  
     11316      11317      11328      11327      11437      11438      11449      11448  
     11317      11318      11329      11328      11438      11439      11450      11449  
     11318      11319      11330      11329      11439      11440      11451      11450  
     11320      11321      11332      11331      11441      11442      11453      11452  
     11321      11322      11333      11332      11442      11443      11454      11453  
     11322      11323      11334      11333      11443      11444      11455      11454  
     11323      11324      11335      11334      11444      11445      11456      11455  
     11324      11325      11336      11335      11445      11446      11457      11456  
     11325      11326      11337      11336      11446      11447      11458      11457  
     11326      11327      11338      11337      11447      11448      11459      11458  
     11327      11328      11339      11338      11448      11449      11460      11459  
     11328      11329      11340      11339      11449      11450      11461      11460  
     11329      11330      11341      11340      11450      11451      11462      11461  
     11331      11332      11343      11342      11452      11453      11464      11463  
     11332      11333      11344      11343      11453      11454      11465      11464  
     11333      11334      11345      11344      11454      11455      11466      11465  
     11334      11335      11346      11345      11455      11456      11467      11466  
     11335      11336      11347      11346      11456      11457      11468      11467  
     11336      11337      11348      11347      11457      11458      11469      11468  
     11337      11338      11349      11348      11458      11459      11470      11469  
     11338      11339      11350      11349      11459      11460      11471      11470  
     11339      11340      11351      11350      11460      11461      11472      11471  
     11340      11341      11352      11351      11461      11462      11473      11472  
     11342      11343      11354      11353      11463      11464      11475      11474  
     11343      11344      11355      11354      11464      11465      11476      11475  
     11344      11345      11356      11355      11465      11466      11477      11476  
     11345      11346      11357      11356      11466      11467      11478      11477  
     11346      11347      11358      11357      11467      11468      11479      11478  
     11347      11348      11359      11358      11468      11469      11480      11479  
     11348      11349      11360      11359      11469      11470      11481      11480  
     11349      11350      11361      11360      11470      11471      11482      11481  
     11350      11351      11362      11361      11471      11472      11483      11482  
     11351      11352      11363      11362      11472      11473      11484      11483  
     11353      11354      11365      11364      11474      11475      11486      11485  
     11354      11355      11366      11365      11475      11476      11487      11486  
     11355      11356      11367      11366      11476      11477      11488      11487  
     11356      11357      11368      11367      11477      11478      11489      11488  
     11357      11358      11369      11368      11478      11479      11490      11489  
     11358      11359      11370      11369      11479      11480      11491      11490  
     11359      11360      11371      11370      11480      11481      11492      11491  
     11360      11361      11372      11371      11481      11482      11493      11492  
     11361      11362      11373      11372      11482      11483      11494      11493  
     11362      11363      11374      11373      11483      11484      11495      11494  
     11375      11376      11387      11386      11496      11497      11508      11507  
     11376      11377      11388      11387      11497      11498      11509      11508  
     11377      11378      11389      11388      11498      11499      11510      11509  
     11378      11379      11390      11389      11499      11500      11511      11510  
     11379      11380      11391      11390      11500      11501      11512      11511  
     11380      11381      11392      11391      11501      11502      11513      11512  
     11381      11382      11393      11392      11502      11503      11514      11513  
     11382      11383      11394      11393      11503      11504      11515      11514  
     11383      11384      11395      11394      11504      11505      11516      11515  
     11384      11385      11396      11395      11505      11506      11517      11516  
     11386      11387      11398      11397      11507      11508      11519      11518  
     11387      11388      11399      11398      11508      11509      11520      11519  
     11388      11389      11400      11399      11509      11510      11521      11520  
     11389      11390      11401      11400      11510      11511      11522      11521  
     11390      11391      11402      11401      11511      11512      11523      11522  
     11391      11392      11403      11402      11512      11513      11524      11523  
     11392      11393      11404      11403      11513      11514      11525      11524  
     11393      11394      11405      11404      11514      11515      11526      11525  
     11394      11395      11406      11405      11515      11516      11527      11526  
     11395      11396      11407      11406      11516      11517      11528      11527  
     11397      11398      11409      11408      11518      11519      11530      11529  
     11398      11399      11410      11409      11519      11520      11531      11530  
     11399      11400      11411      11410      11520      11521      11532      11531  
     11400      11401      11412      11411      11521      11522      11533      11532  
     11401      11402      11413      11412      11522      11523      11534      11533  
     11402      11403      11414      11413      11523      11524      11535      11534  
     11403      11404      11415      11414      11524      11525      11536      11535  
     11404      11405      11416      11415      11525      11526      11537      11536  
     11405      11406      11417      11416      11526      11527      11538      11537  
     11406      11407      11418      11417      11527      11528      11539      11538  
     11408      11409      11420      11419      11529      11530      11541      11540  
     11409      11410      11421      11420      11530      11531      11542      11541  
     11410      11411      11422      11421      11531      11532      11543      11542  
     11411      11412      11423      11422      11532      11533      11544      11543  
     11412      11413      11424      11423      11533      11534      11545      11544  
     11413      11414      11425      11424      11534      11535      11546      11545  
     11414      11415      11426      11425      11535      11536      11547      11546  
     11415      11416      11427      11426      11536      11537      11548      11547  
     11416      11417      11428      11427      11537      11538      11549      11548  
     11417      11418      11429      11428      11538      11539      11550      11549  
     11419      11420      11431      11430      11540      11541      11552      11551  
     11420      11421      11432      11431      11541      11542      11553      11552  
     11421      11422      11433      11432      11542      11543      11554      11553  
     11422      11423      11434      11433      11543      11544      11555      11554  
     11423      11424      11435      11434      11544      11545      11556      11555  
     11424      11425      11436      11435      11545      11546      11557      11556  
     11425      11426      11437      11436      11546      11547      11558      11557  
     11426      11427      11438      11437      11547      11548      11559      11558  
     11427      11428      11439      11438      11548      11549      11560      11559  
     11428      11429      11440      11439      11549      11550      11561      11560  
     11430      11431      11442      11441      11551      11552      11563      11562  
     11431      11432      11443      11442      11552      11553      11564      11563  
     11432      11433      11444      11443      11553      11554      11565      11564  
     11433      11434      11445      11444      11554      11555      11566      11565  
     11434      11435      11446      11445      11555      11556      11567      11566  
     11435      11436      11447      11446      11556      11557      11568      11567  
     11436      11437      11448      11447      11557      11558      11569      11568  
     11437      11438      11449      11448      11558      11559      11570      11569  
     11438      11439      11450      11449      11559      11560      11571      11570  
     11439      11440      11451      11450      11560      11561      11572      11571  
     11441      11442      11453      11452      11562      11563      11574      11573  
     11442      11443      11454      11453      11563      11564      11575      11574  
     11443      11444      11455      11454      11564      11565      11576      11575  
     11444      11445      11456      11455      11565      11566      11577      11576  
     11445      11446      11457      11456      11566      11567      11578      11577  
     11446      11447      11458      11457      11567      11568      11579      11578  
     11447      11448      11459      11458      11568      11569      11580      11579  
     11448      11449      11460      11459      11569      11570      11581      11580  
     11449      11450      11461      11460      11570      11571      11582      11581  
     11450      11451      11462      11461      11571      11572      11583      11582  
     11452      11453      11464      11463      11573      11574      11585      11584  
     11453      11454      11465      11464      11574      11575      11586      11585  
     11454      11455      11466      11465      11575      11576      11587      11586  
     11455      11456      11467      11466      11576      11577      11588      11587  
     11456      11457      11468      11467      11577      11578      11589      11588  
     11457      11458      11469      11468      11578      11579      11590      11589  
     11458      11459      11470      11469      11579      11580      11591      11590  
     11459      11460      11471      11470      11580      11581      11592      11591  
     11460      11461      11472      11471      11581      11582      11593      11592  
     11461      11462      11473      11472      11582      11583      11594      11593  
     11463      11464      11475      11474      11584      11585      11596      11595  
     11464      11465      11476      11475      11585      11586      11597      11596  
     11465      11466      11477      11476      11586      11587      11598      11597  
     11466      11467      11478      11477      11587      11588      11599      11598  
     11467      11468      11479      11478      11588      11589      11600      11599  
     11468      11469      11480      11479      11589      11590      11601      11600  
     11469      11470      11481      11480      11590      11591      11602      11601  
     11470      11471      11482      11481      11591      11592      11603      11602  
     11471      11472      11483      11482      11592      11593      11604      11603  
     11472      11473      11484      11483      11593      11594      11605      11604  
     11474      11475      11486      11485      11595      11596      11607      11606  
     11475      11476      11487      11486      11596      11597      11608      11607  
     11476      11477      11488      11487      11597      11598      11609      11608  
     11477      11478      11489      11488      11598      11599      11610      11609  
     11478      11479      11490      11489      11599      11600      11611      11610  
     11479      11480      11491      11490      11600      11601      11612      11611  
     11480      11481      11492      11491      11601      11602      11613      11612  
     11481      11482      11493      11492      11602      11603      11614      11613  
     11482      11483      11494      11493      11603      11604      11615      11614  
     11483      11484      11495      11494      11604      11605      11616      11615  
     11496      11497      11508      11507      11617      11618      11629      11628  
     11497      11498      11509      11508      11618      11619      11630      11629  
     11498      11499      11510      11509      11619      11620      11631      11630  
     11499      11500      11511      11510      11620      11621      11632      11631  
     11500      11501      11512      11511      11621      11622      11633      11632  
     11501      11502      11513      11512      11622      11623      11634      11633  
     11502      11503      11514      11513      11623      11624      11635      11634  
     11503      11504      11515      11514      11624      11625      11636      11635  
     11504      11505      11516      11515      11625      11626      11637      11636  
     11505      11506      11517      11516      11626      11627      11638      11637  
     11507      11508      11519      11518      11628      11629      11640      11639  
     11508      11509      11520      11519      11629      11630      11641      11640  
     11509      11510      11521      11520      11630      11631      11642      11641  
     11510      11511      11522      11521      11631      11632      11643      11642  
     11511      11512      11523      11522      11632      11633      11644      11643  
     11512      11513      11524      11523      11633      11634      11645      11644  
     11513      11514      11525      11524      11634      11635      11646      11645  
     11514      11515      11526      11525      11635      11636      11647      11646  
     11515      11516      11527      11526      11636      11637      11648      11647  
     11516      11517      11528      11527      11637      11638      11649      11648  
     11518      11519      11530      11529      11639      11640      11651      11650  
     11519      11520      11531      11530      11640      11641      11652      11651  
     11520      11521      11532      11531      11641      11642      11653      11652  
     11521      11522      11533      11532      11642      11643      11654      11653  
     11522      11523      11534      11533      11643      11644      11655      11654  
     11523      11524      11535      11534      11644      11645      11656      11655  
     11524      11525      11536      11535      11645      11646      11657      11656  
     11525      11526      11537      11536      11646      11647      11658      11657  
     11526      11527      11538      11537      11647      11648      11659      11658  
     11527      11528      11539      11538      11648      11649      11660      11659  
     11529      11530      11541      11540      11650      11651      11662      11661  
     11530      11531      11542      11541      11651      11652      11663      11662  
     11531      11532      11543      11542      11652      11653      11664      11663  
     11532      11533      11544      11543      11653      11654      11665      11664  
     11533      11534      11545      11544      11654      11655      11666      11665  
     11534      11535      11546      11545      11655      11656      11667      11666  
     11535      11536      11547      11546      11656      11657      11668      11667  
     11536      11537      11548      11547      11657      11658      11669      11668  
     11537      11538      11549      11548      11658      11659      11670      11669  
     11538      11539      11550      11549      11659      11660      11671      11670  
     11540      11541      11552      11551      11661      11662      11673      11672  
     11541      11542      11553      11552      11662      11663      11674      11673  
     11542      11543      11554      11553      11663      11664      11675      11674  
     11543      11544      11555      11554      11664      11665      11676      11675  
     11544      11545      11556      11555      11665      11666      11677      11676  
     11545      11546      11557      11556      11666      11667      11678      11677  
     11546      11547      11558      11557      11667      11668      11679      11678  
     11547      11548      11559      11558      11668      11669      11680      11679  
     11548      11549      11560      11559      11669      11670      11681      11680  
     11549      11550      11561      11560      11670      11671      11682      11681  
     11551      11552      11563      11562      11672      11673      11684      11683  
     11552      11553      11564      11563      11673      11674      11685      11684  
     11553      11554      11565      11564      11674      11675      11686      11685  
     11554      11555      11566      11565      11675      11676      11687      11686  
     11555      11556      11567      11566      11676      11677      11688      11687  
     11556      11557      11568      11567      11677      11678      11689      11688  
     11557      11558      11569      11568      11678      11679      11690      11689  
     11558      11559      11570      11569      11679      11680      11691      11690  
     11559      11560      11571      11570      11680      11681      11692      11691  
     11560      11561      11572      11571      11681      11682      11693      11692  
     11562      11563      11574      11573      11683      11684      11695      11694  
     11563      11564      11575      11574      11684      11685      11696      11695  
     11564      11565      11576      11575      11685      11686      11697      11696  
     11565      11566      11577      11576      11686      11687      11698      11697  
     11566      11567      11578      11577      11687      11688      11699      11698  
     11567      11568      11579      11578      11688      11689      11700      11699  
     11568      11569      11580      11579      11689      11690      11701      11700  
     11569      11570      11581      11580      11690      11691      11702      11701  
     11570      11571      11582      11581      11691      11692      11703      11702  
     11571      11572      11583      11582      11692      11693      11704      11703  
     11573      11574      11585      11584      11694      11695      11706      11705  
     11574      11575      11586      11585      11695      11696      11707      11706  
     11575      11576      11587      11586      11696      11697      11708      11707  
     11576      11577      11588      11587      11697      11698      11709      11708  
     11577      11578      11589      11588      11698      11699      11710      11709  
     11578      11579      11590      11589      11699      11700      11711      11710  
     11579      11580      11591      11590      11700      11701      11712      11711  
     11580      11581      11592      11591      11701      11702      11713      11712  
     11581      11582      11593      11592      11702      11703      11714      11713  
     11582      11583      11594      11593      11703      11704      11715      11714  
     11584      11585      11596      11595      11705      11706      11717      11716  
     11585      11586      11597      11596      11706      11707      11718      11717  
     11586      11587      11598      11597      11707      11708      11719      11718  
     11587      11588      11599      11598      11708      11709      11720      11719  
     11588      11589      11600      11599      11709      11710      11721      11720  
     11589      11590      11601      11600      11710      11711      11722      11721  
     11590      11591      11602      11601      11711      11712      11723      11722  
     11591      11592      11603      11602      11712      11713      11724      11723  
     11592      11593      11604      11603      11713      11714      11725      11724  
     11593      11594      11605      11604      11714      11715      11726      11725  
     11595      11596      11607      11606      11716      11717      11728      11727  
     11596      11597      11608      11607      11717      11718      11729      11728  
     11597      11598      11609      11608      11718      11719      11730      11729  
     11598      11599      11610      11609      11719      11720      11731      11730  
     11599      11600      11611      11610      11720      11721      11732      11731  
     11600      11601      11612      11611      11721      11722      11733      11732  
     11601      11602      11613      11612      11722      11723      11734      11733  
     11602      11603      11614      11613      11723      11724      11735      11734  
     11603      11604      11615      11614      11724      11725      11736      11735  
     11604      11605      11616      11615      11725      11726      11737      11736  
     11617      11618      11629      11628      11738      11739      11750      11749  
     11618      11619      11630      11629      11739      11740      11751      11750  
     11619      11620      11631      11630      11740      11741      11752      11751  
     11620      11621      11632      11631      11741      11742      11753      11752  
     11621      11622      11633      11632      11742      11743      11754      11753  
     11622      11623      11634      11633      11743      11744      11755      11754  
     11623      11624      11635      11634      11744      11745      11756      11755  
     11624      11625      11636      11635      11745      11746      11757      11756  
     11625      11626      11637      11636      11746      11747      11758      11757  
     11626      11627      11638      11637      11747      11748      11759      11758  
     11628      11629      11640      11639      11749      11750      11761      11760  
     11629      11630      11641      11640      11750      11751      11762      11761  
     11630      11631      11642      11641      11751      11752      11763      11762  
     11631      11632      11643      11642      11752      11753      11764      11763  
     11632      11633      11644      11643      11753      11754      11765      11764  
     11633      11634      11645      11644      11754      11755      11766      11765  
     11634      11635      11646      11645      11755      11756      11767      11766  
     11635      11636      11647      11646      11756      11757      11768      11767  
     11636      11637      11648      11647      11757      11758      11769      11768  
     11637      11638      11649      11648      11758      11759      11770      11769  
     11639      11640      11651      11650      11760      11761      11772      11771  
     11640      11641      11652      11651      11761      11762      11773      11772  
     11641      11642      11653      11652      11762      11763      11774      11773  
     11642      11643      11654      11653      11763      11764      11775      11774  
     11643      11644      11655      11654      11764      11765      11776      11775  
     11644      11645      11656      11655      11765      11766      11777      11776  
     11645      11646      11657      11656      11766      11767      11778      11777  
     11646      11647      11658      11657      11767      11768      11779      11778  
     11647      11648      11659      11658      11768      11769      11780      11779  
     11648      11649      11660      11659      11769      11770      11781      11780  
     11650      11651      11662      11661      11771      11772      11783      11782  
     11651      11652      11663      11662      11772      11773      11784      11783  
     11652      11653      11664      11663      11773      11774      11785      11784  
     11653      11654      11665      11664      11774      11775      11786      11785  
     11654      11655      11666      11665      11775      11776      11787      11786  
     11655      11656      11667      11666      11776      11777      11788      11787  
     11656      11657      11668      11667      11777      11778      11789      11788  
     11657      11658      11669      11668      11778      11779      11790      11789  
     11658      11659      11670      11669      11779      11780      11791      11790  
     11659      11660      11671      11670      11780      11781      11792      11791  
     11661      11662      11673      11672      11782      11783      11794      11793  
     11662      11663      11674      11673      11783      11784      11795      11794  
     11663      11664      11675      11674      11784      11785      11796      11795  
     11664      11665      11676      11675      11785      11786      11797      11796  
     11665      11666      11677      11676      11786      11787      11798      11797  
     11666      11667      11678      11677      11787      11788      11799      11798  
     11667      11668      11679      11678      11788      11789      11800      11799  
     11668      11669      11680      11679      11789      11790      11801      11800  
     11669      11670      11681      11680      11790      11791      11802      11801  
     11670      11671      11682      11681      11791      11792      11803      11802  
     11672      11673      11684      11683      11793      11794      11805      11804  
     11673      11674      11685      11684      11794      11795      11806      11805  
     11674      11675      11686      11685      11795      11796      11807      11806  
     11675      11676      11687      11686      11796      11797      11808      11807  
     11676      11677      11688      11687      11797      11798      11809      11808  
     11677      11678      11689      11688      11798      11799      11810      11809  
     11678      11679      11690      11689      11799      11800      11811      11810  
     11679      11680      11691      11690      11800      11801      11812      11811  
     11680      11681      11692      11691      11801      11802      11813      11812  
     11681      11682      11693      11692      11802      11803      11814      11813  
     11683      11684      11695      11694      11804      11805      11816      11815  
     11684      11685      11696      11695      11805      11806      11817      11816  
     11685      11686      11697      11696      11806      11807      11818      11817  
     11686      11687      11698      11697      11807      11808      11819      11818  
     11687      11688      11699      11698      11808      11809      11820      11819  
     11688      11689      11700      11699      11809      11810      11821      11820  
     11689      11690      11701      11700      11810      11811      11822      11821  
     11690      11691      11702      11701      11811      11812      11823      11822  
     11691      11692      11703      11702      11812      11813      11824      11823  
     11692      11693      11704      11703      11813      11814      11825      11824  
     11694      11695      11706      11705      11815      11816      11827      11826  
     11695      11696      11707      11706      11816      11817      11828      11827  
     11696      11697      11708      11707      11817      11818      11829      11828  
     11697      11698      11709      11708      11818      11819      11830      11829  
     11698      11699      11710      11709      11819      11820      11831      11830  
     11699      11700      11711      11710      11820      11821      11832      11831  
     11700      11701      11712      11711      11821      11822      11833      11832  
     11701      11702      11713      11712      11822      11823      11834      11833  
     11702      11703      11714      11713      11823      11824      11835      11834  
     11703      11704      11715      11714      11824      11825      11836      11835  
     11705      11706      11717      11716      11826      11827      11838      11837  
     11706      11707      11718      11717      11827      11828      11839      11838  
     11707      11708      11719      11718      11828      11829      11840      11839  
     11708      11709      11720      11719      11829      11830      11841      11840  
     11709      11710      11721      11720      11830      11831      11842      11841  
     11710      11711      11722      11721      11831      11832      11843      11842  
     11711      11712      11723      11722      11832      11833      11844      11843  
     11712      11713      11724      11723      11833      11834      11845      11844  
     11713      11714      11725      11724      11834      11835      11846      11845  
     11714      11715      11726      11725      11835      11836      11847      11846  
     11716      11717      11728      11727      11837      11838      11849      11848  
     11717      11718      11729      11728      11838      11839      11850      11849  
     11718      11719      11730      11729      11839      11840      11851      11850  
     11719      11720      11731      11730      11840      11841      11852      11851  
     11720      11721      11732      11731      11841      11842      11853      11852  
     11721      11722      11733      11732      11842      11843      11854      11853  
     11722      11723      11734      11733      11843      11844      11855      11854  
     11723      11724      11735      11734      11844      11845      11856      11855  
     11724      11725      11736      11735      11845      11846      11857      11856  
     11725      11726      11737      11736      11846      11847      11858      11857  
     11738      11739      11750      11749      11859      11860      11871      11870  
     11739      11740      11751      11750      11860      11861      11872      11871  
     11740      11741      11752      11751      11861      11862      11873      11872  
     11741      11742      11753      11752      11862      11863      11874      11873  
     11742      11743      11754      11753      11863      11864      11875      11874  
     11743      11744      11755      11754      11864      11865      11876      11875  
     11744      11745      11756      11755      11865      11866      11877      11876  
     11745      11746      11757      11756      11866      11867      11878      11877  
     11746      11747      11758      11757      11867      11868      11879      11878  
     11747      11748      11759      11758      11868      11869      11880      11879  
     11749      11750      11761      11760      11870      11871      11882      11881  
     11750      11751      11762      11761      11871      11872      11883      11882  
     11751      11752      11763      11762      11872      11873      11884      11883  
     11752      11753      11764      11763      11873      11874      11885      11884  
     11753      11754      11765      11764      11874      11875      11886      11885  
     11754      11755      11766      11765      11875      11876      11887      11886  
     11755      11756      11767      11766      11876      11877      11888      11887  
     11756      11757      11768      11767      11877      11878      11889      11888  
     11757      11758      11769      11768      11878      11879      11890      11889  
     11758      11759      11770      11769      11879      11880      11891      11890  
     11760      11761      11772      11771      11881      11882      11893      11892  
     11761      11762      11773      11772      11882      11883      11894      11893  
     11762      11763      11774      11773      11883      11884      11895      11894  
     11763      11764      11775      11774      11884      11885      11896      11895  
     11764      11765      11776      11775      11885      11886      11897      11896  
     11765      11766      11777      11776      11886      11887      11898      11897  
     11766      11767      11778      11777      11887      11888      11899      11898  
     11767      11768      11779      11778      11888      11889      11900      11899  
     11768      11769      11780      11779      11889      11890      11901      11900  
     11769      11770      11781      11780      11890      11891      11902      11901  
     11771      11772      11783      11782      11892      11893      11904      11903  
     11772      11773      11784      11783      11893      11894      11905      11904  
     11773      11774      11785      11784      11894      11895      11906      11905  
     11774      11775      11786      11785      11895      11896      11907      11906  
     11775      11776      11787      11786      11896      11897      11908      11907  
     11776      11777      11788      11787      11897      11898      11909      11908  
     11777      11778      11789      11788      11898      11899      11910      11909  
     11778      11779      11790      11789      11899      11900      11911      11910  
     11779      11780      11791      11790      11900      11901      11912      11911  
     11780      11781      11792      11791      11901      11902      11913      11912  
     11782      11783      11794      11793      11903      11904      11915      11914  
     11783      11784      11795      11794      11904      11905      11916      11915  
     11784      11785      11796      11795      11905      11906      11917      11916  
     11785      11786      11797      11796      11906      11907      11918      11917  
     11786      11787      11798      11797      11907      11908      11919      11918  
     11787      11788      11799      11798      11908      11909      11920      11919  
     11788      11789      11800      11799      11909      11910      11921      11920  
     11789      11790      11801      11800      11910      11911      11922      11921  
     11790      11791      11802      11801      11911      11912      11923      11922  
     11791      11792      11803      11802      11912      11913      11924      11923  
     11793      11794      11805      11804      11914      11915      11926      11925  
     11794      11795      11806      11805      11915      11916      11927      11926  
     11795      11796      11807      11806      11916      11917      11928      11927  
     11796      11797      11808      11807      11917      11918      11929      11928  
     11797      11798      11809      11808      11918      11919      11930      11929  
     11798      11799      11810      11809      11919      11920      11931      11930  
     11799      11800      11811      11810      11920      11921      11932      11931  
     11800      11801      11812      11811      11921      11922      11933      11932  
     11801      11802      11813      11812      11922      11923      11934      11933  
     11802      11803      11814      11813      11923      11924      11935      11934  
     11804      11805      11816      11815      11925      11926      11937      11936  
     11805      11806      11817      11816      11926      11927      11938      11937  
     11806      11807      11818      11817      11927      11928      11939      11938  
     11807      11808      11819      11818      11928      11929      11940      11939  
     11808      11809      11820      11819      11929      11930      11941      11940  
     11809      11810      11821      11820      11930      11931      11942      11941  
     11810      11811      11822      11821      11931      11932      11943      11942  
     11811      11812      11823      11822      11932      11933      11944      11943  
     11812      11813      11824      11823      11933      11934      11945      11944  
     11813      11814      11825      11824      11934      11935      11946      11945  
     11815      11816      11827      11826      11936      11937      11948      11947  
     11816      11817      11828      11827      11937      11938      11949      11948  
     11817      11818      11829      11828      11938      11939      11950      11949  
     11818      11819      11830      11829      11939      11940      11951      11950  
     11819      11820      11831      11830      11940      11941      11952      11951  
     11820      11821      11832      11831      11941      11942      11953      11952  
     11821      11822      11833      11832      11942      11943      11954      11953  
     11822      11823      11834      11833      11943      11944      11955      11954  
     11823      11824      11835      11834      11944      11945      11956      11955  
     11824      11825      11836      11835      11945      11946      11957      11956  
     11826      11827      11838      11837      11947      11948      11959      11958  
     11827      11828      11839      11838      11948      11949      11960      11959  
     11828      11829      11840      11839      11949      11950      11961      11960  
     11829      11830      11841      11840      11950      11951      11962      11961  
     11830      11831      11842      11841      11951      11952      11963      11962  
     11831      11832      11843      11842      11952      11953      11964      11963  
     11832      11833      11844      11843      11953      11954      11965      11964  
     11833      11834      11845      11844      11954      11955      11966      11965  
     11834      11835      11846      11845      11955      11956      11967      11966  
     11835      11836      11847      11846      11956      11957      11968      11967  
     11837      11838      11849      11848      11958      11959      11970      11969  
     11838      11839      11850      11849      11959      11960      11971      11970  
     11839      11840      11851      11850      11960      11961      11972      11971  
     11840      11841      11852      11851      11961      11962      11973      11972  
     11841      11842      11853      11852      11962      11963      11974      11973  
     11842      11843      11854      11853      11963      11964      11975      11974  
     11843      11844      11855      11854      11964      11965      11976      11975  
     11844      11845      11856      11855      11965      11966      11977      11976  
     11845      11846      11857      11856      11966      11967      11978      11977  
     11846      11847      11858      11857      11967      11968      11979      11978  
     11859      11860      11871      11870      11980      11981      11992      11991  
     11860      11861      11872      11871      11981      11982      11993      11992  
     11861      11862      11873      11872      11982      11983      11994      11993  
     11862      11863      11874      11873      11983      11984      11995      11994  
     11863      11864      11875      11874      11984      11985      11996      11995  
     11864      11865      11876      11875      11985      11986      11997      11996  
     11865      11866      11877      11876      11986      11987      11998      11997  
     11866      11867      11878      11877      11987      11988      11999      11998  
     11867      11868      11879      11878      11988      11989      12000      11999  
     11868      11869      11880      11879      11989      11990      12001      12000  
     11870      11871      11882      11881      11991      11992      12003      12002  
     11871      11872      11883      11882      11992      11993      12004      12003  
     11872      11873      11884      11883      11993      11994      12005      12004  
     11873      11874      11885      11884      11994      11995      12006      12005  
     11874      11875      11886      11885      11995      11996      12007      12006  
     11875      11876      11887      11886      11996      11997      12008      12007  
     11876      11877      11888      11887      11997      11998      12009      12008  
     11877      11878      11889      11888      11998      11999      12010      12009  
     11878      11879      11890      11889      11999      12000      12011      12010  
     11879      11880      11891      11890      12000      12001      12012      12011  
     11881      11882      11893      11892      12002      12003      12014      12013  
     11882      11883      11894      11893      12003      12004      12015      12014  
     11883      11884      11895      11894      12004      12005      12016      12015  
     11884      11885      11896      11895      12005      12006      12017      12016  
     11885      11886      11897      11896      12006      12007      12018      12017  
     11886      11887      11898      11897      12007      12008      12019      12018  
     11887      11888      11899      11898      12008      12009      12020      12019  
     11888      11889      11900      11899      12009      12010      12021      12020  
     11889      11890      11901      11900      12010      12011      12022      12021  
     11890      11891      11902      11901      12011      12012      12023      12022  
     11892      11893      11904      11903      12013      12014      12025      12024  
     11893      11894      11905      11904      12014      12015      12026      12025  
     11894      11895      11906      11905      12015      12016      12027      12026  
     11895      11896      11907      11906      12016      12017      12028      12027  
     11896      11897      11908      11907      12017      12018      12029      12028  
     11897      11898      11909      11908      12018      12019      12030      12029  
     11898      11899      11910      11909      12019      12020      12031      12030  
     11899      11900      11911      11910      12020      12021      12032      12031  
     11900      11901      11912      11911      12021      12022      12033      12032  
     11901      11902      11913      11912      12022      12023      12034      12033  
     11903      11904      11915      11914      12024      12025      12036      12035  
     11904      11905      11916      11915      12025      12026      12037      12036  
     11905      11906      11917      11916      12026      12027      12038      12037  
     11906      11907      11918      11917      12027      12028      12039      12038  
     11907      11908      11919      11918      12028      12029      12040      12039  
     11908      11909      11920      11919      12029      12030      12041      12040  
     11909      11910      11921      11920      12030      12031      12042      12041  
     11910      11911      11922      11921      12031      12032      12043      12042  
     11911      11912      11923      11922      12032      12033      12044      12043  
     11912      11913      11924      11923      12033      12034      12045      12044  
     11914      11915      11926      11925      12035      12036      12047      12046  
     11915      11916      11927      11926      12036      12037      12048      12047  
     11916      11917      11928      11927      12037      12038      12049      12048  
     11917      11918      11929      11928      12038      12039      12050      12049  
     11918      11919      11930      11929      12039      12040      12051      12050  
     11919      11920      11931      11930      12040      12041      12052      12051  
     11920      11921      11932      11931      12041      12042      12053      12052  
     11921      11922      11933      11932      12042      12043      12054      12053  
     11922      11923      11934      11933      12043      12044      12055      12054  
     11923      11924      11935      11934      12044      12045      12056      12055  
     11925      11926      11937      11936      12046      12047      12058      12057  
     11926      11927      11938      11937      12047      12048      12059      12058  
     11927      11928      11939      11938      12048      12049      12060      12059  
     11928      11929      11940      11939      12049      12050      12061      12060  
     11929      11930      11941      11940      12050      12051      12062      12061  
     11930      11931      11942      11941      12051      12052      12063      12062  
     11931      11932      11943      11942      12052      12053      12064      12063  
     11932      11933      11944      11943      12053      12054      12065      12064  
     11933      11934      11945      11944      12054      12055      12066      12065  
     11934      11935      11946      11945      12055      12056      12067      12066  
     11936      11937      11948      11947      12057      12058      12069      12068  
     11937      11938      11949      11948      12058      12059      12070      12069  
     11938      11939      11950      11949      12059      12060      12071      12070  
     11939      11940      11951      11950      12060      12061      12072      12071  
     11940      11941      11952      11951      12061      12062      12073      12072  
     11941      11942      11953      11952      12062      12063      12074      12073  
     11942      11943      11954      11953      12063      12064      12075      12074  
     11943      11944      11955      11954      12064      12065      12076      12075  
     11944      11945      11956      11955      12065      12066      12077      12076  
     11945      11946      11957      11956      12066      12067      12078      12077  
     11947      11948      11959      11958      12068      12069      12080      12079  
     11948      11949      11960      11959      12069      12070      12081      12080  
     11949      11950      11961      11960      12070      12071      12082      12081  
     11950      11951      11962      11961      12071      12072      12083      12082  
     11951      11952      11963      11962      12072      12073      12084      12083  
     11952      11953      11964      11963      12073      12074      12085      12084  
     11953      11954      11965      11964      12074      12075      12086      12085  
     11954      11955      11966      11965      12075      12076      12087      12086  
     11955      11956      11967      11966      12076      12077      12088      12087  
     11956      11957      11968      11967      12077      12078      12089      12088  
     11958      11959      11970      11969      12079      12080      12091      12090  
     11959      11960      11971      11970      12080      12081      12092      12091  
     11960      11961      11972      11971      12081      12082      12093      12092  
     11961      11962      11973      11972      12082      12083      12094      12093  
     11962      11963      11974      11973      12083      12084      12095      12094  
     11963      11964      11975      11974      12084      12085      12096      12095  
     11964      11965      11976      11975      12085      12086      12097      12096  
     11965      11966      11977      11976      12086      12087      12098      12097  
     11966      11967      11978      11977      12087      12088      12099      12098  
     11967      11968      11979      11978      12088      12089      12100      12099  
     11980      11981      11992      11991      12101      12102      12113      12112  
     11981      11982      11993      11992      12102      12103      12114      12113  
     11982      11983      11994      11993      12103      12104      12115      12114  
     11983      11984      11995      11994      12104      12105      12116      12115  
     11984      11985      11996      11995      12105      12106      12117      12116  
     11985      11986      11997      11996      12106      12107      12118      12117  
     11986      11987      11998      11997      12107      12108      12119      12118  
     11987      11988      11999      11998      12108      12109      12120      12119  
     11988      11989      12000      11999      12109      12110      12121      12120  
     11989      11990      12001      12000      12110      12111      12122      12121  
     11991      11992      12003      12002      12112      12113      12124      12123  
     11992      11993      12004      12003      12113      12114      12125      12124  
     11993      11994      12005      12004      12114      12115      12126      12125  
     11994      11995      12006      12005      12115      12116      12127      12126  
     11995      11996      12007      12006      12116      12117      12128      12127  
     11996      11997      12008      12007      12117      12118      12129      12128  
     11997      11998      12009      12008      12118      12119      12130      12129  
     11998      11999      12010      12009      12119      12120      12131      12130  
     11999      12000      12011      12010      12120      12121      12132      12131  
     12000      12001      12012      12011      12121      12122      12133      12132  
     12002      12003      12014      12013      12123      12124      12135      12134  
     12003      12004      12015      12014      12124      12125      12136      12135  
     12004      12005      12016      12015      12125      12126      12137      12136  
     12005      12006      12017      12016      12126      12127      12138      12137  
     12006      12007      12018      12017      12127      12128      12139      12138  
     12007      12008      12019      12018      12128      12129      12140      12139  
     12008      12009      12020      12019      12129      12130      12141      12140  
     12009      12010      12021      12020      12130      12131      12142      12141  
     12010      12011      12022      12021      12131      12132      12143      12142  
     12011      12012      12023      12022      12132      12133      12144      12143  
     12013      12014      12025      12024      12134      12135      12146      12145  
     12014      12015      12026      12025      12135      12136      12147      12146  
     12015      12016      12027      12026      12136      12137      12148      12147  
     12016      12017      12028      12027      12137      12138      12149      12148  
     12017      12018      12029      12028      12138      12139      12150      12149  
     12018      12019      12030      12029      12139      12140      12151      12150  
     12019      12020      12031      12030      12140      12141      12152      12151  
     12020      12021      12032      12031      12141      12142      12153      12152  
     12021      12022      12033      12032      12142      12143      12154      12153  
     12022      12023      12034      12033      12143      12144      12155      12154  
     12024      12025      12036      12035      12145      12146      12157      12156  
     12025      12026      12037      12036      12146      12147      12158      12157  
     12026      12027      12038      12037      12147      12148      12159      12158  
     12027      12028      12039      12038      12148      12149      12160      12159  
     12028      12029      12040      12039      12149      12150      12161      12160  
     12029      12030      12041      12040      12150      12151      12162      12161  
     12030      12031      12042      12041      12151      12152      12163      12162  
     12031      12032      12043      12042      12152      12153      12164      12163  
     12032      12033      12044      12043      12153      12154      12165      12164  
     12033      12034      12045      12044      12154      12155      12166      12165  
     12035      12036      12047      12046      12156      12157      12168      12167  
     12036      12037      12048      12047      12157      12158      12169      12168  
     12037      12038      12049      12048      12158      12159      12170      12169  
     12038      12039      12050      12049      12159      12160      12171      12170  
     12039      12040      12051      12050      12160      12161      12172      12171  
     12040      12041      12052      12051      12161      12162      12173      12172  
     12041      12042      12053      12052      12162      12163      12174      12173  
     12042      12043      12054      12053      12163      12164      12175      12174  
     12043      12044      12055      12054      12164      12165      12176      12175  
     12044      12045      12056      12055      12165      12166      12177      12176  
     12046      12047      12058      12057      12167      12168      12179      12178  
     12047      12048      12059      12058      12168      12169      12180      12179  
     12048      12049      12060      12059      12169      12170      12181      12180  
     12049      12050      12061      12060      12170      12171      12182      12181  
     12050      12051      12062      12061      12171      12172      12183      12182  
     12051      12052      12063      12062      12172      12173      12184      12183  
     12052      12053      12064      12063      12173      12174      12185      12184  
     12053      12054      12065      12064      12174      12175      12186      12185  
     12054      12055      12066      12065      12175      12176      12187      12186  
     12055      12056      12067      12066      12176      12177      12188      12187  
     12057      12058      12069      12068      12178      12179      12190      12189  
     12058      12059      12070      12069      12179      12180      12191      12190  
     12059      12060      12071      12070      12180      12181      12192      12191  
     12060      12061      12072      12071      12181      12182      12193      12192  
     12061      12062      12073      12072      12182      12183      12194      12193  
     12062      12063      12074      12073      12183      12184      12195      12194  
     12063      12064      12075      12074      12184      12185      12196      12195  
     12064      12065      12076      12075      12185      12186      12197      12196  
     12065      12066      12077      12076      12186      12187      12198      12197  
     12066      12067      12078      12077      12187      12188      12199      12198  
     12068      12069      12080      12079      12189      12190      12201      12200  
     12069      12070      12081      12080      12190      12191      12202      12201  
     12070      12071      12082      12081      12191      12192      12203      12202  
     12071      12072      12083      12082      12192      12193      12204      12203  
     12072      12073      12084      12083      12193      12194      12205      12204  
     12073      12074      12085      12084      12194      12195      12206      12205  
     12074      12075      12086      12085      12195      12196      12207      12206  
     12075      12076      12087      12086      12196      12197      12208      12207  
     12076      12077      12088      12087      12197      12198      12209      12208  
     12077      12078      12089      12088      12198      12199      12210      12209  
     12079      12080      12091      12090      12200      12201      12212      12211  
     12080      12081      12092      12091      12201      12202      12213      12212  
     12081      12082      12093      12092      12202      12203      12214      12213  
     12082      12083      12094      12093      12203      12204      12215      12214  
     12083      12084      12095      12094      12204      12205      12216      12215  
     12084      12085      12096      12095      12205      12206      12217      12216  
     12085      12086      12097      12096      12206      12207      12218      12217  
     12086      12087      12098      12097      12207      12208      12219      12218  
     12087      12088      12099      12098      12208      12209      12220      12219  
     12088      12089      12100      12099      12209      12210      12221      12220  
