TITLE="results for TO code"
VARIABLES = "x", "y", "z", "density", "sigmaxx", "sigmayy", "sigmazz", "sigmaxy", "sigmaxz", "sigmayz"
ZONE T="load step 1", NODES= 12221, ELEMENTS= 10000, DATAPACKING=POINT, ZONETYPE=FEBRICK
               0.00000000                0.00000000                0.00000000                1.00000000               -0.00000000                0.00000000                0.09368029                0.00000000                0.04094546                0.04319823
               1.00000000                0.00000000                0.00000000                1.00000000                0.00000000               -0.00000000                0.07547865                0.00000000                0.01368681                0.04013705
               2.00000000                0.00000000                0.00000000                1.00000000               -0.00000000                0.00000000                0.04254933               -0.00000000               -0.00635135                0.02690124
               3.00000000                0.00000000                0.00000000                1.00000000                0.00000000                0.00000000               -0.00209971                0.00000000               -0.00272652                0.00157814
               4.00000000                0.00000000                0.00000000                1.00000000               -0.00000000               -0.00000000                0.00020732               -0.00000000                0.00160648               -0.00059641
               5.00000000                0.00000000                0.00000000                1.00000000                0.00000000                0.00000000               -0.00204989                0.00000000                0.00874873                0.00263043
               6.00000000                0.00000000                0.00000000                1.00000000               -0.00000000                0.00000000                0.04486405               -0.00000000                0.02410065                0.03189314
               7.00000000                0.00000000                0.00000000                1.00000000               -0.00000000               -0.00000000                0.09108499                0.00000000                0.01534135                0.05566742
               8.00000000                0.00000000                0.00000000                1.00000000               -0.00000000               -0.00000000                0.10550834               -0.00000000               -0.00269203                0.06352290
               9.00000000                0.00000000                0.00000000                1.00000000                0.00000000                0.00000000                0.11178129                0.00000000               -0.02602171                0.06516731
              10.00000000                0.00000000                0.00000000                1.00000000               -0.00000000               -0.00000000                0.13460819                0.00000000               -0.06385196                0.06779220
               0.00000000                1.00000000                0.00000000                1.00000000               -0.00000000               -0.00000000                0.07707860               -0.00000000                0.04098259                0.01553438
               1.00000000                1.00000000                0.00000000                1.00000000               -0.00000000               -0.00000000                0.04713576               -0.00000000                0.01465036                0.01378032
               2.00000000                1.00000000                0.00000000                1.00000000                0.00000000                0.00000000                0.01431877                0.00000000                0.00275067                0.00542265
               3.00000000                1.00000000                0.00000000                1.00000000               -0.00000000               -0.00000000               -0.00102376               -0.00000000                0.00221174                0.00147656
               4.00000000                1.00000000                0.00000000                1.00000000                0.00000000                0.00000000                0.00020336                0.00000000                0.00107888               -0.00100190
               5.00000000                1.00000000                0.00000000                1.00000000                0.00000000               -0.00000000               -0.00139708               -0.00000000                0.00140831                0.00068657
               6.00000000                1.00000000                0.00000000                1.00000000                0.00000000               -0.00000000                0.01549443               -0.00000000                0.00725303                0.00507551
               7.00000000                1.00000000                0.00000000                1.00000000                0.00000000                0.00000000                0.04530430                0.00000000                0.00562150                0.01614527
               8.00000000                1.00000000                0.00000000                1.00000000                0.00000000                0.00000000                0.07676245                0.00000000               -0.00696503                0.02615415
               9.00000000                1.00000000                0.00000000                1.00000000               -0.00000000               -0.00000000                0.09066497               -0.00000000               -0.02980890                0.02799395
              10.00000000                1.00000000                0.00000000                1.00000000                0.00000000                0.00000000                0.10842190               -0.00000000               -0.06360262                0.02888483
               0.00000000                2.00000000                0.00000000                1.00000000               -0.00000000               -0.00000000                0.04587221                0.00000000                0.02930470               -0.00551190
               1.00000000                2.00000000                0.00000000                1.00000000               -0.00000000                0.00000000                0.01496050                0.00000000                0.00700275                0.00251590
               2.00000000                2.00000000                0.00000000                1.00000000                0.00000000               -0.00000000               -0.00268854               -0.00000000                0.00325159                0.00296611
               3.00000000                2.00000000                0.00000000                1.00000000               -0.00000000                0.00000000                0.00070506                0.00000000                0.00138366                0.00068856
               4.00000000                2.00000000                0.00000000                1.00000000               -0.00000000               -0.00000000               -0.00015334               -0.00000000                0.00057518                0.00002319
               5.00000000                2.00000000                0.00000000                1.00000000               -0.00000000                0.00000000                0.00049848                0.00000000                0.00010125               -0.00018745
               6.00000000                2.00000000                0.00000000                1.00000000                0.00000000                0.00000000               -0.00149317               -0.00000000               -0.00102876                0.00123297
               7.00000000                2.00000000                0.00000000                1.00000000                0.00000000               -0.00000000                0.00149915               -0.00000000                0.00019933                0.00298113
               8.00000000                2.00000000                0.00000000                1.00000000               -0.00000000                0.00000000                0.03315578                0.00000000               -0.00584768                0.00043302
               9.00000000                2.00000000                0.00000000                1.00000000                0.00000000                0.00000000                0.06753170                0.00000000               -0.02673264                0.00432965
              10.00000000                2.00000000                0.00000000                1.00000000                0.00000000               -0.00000000                0.10274322               -0.00000000               -0.06023778                0.00261869
               0.00000000                3.00000000                0.00000000                1.00000000                0.00000000                0.00000000               -0.00215850               -0.00000000                0.00205677               -0.00277007
               1.00000000                3.00000000                0.00000000                1.00000000                0.00000000                0.00000000               -0.00106682                0.00000000                0.00171861                0.00245272
               2.00000000                3.00000000                0.00000000                1.00000000               -0.00000000                0.00000000                0.00072690               -0.00000000                0.00081823                0.00145165
               3.00000000                3.00000000                0.00000000                1.00000000                0.00000000               -0.00000000               -0.00012968                0.00000000                0.00062834                0.00063048
               4.00000000                3.00000000                0.00000000                1.00000000               -0.00000000               -0.00000000                0.00008703               -0.00000000                0.00021327                0.00012055
               5.00000000                3.00000000                0.00000000                1.00000000                0.00000000               -0.00000000               -0.00006356               -0.00000000               -0.00021486                0.00016321
               6.00000000                3.00000000                0.00000000                1.00000000               -0.00000000                0.00000000                0.00017605                0.00000000               -0.00042623                0.00052440
               7.00000000                3.00000000                0.00000000                1.00000000                0.00000000                0.00000000                0.00087264                0.00000000               -0.00135562                0.00086418
               8.00000000                3.00000000                0.00000000                1.00000000                0.00000000               -0.00000000               -0.00543024               -0.00000000               -0.00361785                0.00186902
               9.00000000                3.00000000                0.00000000                1.00000000               -0.00000000                0.00000000                0.02134711               -0.00000000               -0.01110703               -0.00362046
              10.00000000                3.00000000                0.00000000                1.00000000                0.00000000               -0.00000000                0.06825245                0.00000000               -0.04273190               -0.01817015
               0.00000000                4.00000000                0.00000000                1.00000000               -0.00000000                0.00000000                0.00045901                0.00000000               -0.00056888                0.00218634
               1.00000000                4.00000000                0.00000000                1.00000000                0.00000000               -0.00000000                0.00027475               -0.00000000               -0.00100458                0.00127022
               2.00000000                4.00000000                0.00000000                1.00000000                0.00000000               -0.00000000               -0.00025044                0.00000000                0.00007471                0.00073524
               3.00000000                4.00000000                0.00000000                1.00000000               -0.00000000                0.00000000                0.00011980               -0.00000000                0.00008020                0.00032668
               4.00000000                4.00000000                0.00000000                1.00000000                0.00000000                0.00000000               -0.00001569               -0.00000000                0.00005136                0.00012854
               5.00000000                4.00000000                0.00000000                1.00000000                0.00000000               -0.00000000                0.00003262                0.00000000               -0.00008978                0.00011504
               6.00000000                4.00000000                0.00000000                1.00000000                0.00000000               -0.00000000                0.00005145               -0.00000000               -0.00029532                0.00023610
               7.00000000                4.00000000                0.00000000                1.00000000                0.00000000                0.00000000               -0.00018813                0.00000000               -0.00057338                0.00063913
               8.00000000                4.00000000                0.00000000                1.00000000                0.00000000               -0.00000000                0.00112991                0.00000000               -0.00081674                0.00100669
               9.00000000                4.00000000                0.00000000                1.00000000               -0.00000000                0.00000000               -0.00166020               -0.00000000               -0.00216112                0.00045920
              10.00000000                4.00000000                0.00000000                1.00000000                0.00000000                0.00000000               -0.00303847                0.00000000               -0.00425819               -0.00867491
               0.00000000                5.00000000                0.00000000                1.00000000               -0.00000000               -0.00000000               -0.00331906                0.00000000                0.00468890                0.01076522
               1.00000000                5.00000000                0.00000000                1.00000000                0.00000000                0.00000000               -0.00234461               -0.00000000                0.00150013                0.00220219
               2.00000000                5.00000000                0.00000000                1.00000000                0.00000000                0.00000000                0.00108104               -0.00000000               -0.00026361                0.00057743
               3.00000000                5.00000000                0.00000000                1.00000000               -0.00000000               -0.00000000               -0.00028006               -0.00000000                0.00006393                0.00005099
               4.00000000                5.00000000                0.00000000                1.00000000               -0.00000000               -0.00000000                0.00007312               -0.00000000               -0.00003178                0.00005986
               5.00000000                5.00000000                0.00000000                1.00000000                0.00000000                0.00000000                0.00000334               -0.00000000               -0.00006413                0.00001281
               6.00000000                5.00000000                0.00000000                1.00000000                0.00000000                0.00000000                0.00001091                0.00000000               -0.00014137                0.00007108
               7.00000000                5.00000000                0.00000000                1.00000000                0.00000000               -0.00000000                0.00008690               -0.00000000               -0.00015780                0.00015860
               8.00000000                5.00000000                0.00000000                1.00000000                0.00000000                0.00000000               -0.00012602                0.00000000               -0.00005775                0.00030486
               9.00000000                5.00000000                0.00000000                1.00000000                0.00000000                0.00000000                0.00015271                0.00000000                0.00067687               -0.00024313
              10.00000000                5.00000000                0.00000000                1.00000000               -0.00000000               -0.00000000                0.00022502               -0.00000000                0.00057618               -0.00231389
               0.00000000                6.00000000                0.00000000                1.00000000                0.00000000                0.00000000                0.06891531               -0.00000000                0.03943211                0.02629799
               1.00000000                6.00000000                0.00000000                1.00000000               -0.00000000                0.00000000                0.02551111                0.00000000                0.00621956                0.01061173
               2.00000000                6.00000000                0.00000000                1.00000000                0.00000000                0.00000000               -0.00508390               -0.00000000                0.00121913                0.00047745
               3.00000000                6.00000000                0.00000000                1.00000000                0.00000000                0.00000000                0.00100451                0.00000000               -0.00013635                0.00026703
               4.00000000                6.00000000                0.00000000                1.00000000                0.00000000                0.00000000               -0.00012830                0.00000000               -0.00001486               -0.00020117
               5.00000000                6.00000000                0.00000000                1.00000000               -0.00000000               -0.00000000                0.00003342               -0.00000000               -0.00002672               -0.00009185
               6.00000000                6.00000000                0.00000000                1.00000000                0.00000000                0.00000000                0.00002464                0.00000000               -0.00013772               -0.00011383
               7.00000000                6.00000000                0.00000000                1.00000000               -0.00000000                0.00000000                0.00001384               -0.00000000               -0.00020399               -0.00026784
               8.00000000                6.00000000                0.00000000                1.00000000               -0.00000000               -0.00000000                0.00007943               -0.00000000                0.00007456               -0.00050509
               9.00000000                6.00000000                0.00000000                1.00000000                0.00000000               -0.00000000                0.00001529               -0.00000000                0.00042283               -0.00069483
              10.00000000                6.00000000                0.00000000                1.00000000                0.00000000               -0.00000000               -0.00037558                0.00000000                0.00054291               -0.00086811
               0.00000000                7.00000000                0.00000000                1.00000000               -0.00000000               -0.00000000                0.09472637                0.00000000                0.05162769                0.01232866
               1.00000000                7.00000000                0.00000000                1.00000000               -0.00000000                0.00000000                0.06103523                0.00000000                0.01664821                0.00725414
               2.00000000                7.00000000                0.00000000                1.00000000                0.00000000                0.00000000                0.02193285               -0.00000000               -0.00091721                0.00416521
               3.00000000                7.00000000                0.00000000                1.00000000               -0.00000000               -0.00000000               -0.00171492               -0.00000000               -0.00050320               -0.00140738
               4.00000000                7.00000000                0.00000000                1.00000000                0.00000000                0.00000000                0.00013613                0.00000000                0.00028256               -0.00045899
               5.00000000                7.00000000                0.00000000                1.00000000                0.00000000               -0.00000000                0.00002919                0.00000000                0.00005926               -0.00019134
               6.00000000                7.00000000                0.00000000                1.00000000               -0.00000000                0.00000000                0.00002087               -0.00000000               -0.00028649               -0.00021532
               7.00000000                7.00000000                0.00000000                1.00000000               -0.00000000               -0.00000000                0.00010334               -0.00000000               -0.00069720               -0.00070732
               8.00000000                7.00000000                0.00000000                1.00000000                0.00000000               -0.00000000               -0.00002367                0.00000000               -0.00090201               -0.00186986
               9.00000000                7.00000000                0.00000000                1.00000000                0.00000000                0.00000000                0.00033829                0.00000000                0.00035099               -0.00231239
              10.00000000                7.00000000                0.00000000                1.00000000               -0.00000000               -0.00000000                0.00035097               -0.00000000                0.00115906               -0.00052089
               0.00000000                8.00000000                0.00000000                1.00000000               -0.00000000                0.00000000                0.09687513               -0.00000000                0.05680265               -0.00237667
               1.00000000                8.00000000                0.00000000                1.00000000                0.00000000               -0.00000000                0.07500833                0.00000000                0.02251707               -0.00653748
               2.00000000                8.00000000                0.00000000                1.00000000               -0.00000000               -0.00000000                0.04088766                0.00000000                0.00017393               -0.00722569
               3.00000000                8.00000000                0.00000000                1.00000000               -0.00000000                0.00000000               -0.00485058                0.00000000                0.00108387               -0.00302423
               4.00000000                8.00000000                0.00000000                1.00000000                0.00000000                0.00000000                0.00079583                0.00000000                0.00085235               -0.00099973
               5.00000000                8.00000000                0.00000000                1.00000000               -0.00000000                0.00000000               -0.00006512               -0.00000000                0.00028453               -0.00013206
               6.00000000                8.00000000                0.00000000                1.00000000                0.00000000               -0.00000000                0.00007278               -0.00000000               -0.00048607                0.00001251
               7.00000000                8.00000000                0.00000000                1.00000000                0.00000000                0.00000000               -0.00002158                0.00000000               -0.00184459               -0.00092198
               8.00000000                8.00000000                0.00000000                1.00000000               -0.00000000               -0.00000000                0.00107861                0.00000000               -0.00368669               -0.00369101
               9.00000000                8.00000000                0.00000000                1.00000000                0.00000000               -0.00000000               -0.00174218               -0.00000000               -0.00539518               -0.00825840
              10.00000000                8.00000000                0.00000000                1.00000000               -0.00000000                0.00000000               -0.00444455                0.00000000               -0.00372595                0.00044548
               0.00000000                9.00000000                0.00000000                1.00000000               -0.00000000               -0.00000000                0.10325651               -0.00000000                0.06135855               -0.02237249
               1.00000000                9.00000000                0.00000000                1.00000000                0.00000000                0.00000000                0.07824777               -0.00000000                0.02785660               -0.02494083
               2.00000000                9.00000000                0.00000000                1.00000000               -0.00000000               -0.00000000                0.05101609                0.00000000                0.00736363               -0.02161236
               3.00000000                9.00000000                0.00000000                1.00000000                0.00000000                0.00000000                0.01061516               -0.00000000                0.00034653               -0.00837559
               4.00000000                9.00000000                0.00000000                1.00000000                0.00000000                0.00000000               -0.00069783               -0.00000000                0.00136669               -0.00171113
               5.00000000                9.00000000                0.00000000                1.00000000                0.00000000               -0.00000000                0.00009434                0.00000000               -0.00000763                0.00046749
               6.00000000                9.00000000                0.00000000                1.00000000               -0.00000000                0.00000000                0.00002791               -0.00000000               -0.00055551                0.00033027
               7.00000000                9.00000000                0.00000000                1.00000000               -0.00000000               -0.00000000                0.00034103               -0.00000000               -0.00225872                0.00033419
               8.00000000                9.00000000                0.00000000                1.00000000                0.00000000               -0.00000000               -0.00174132               -0.00000000               -0.00823258               -0.00536055
               9.00000000                9.00000000                0.00000000                1.00000000               -0.00000000                0.00000000                0.03227064                0.00000000               -0.01803431               -0.01791445
              10.00000000                9.00000000                0.00000000                1.00000000                0.00000000               -0.00000000                0.09676560               -0.00000000               -0.05479484               -0.01184946
               0.00000000               10.00000000                0.00000000                1.00000000                0.00000000                0.00000000                0.11980712                0.00000000                0.06363768               -0.05577352
               1.00000000               10.00000000                0.00000000                1.00000000               -0.00000000                0.00000000                0.09434284                0.00000000                0.03015714               -0.05414775
               2.00000000               10.00000000                0.00000000                1.00000000               -0.00000000               -0.00000000                0.07999608                0.00000000                0.00756849               -0.05084589
               3.00000000               10.00000000                0.00000000                1.00000000               -0.00000000               -0.00000000                0.04145160               -0.00000000               -0.01061511               -0.03119645
               4.00000000               10.00000000                0.00000000                1.00000000                0.00000000                0.00000000               -0.00166988                0.00000000               -0.00498131               -0.00208422
               5.00000000               10.00000000                0.00000000                1.00000000                0.00000000               -0.00000000                0.00006229                0.00000000               -0.00132735                0.00047092
               6.00000000               10.00000000                0.00000000                1.00000000                0.00000000               -0.00000000               -0.00032255               -0.00000000               -0.00063329                0.00053036
               7.00000000               10.00000000                0.00000000                1.00000000                0.00000000                0.00000000                0.00034962                0.00000000               -0.00046656                0.00115985
               8.00000000               10.00000000                0.00000000                1.00000000               -0.00000000                0.00000000               -0.00446010               -0.00000000                0.00046817               -0.00367396
               9.00000000               10.00000000                0.00000000                1.00000000                0.00000000               -0.00000000                0.09656996                0.00000000               -0.01163062               -0.05454496
              10.00000000               10.00000000                0.00000000                1.00000000               -0.00000000                0.00000000                0.19909142                0.00000000               -0.07032026               -0.07070422
               0.00040945                0.00043198                1.00093680                1.00000000               -0.02725865               -0.02766385                0.08529816               -0.00302405                0.00957452                0.01509687
               1.00013687                0.00040137                1.00075479                0.87107648               -0.02364841               -0.02635673                0.08019259               -0.00718495               -0.00944453                0.00139753
               1.99993649                0.00026901                1.00042549                0.01000000               -0.00820667               -0.02147859                0.07518689               -0.01017744               -0.03658294               -0.00077866
               2.99997273                0.00001578                0.99997900                0.01000000                0.00397892               -0.00010158                0.09328468               -0.00881056               -0.02287466                0.01322587
               4.00001606               -0.00000596                1.00000207                0.01098259                0.00573763               -0.00040549                0.04478433               -0.00000145                0.01023713                0.04323955
               5.00008749                0.00002630                0.99997950                0.01000001                0.01124708               -0.00194386                0.06680668                0.00890436                0.03944186                0.03920950
               6.00024101                0.00031893                1.00044864                0.80225845                0.00329631               -0.02681763                0.08723334                0.00967088                0.07166494               -0.00124404
               7.00015341                0.00055667                1.00091085                0.99963908               -0.01339634               -0.03952215                0.09046805                0.00609503                0.04074915               -0.00884388
               7.99997308                0.00063523                1.00105508                0.99999999               -0.02068153               -0.03736875                0.10136622                0.00047694                0.00484549                0.01379330
               8.99973978                0.00065167                1.00111781                1.00000000               -0.03057996               -0.03717335                0.11444510               -0.00165255               -0.00797515                0.02429212
               9.99936148                0.00067792                1.00134608                0.99798857               -0.03783025               -0.03890737                0.12388987                0.00287423               -0.01625036                0.02208968
               0.00040983                1.00015534                1.00077079                0.90800150               -0.02633223               -0.02435506                0.07935301               -0.00757444                0.00100312               -0.00379993
               1.00014650                1.00013780                1.00047136                0.01000001               -0.01911596               -0.01881058                0.07213840               -0.00839790               -0.01242224               -0.01265244
               2.00002751                1.00005423                1.00014319                0.01000001               -0.00621931               -0.01196757                0.06829316               -0.00135041               -0.01845364               -0.01143654
               3.00002212                1.00001477                0.99998976                0.01000001               -0.00083589               -0.00044479                0.08794906               -0.00115718               -0.00460020                0.01945199
               4.00001079                0.99998998                1.00000203                0.01000000               -0.00040172                0.00030980                0.03634269               -0.00091064                0.00722128                0.01579519
               5.00001408                1.00000687                0.99998603                0.01000000                0.00308707               -0.00140894                0.05278713               -0.00128504                0.02440871                0.01910493
               6.00007253                1.00005076                1.00015494                0.01047476                0.00210660               -0.01533009                0.07823562               -0.00483536                0.04310557               -0.01063531
               7.00005622                1.00016145                1.00045304                0.52100389               -0.00710903               -0.02634315                0.09516004                0.00296831                0.03393152               -0.02305816
               7.99993035                1.00026154                1.00076762                0.99999998               -0.01771520               -0.03154494                0.09807695                0.00434652                0.01110799               -0.00920194
               8.99970191                1.00027994                1.00090665                0.99999999               -0.02831880               -0.03041883                0.10078351                0.00100987               -0.01115330                0.00668687
               9.99936397                1.00028885                1.00108422                0.99999999               -0.03379372               -0.03258676                0.11144052                0.00269796               -0.02527690                0.01552940
               0.00029305                1.99994488                1.00045872                0.01991260               -0.02230195               -0.00915222                0.07443075               -0.01143512                0.00295593               -0.03334987
               1.00007003                2.00002516                1.00014961                0.01000001               -0.01302656               -0.00566380                0.06346801               -0.00222688               -0.00627911               -0.02015811
               2.00003252                2.00002966                0.99997311                0.01000001               -0.00280954               -0.00198550                0.09133038               -0.00187989                0.01089989                0.00002239
               3.00001384                2.00000689                1.00000705                0.01000001               -0.00133820               -0.00042304                0.03124703               -0.00226316                0.01214054                0.01155970
               4.00000575                2.00000023                0.99999847                0.01000001               -0.00064120                0.00056122                0.04612694               -0.00087080                0.00715626                0.00818253
               5.00000101                1.99999813                1.00000498                0.01000000               -0.00080197               -0.00026168                0.04745999               -0.00020669                0.00567165                0.00793881
               5.99998971                2.00001233                0.99998507                0.01000000                0.00004904               -0.00227556                0.04743944               -0.00225534                0.00441742               -0.00058158
               7.00000199                2.00002981                1.00001499                0.01000000               -0.00240946               -0.00764054                0.12763366               -0.00388854                0.01072643               -0.00992024
               7.99994152                2.00000433                1.00033156                0.01000000               -0.01346599               -0.01214256                0.09568367                0.00234785                0.01752877               -0.03343523
               8.99973267                2.00004330                1.00067532                1.00000000               -0.02719505               -0.01580721                0.08551496                0.01044377                0.00352199               -0.02233644
               9.99939762                2.00002619                1.00102743                1.00000000               -0.03350514               -0.02352749                0.10010440                0.00872439               -0.01072186               -0.00491790
               0.00002057                2.99997230                0.99997842                0.01388281               -0.00033816                0.00384912                0.09236098               -0.00971400                0.02756640               -0.01972407
               1.00001719                3.00002453                0.99998933                0.01000001               -0.00061927               -0.00062284                0.08265985               -0.00189281                0.03366613               -0.00792563
               2.00000818                3.00001452                1.00000727                0.01000001               -0.00054513               -0.00111543                0.03125829               -0.00249957                0.01628677                0.01107540
               3.00000628                3.00000630                0.99999870                0.01000001               -0.00030248               -0.00018094                0.04554664               -0.00131728                0.00690307                0.00741586
               4.00000213                3.00000121                1.00000087                0.01000001               -0.00042160                0.00005268                0.04260023               -0.00049555                0.00437906                0.00536130
               4.99999785                3.00000163                0.99999936                0.01000001               -0.00031975                0.00015124                0.04488076                0.00010641                0.00199974                0.00124502
               5.99999574                3.00000524                1.00000176                0.01000001               -0.00057038               -0.00049843                0.05169077                0.00071721               -0.00052119                0.00022758
               6.99998644                3.00000864                1.00000873                0.01000001               -0.00159581               -0.00117100                0.05465282                0.00028596               -0.00980015               -0.00158402
               7.99996382                3.00001869                0.99994570                0.01548569               -0.00487571                0.00028684                0.04312722                0.00027315               -0.00805933               -0.00843300
               8.99988893                2.99996380                1.00021347                0.01060477               -0.01955702               -0.00193523                0.06970203                0.00226618                0.00667489               -0.03825118
               9.99957268                2.99981830                1.00068252                0.12996685               -0.03162486               -0.00564680                0.08949495                0.01344011               -0.00187549               -0.05437184
              -0.00000569                4.00002186                1.00000459                0.01000001               -0.00043570                0.00676764                0.03849787                0.00039995                0.04704593                0.00030087
               0.99998995                4.00001270                1.00000275                0.01000000                0.00032179               -0.00012526                0.03101153               -0.00083479                0.01486590                0.00346638
               2.00000075                4.00000735                0.99999750                0.01000001                0.00054239               -0.00043711                0.04972967               -0.00101269                0.00839157                0.01005500
               3.00000080                4.00000327                1.00000120                0.01000001               -0.00001168               -0.00028974                0.04370164               -0.00058556                0.00391489                0.00603350
               4.00000051                4.00000129                0.99999984                0.01258946               -0.00008499               -0.00003034                0.03466720               -0.00022835                0.00138879                0.00219102
               4.99999910                4.00000115                1.00000033                0.01104595               -0.00017334               -0.00007520                0.04087130                0.00012915               -0.00165600               -0.00018068
               5.99999705                4.00000236                1.00000051                0.01000001               -0.00024180               -0.00022666                0.05785498                0.00040448               -0.00478945               -0.00305284
               6.99999427                4.00000639                0.99999812                0.01000000               -0.00026071               -0.00035279                0.06568147                0.00098420               -0.00981337               -0.00424175
               7.99999183                4.00001007                1.00001130                0.01164423               -0.00079387               -0.00078208                0.03621528                0.00169008               -0.01504395               -0.00321103
               8.99997839                4.00000459                0.99998340                0.01000000               -0.00172073                0.00168867                0.03855179                0.00105115               -0.03418682               -0.01589853
               9.99995742                3.99991325                0.99996962                0.01149642               -0.00209707                0.00792813                0.07182712                0.01251994               -0.06046002               -0.03508147
               0.00004689                5.00010765                0.99996681                0.01000003               -0.00318876                0.01205583                0.07116636                0.01143747                0.05022272                0.04752842
               1.00001500                5.00002202                0.99997655                0.01000000               -0.00247625                0.00467075                0.05697499               -0.00148183                0.02252140                0.02624440
               1.99999736                5.00000577                1.00001081                0.01000000               -0.00071810               -0.00012890                0.05067530               -0.00050339                0.00607539                0.00490939
               3.00000064                5.00000051                0.99999720                0.01000001                0.00011591               -0.00002983                0.04598930               -0.00036705               -0.00013055                0.00254170
               3.99999968                5.00000060                1.00000073                0.01104662               -0.00006403               -0.00016485                0.04067247               -0.00005219                0.00057641               -0.00312473
               4.99999936                5.00000013                1.00000003                0.01215250               -0.00005480               -0.00010344                0.04328097                0.00003714               -0.00217038               -0.00504619
               5.99999859                5.00000071                1.00000011                0.01000000               -0.00004684               -0.00017497                0.05577870                0.00015169               -0.00644565               -0.00677406
               6.99999842                5.00000159                1.00000087                0.01000000                0.00004181               -0.00045349                0.06000231                0.00030159               -0.01048090               -0.01060201
               7.99999942                5.00000305                0.99999874                0.01000001                0.00041733               -0.00075589                0.04441691                0.00024478               -0.01863846               -0.00823594
               9.00000677                4.99999757                1.00000153                0.01000001                0.00031697               -0.00057701                0.05066357               -0.00001740               -0.03206761               -0.00484489
              10.00000576                4.99997686                1.00000225                0.01000000               -0.00010068                0.00390340                0.06917021                0.00032978               -0.05736131               -0.00324772
               0.00039432                6.00026298                1.00068915                0.98890273               -0.03321255                0.00078172                0.09254489                0.00778313               -0.00748977                0.07303508
               1.00006220                6.00010612                1.00025511                0.01000000               -0.01910649                0.00252597                0.08094556               -0.00533623               -0.02137354                0.05215903
               2.00001219                6.00000477                0.99994916                0.01000000               -0.00317795                0.00179389                0.05591959               -0.00549915               -0.00461457                0.01212246
               2.99999864                6.00000267                1.00001005                0.01000001               -0.00061699               -0.00072918                0.04919196               -0.00062288                0.00165590               -0.00273096
               3.99999985                5.99999799                0.99999872                0.01000001                0.00005481               -0.00025943                0.05491651               -0.00002227               -0.00017811               -0.00825463
               4.99999973                5.99999908                1.00000033                0.01000000               -0.00006143               -0.00010207                0.05406895                0.00010537               -0.00285393               -0.01052294
               5.99999862                5.99999886                1.00000025                0.01668718               -0.00008864               -0.00014320                0.02895954               -0.00016055               -0.00500717               -0.00866853
               6.99999796                5.99999732                1.00000014                0.01049493                0.00010614               -0.00043296                0.02705727               -0.00046533               -0.01116837               -0.00716569
               8.00000075                5.99999495                1.00000079                0.01138598                0.00031341               -0.00108736                0.04795899               -0.00063562               -0.01768223               -0.00921341
               9.00000423                5.99999305                1.00000015                0.01278574                0.00023418               -0.00103463                0.04262330               -0.00034445               -0.02932071               -0.00627008
              10.00000543                5.99999132                0.99999624                0.01097796                0.00012008                0.00089650                0.05693839                0.00011816               -0.05235989               -0.00487693
               0.00051628                7.00012329                1.00094726                1.00000000               -0.03497948               -0.01433733                0.09343149                0.00361075                0.00437301                0.02261854
               1.00016648                7.00007254                1.00061035                0.99925144               -0.02627245               -0.00857461                0.07994765                0.00406703               -0.01385742                0.02913635
               1.99999083                7.00004165                1.00021933                0.01000000               -0.00857571               -0.00385157                0.06502581               -0.00485336               -0.02589435                0.02635716
               2.99999497                6.99998593                0.99998285                0.01000001                0.00059989               -0.00164563                0.04544759               -0.00170199               -0.00631180               -0.01979224
               4.00000283                6.99999541                1.00000136                0.01000000                0.00028123               -0.00039928                0.06128904                0.00104163                0.00174513               -0.01235486
               5.00000059                6.99999809                1.00000029                0.01000000               -0.00028452               -0.00002011                0.05514560                0.00027746               -0.00515533               -0.01475016
               5.99999714                6.99999785                1.00000021                0.01049635               -0.00037823                0.00006317                0.02705461               -0.00043217               -0.00284872               -0.01457483
               6.99999303                6.99999293                1.00000103                0.01000001               -0.00030776               -0.00032707                0.03340173               -0.00164758               -0.01186590               -0.01605341
               7.99999098                6.99998130                0.99999976                0.01000000                0.00052410               -0.00159296                0.04750060               -0.00268316               -0.01730037               -0.01745337
               9.00000351                6.99997688                1.00000338                0.01000001                0.00103054               -0.00378178                0.04260760               -0.00223452               -0.03074813               -0.01775461
              10.00001159                6.99999479                1.00000351                0.01036014                0.00080808                0.00065679                0.05749493               -0.00034293               -0.05438505               -0.01513146
               0.00056803                7.99997623                1.00096875                1.00000000               -0.03428558               -0.01735058                0.09874905                0.00070461                0.02029119                0.00091349
               1.00022517                7.99993463                1.00075008                1.00000000               -0.02831436               -0.01609748                0.08310925                0.00317968               -0.00129655                0.00066702
               2.00000174                7.99992774                1.00040888                0.02060992               -0.01071660               -0.01288878                0.06821935                0.00589705               -0.02977984                0.00139350
               3.00001084                7.99996976                0.99995149                0.01549101                0.00033921               -0.00348410                0.08640006                0.00353785               -0.01660797               -0.02094742
               4.00000852                7.99999000                1.00000796                0.01164920               -0.00039967               -0.00062607                0.02121417                0.00198815                0.00284022               -0.01500622
               5.00000285                7.99999868                0.99999935                0.01000001               -0.00066921                0.00032941                0.04141977                0.00047267               -0.00275280               -0.02181065
               5.99999514                8.00000013                1.00000073                0.01140205               -0.00106456                0.00027279                0.04418267               -0.00052947               -0.00324407               -0.02082525
               6.99998155                7.99999078                0.99999978                0.01000000               -0.00160031                0.00052076                0.04544695               -0.00263252               -0.01230671               -0.02071827
               7.99996313                7.99996309                1.00001079                0.01000000               -0.00177529               -0.00174534                0.06973547               -0.00733350               -0.02855319               -0.02933145
               8.99994605                7.99991742                0.99998258                0.01564400               -0.00001963               -0.00780103                0.07352765               -0.00712440               -0.04280749               -0.00445084
               9.99996274                8.00000445                0.99995555                0.01000002                0.00166922               -0.00566428                0.08733276               -0.01927307               -0.06409433                0.03595236
               0.00061359                8.99977628                1.00103257                1.00000000               -0.03350195               -0.02669842                0.10442832                0.00084917                0.02144208               -0.00599425
               1.00027857                8.99975059                1.00078248                0.99875153               -0.02699746               -0.02380513                0.08786972                0.00420010                0.00569752               -0.01166136
               2.00007364                8.99978388                1.00051016                0.82167785               -0.01375504               -0.02181010                0.07531620                0.01197990               -0.01609337               -0.00618763
               3.00000347                8.99991624                1.00010615                0.01061419               -0.00299847               -0.01408611                0.06580055                0.00410112               -0.01988070               -0.00278007
               4.00001367                8.99998289                0.99999302                0.01000000               -0.00017708               -0.00054225                0.03189525                0.00150471               -0.00500953               -0.03437250
               4.99999992                9.00000467                1.00000094                0.01000001               -0.00096110                0.00030149                0.04352558                0.00021476                0.00236108               -0.03271089
               5.99999444                9.00000330                1.00000028                0.01278081               -0.00112554                0.00025892                0.03868610               -0.00014026                0.00029551               -0.03081078
               6.99997741                9.00000334                1.00000341                0.01000001               -0.00383854                0.00104091                0.04142962               -0.00215639               -0.01204856               -0.03238034
               7.99991767                8.99994639                0.99998259                0.01498610               -0.00788780                0.00000853                0.06462714               -0.00704689               -0.00478836               -0.03863703
               8.99981966                8.99982086                1.00032271                0.98991087               -0.02328113               -0.02314328                0.10718445               -0.00636217                0.00563304                0.00656303
               9.99945205                8.99988151                1.00096766                0.99953790               -0.03676053               -0.03557485                0.14481033               -0.02723216               -0.00952187                0.05584110
               0.00063638                9.99944226                1.00119807                0.99850245               -0.03348053               -0.03340103                0.10996638                0.00390489                0.02384482               -0.01534315
               1.00030157                9.99945852                1.00094343                0.99999999               -0.02803459               -0.02920692                0.09408669                0.00476436                0.01562593               -0.01928086
               2.00007568                9.99949154                1.00079996                1.00000000               -0.02038613               -0.02923354                0.08658723                0.01168051               -0.00429866               -0.00977641
               2.99989385                9.99968804                1.00041452                0.01000001               -0.00627490               -0.02282086                0.07838470                0.01341920               -0.03231076               -0.01050969
               3.99995019                9.99997916                0.99998330                0.01041367                0.00464388               -0.00037309                0.05835297                0.00948569               -0.01157012               -0.05416476
               4.99998673               10.00000471                1.00000062                0.01000000                0.00217401                0.00000342                0.06071988               -0.00001243                0.00570733               -0.05460006
               5.99999367               10.00000530                0.99999677                0.01082965                0.00043040                0.00020009                0.05209336                0.00026668                0.00242979               -0.05084748
               6.99999533               10.00001160                1.00000350                0.01210308                0.00055073                0.00082565                0.06036896               -0.00031000               -0.00941425               -0.05332356
               8.00000468                9.99996326                0.99995540                0.01000382               -0.00558203                0.00168659                0.05393454               -0.01915165                0.02918303               -0.06083021
               8.99988369                9.99945455                1.00096570                0.99953728               -0.03539421               -0.03663051                0.14445162               -0.02711145                0.05646390               -0.00865469
               9.99929680                9.99929296                1.00199091                0.99940351               -0.05868963               -0.05885477                0.18039616               -0.03168468                0.03159134                0.03074811
               0.00055552                0.00063397                2.00170596                1.00000000               -0.02331043               -0.02318889                0.07708438                0.00242332                0.00120521                0.00611054
               1.00032242                0.00059481                2.00160385                1.00000000               -0.02556993               -0.02426757                0.08101279                0.00142680                0.00305068               -0.00140358
               2.00004412                0.00054904                2.00150374                0.15258910               -0.01782461               -0.03253902                0.09215292               -0.01075073                0.02499584                0.00255208
               2.99996593                0.00024300                2.00186569                0.01000003                0.00800598                0.01179938                0.08207395                0.02411391               -0.02382478                0.00758678
               4.00020424                0.00086487                2.00089569                0.01000001                0.01881715               -0.05453598                0.10501707                0.02079822               -0.01638875                0.03418709
               5.00034227                0.00077113                2.00133613                0.01404578                0.01488528               -0.04145189                0.09667665               -0.01581856                0.04965285                0.01402687
               6.00050195                0.00056251                2.00174467                0.95677420               -0.00668648               -0.03116456                0.09661368               -0.01230513                0.02935451               -0.00598873
               7.00020854                0.00073874                2.00180936                0.99999999               -0.03060016               -0.03040409                0.09329152                0.00015461                0.01196356                0.01827873
               7.99988995                0.00085078                2.00202732                1.00000000               -0.03295209               -0.03112968                0.10520642               -0.00366773                0.01535102                0.00881316
               8.99954950                0.00090817                2.00228890                1.00000000               -0.03357460               -0.03319355                0.11486337               -0.00317911                0.00848333               -0.00321626
               9.99921845                0.00096552                2.00247780                1.00000000               -0.03310437               -0.03362817                0.11415167               -0.00217807                0.00608944                0.00536356
               0.00061892                1.00040208                2.00158706                1.00000000               -0.02397657               -0.02542987                0.08041717                0.00109651                0.00205583                0.00892675
               1.00037915                1.00035213                2.00144277                0.39432715               -0.02531985               -0.02579724                0.08925351               -0.00704141                0.00664627               -0.00053776
               2.00011252                1.00022365                2.00136586                0.01000000               -0.01650018               -0.02063358                0.10070965                0.01626435                0.02763051                0.03244325
               3.00004915                1.00036099                2.00175898                0.01000000                0.00178182               -0.00103725                0.07581767                0.01736972               -0.02450437               -0.03987105
               4.00014816                1.00031951                2.00072685                0.01000000                0.01430568               -0.03500280                0.09841934               -0.00317153               -0.02663321                0.03086109
               5.00033526                1.00035661                2.00105574                0.01000000                0.01234694               -0.03128464                0.09509769               -0.01420415                0.05404431                0.00806171
               6.00039510                1.00025087                2.00156471                0.01000000               -0.01346567               -0.02104797                0.10801417               -0.01727640                0.04705572               -0.02634256
               7.00006595                1.00043470                2.00190320                0.99999998               -0.03132722               -0.02464121                0.11707024               -0.00259401                0.01369426                0.04947736
               7.99976855                1.00053949                2.00196154                0.99999999               -0.03028054               -0.03487806                0.11255174               -0.00290795               -0.00851996                0.01155507
               8.99946034                1.00057623                2.00201567                0.99999999               -0.03146150               -0.03308594                0.11252971               -0.00425910               -0.00598413               -0.00328516
               9.99913932                1.00062924                2.00222881                0.99999999               -0.03210162               -0.03310915                0.11299912               -0.00155566                0.00130107                0.00863996
               0.00067735                2.00012537                2.00148862                0.21305557               -0.03173275               -0.01712158                0.09140394               -0.00912227                0.00514523                0.03155252
               1.00036003                2.00007886                2.00126936                0.01000000               -0.01584003               -0.01818939                0.09744568                0.01381539                0.04354498                0.02037520
               2.00036055                2.00013637                2.00182661                0.01000001               -0.00712833               -0.00132604                0.06415053                0.01736158               -0.01043165               -0.02124332
               3.00021746                2.00022225                2.00062494                0.01000000               -0.01076806               -0.01034112                0.10060948                0.00618788               -0.02855032               -0.02282362
               4.00014519                2.00016481                2.00092254                0.01000001               -0.00453137               -0.01068304                0.08782077               -0.00690255                0.02312293                0.02324179
               5.00012683                2.00014544                2.00094920                0.01000000               -0.00334246               -0.01635279                0.10047770               -0.01597104                0.00521240                0.00735119
               6.00007834                2.00014155                2.00094879                0.01000001               -0.01293961               -0.01308802                0.11961229               -0.01572062                0.07184593               -0.01312002
               6.99986804                2.00024591                2.00255267                0.01000000               -0.01940459               -0.02247514                0.14316544               -0.00971100                0.03771513               -0.03378047
               7.99969025                2.00015322                2.00191367                0.01000000               -0.02467368               -0.01939441                0.12751128               -0.00669733               -0.06190851               -0.03871073
               8.99937457                2.00024645                2.00171030                1.00000000               -0.03044587               -0.03246689                0.10928088                0.00432228               -0.02329044               -0.01019274
               9.99908133                2.00030334                2.00200209                1.00000000               -0.02932331               -0.03294288                0.10244068               -0.00005832                0.00049883                0.00681697
               0.00052949                3.00005965                2.00184722                0.01000000                0.01149744               -0.00538753                0.08072578                0.00623198                0.01715417               -0.02344737
               1.00064447                2.99998834                2.00165320                0.01000000               -0.01065651                0.00016210                0.06994535                0.00409318               -0.02022390               -0.02632536
               2.00031636                3.00019713                2.00062517                0.01000000               -0.02500043                0.00305961                0.10246168               -0.00126732               -0.01295147               -0.02299166
               3.00014446                3.00015417                2.00091093                0.01000001               -0.01147221               -0.00500397                0.08612892               -0.01163931                0.02281839                0.02638083
               4.00008692                3.00010585                2.00085200                0.01000001               -0.00526778               -0.00604273                0.08799258               -0.01205771                0.00309262               -0.00097045
               5.00003910                3.00002956                2.00089762                0.01000000               -0.00533529               -0.00748619                0.09640536               -0.01386834                0.00702980               -0.00031096
               5.99998021                2.99998911                2.00103382                0.01000001               -0.00895223               -0.01004788                0.11213530               -0.01081449               -0.00142530                0.01319678
               6.99986006                2.99998519                2.00109306                0.01000000               -0.01730728               -0.01614447                0.13282928                0.00437011               -0.03400355               -0.05641542
               7.99963407                3.00015160                2.00086254                0.01000000               -0.02316945               -0.01352426                0.13679042               -0.00173526               -0.02150273               -0.05012218
               8.99939667                2.99992690                2.00139404                0.01000000               -0.03048425               -0.01762382                0.11422741               -0.00989184                0.00165565               -0.03860733
               9.99902438                2.99997038                2.00178990                0.21996855               -0.03722874               -0.01623457                0.10702901               -0.00879990               -0.00440501               -0.00494364
               0.00094460                4.00001762                2.00076996                0.01000001               -0.06401913                0.01031774                0.11652855                0.02922178                0.04756718               -0.00579786
               1.00030441                4.00008211                2.00062023                0.01000000               -0.03876114                0.01420898                0.10838227               -0.00290530                0.04403592               -0.01191103
               2.00016938                4.00019756                2.00099459                0.01000000               -0.01142311               -0.00253024                0.09426390               -0.00877166                0.02737258                0.03218349
               3.00007595                4.00012217                2.00087403                0.01000001               -0.00703666               -0.00560914                0.09072152               -0.01452956               -0.00844295                0.00904626
               4.00002865                4.00004396                2.00069334                0.01000000               -0.00548709               -0.00836089                0.09288957               -0.01023412               -0.00386711                0.00023611
               4.99996621                3.99999572                2.00081743                0.01603202               -0.00611145               -0.00652454                0.08068839               -0.00926274                0.01498017               -0.00147527
               5.99990642                3.99994059                2.00115710                0.01657068               -0.00866302               -0.00621592                0.07877947               -0.00913289                0.00909358                0.00183106
               6.99979295                3.99992302                2.00131363                0.01012345               -0.00962884               -0.00996261                0.10697807               -0.00630830               -0.04624333                0.00249316
               7.99971384                3.99988274                2.00072431                0.01000001               -0.02175004               -0.01529064                0.12246030               -0.00182725               -0.06551166                0.00112400
               8.99935795                3.99989397                2.00077104                0.01000002               -0.04477382               -0.00202740                0.11912597                0.00271872               -0.02221567               -0.01896111
               9.99881837                3.99997865                2.00143654                0.01000000               -0.05395822               -0.00309817                0.12817930               -0.00018563               -0.00743530               -0.01335458
               0.00098497                5.00026601                2.00142333                0.01000002               -0.05785382                0.02313121                0.12957256               -0.01066386                0.02566179                0.06642443
               1.00040643                5.00027252                2.00113950                0.01000000               -0.04420514                0.01636384                0.11723347               -0.00556870                0.00834660                0.06593333
               2.00010086                5.00014652                2.00101351                0.01000000               -0.01994794               -0.00818137                0.10980148               -0.01235718               -0.00018416                0.01538635
               3.00000747                5.00004199                2.00091979                0.01000000               -0.00460841               -0.00812223                0.09961268               -0.01501395               -0.00753491                0.00677552
               4.00000869                4.99993863                2.00081345                0.01603335               -0.00251268               -0.01048410                0.07980162               -0.00827087               -0.00266605                0.01265996
               4.99995721                4.99989907                2.00086562                0.01457849               -0.00692214               -0.01032172                0.06827246               -0.00493305                0.00714091                0.00344420
               5.99987025                4.99986479                2.00111557                0.01000000               -0.00827317               -0.00570324                0.07450920               -0.00597471                0.00334095               -0.03542420
               6.99979175                4.99978594                2.00120005                0.01000000               -0.01218393               -0.00332504                0.09463868               -0.00179323               -0.03419142               -0.04710173
               7.99962657                4.99984579                2.00088834                0.01000001               -0.02183069               -0.00340145                0.10153468                0.00164532               -0.04615033                0.00172245
               8.99935514                4.99988635                2.00101327                0.01000000               -0.03876226               -0.00106154                0.10956184                0.00614097               -0.03346429               -0.00110178
               9.99885133                4.99990842                2.00138340                0.01040596               -0.05038099               -0.00387216                0.12387795                0.00931965               -0.03710619               -0.01761436
               0.00071829                6.00048025                2.00185090                1.00000000               -0.04057670               -0.00466164                0.11183704               -0.01827063               -0.00256339                0.03848258
               1.00031252                6.00040938                2.00161891                0.01000002               -0.02827569               -0.00923848                0.12591747               -0.02009781               -0.01531828                0.03882895
               2.00015277                6.00003393                2.00111839                0.01000001               -0.01644797               -0.00395474                0.11923052               -0.02204504               -0.01702106                0.01358833
               2.99998356                5.99995973                2.00098384                0.01000001               -0.00733129               -0.01896404                0.10656026               -0.00576955                0.00248046               -0.01144107
               4.00000615                5.99983428                2.00109833                0.01657380               -0.00210850               -0.00974851                0.07602636               -0.00808396                0.00527022                0.00359589
               4.99994139                5.99978928                2.00108138                0.01000000               -0.00530482               -0.00965431                0.07183262               -0.00334581               -0.02801000               -0.00481848
               5.99990005                5.99982653                2.00057919                0.01000001               -0.00826537               -0.00783824                0.09048333                0.00696359               -0.03873301               -0.04671009
               6.99977608                5.99985652                2.00054115                0.01000001               -0.01268557               -0.00533270                0.09958940               -0.00202226               -0.00460080               -0.04625778
               7.99964634                5.99981471                2.00095918                0.01000001               -0.01789744               -0.01024225                0.10724992                0.00206456               -0.02230551               -0.01466444
               8.99941814                5.99987274                2.00085247                0.01000001               -0.03428608               -0.01119324                0.11868115                0.00563236               -0.04583797               -0.02153792
               9.99896062                5.99990120                2.00113877                0.01000005               -0.04575165               -0.00851780                0.12469952                0.00588182               -0.04481327               -0.02300939
               0.00076128                7.00017277                2.00186863                0.99999999               -0.03104960               -0.02736395                0.09853250               -0.00225822               -0.00416821                0.01362037
               1.00045079                7.00008775                2.00159895                0.99892017               -0.03258341               -0.02840836                0.10293797                0.00580387               -0.00463295                0.00368173
               2.00010961                7.00006743                2.00130052                0.01000000               -0.01795279               -0.01484467                0.10624486               -0.01874154               -0.01784412                0.00570999
               3.00009173                6.99966271                2.00090895                0.01000000               -0.00460765               -0.02509893                0.13320850               -0.01192848                0.00553505                0.01288301
               4.00001746                6.99974366                2.00122578                0.01012895               -0.00968426               -0.00630310                0.09406024                0.00230384                0.01363750               -0.06174076
               4.99989805                6.99970598                2.00110291                0.01000000               -0.00375887               -0.01130736                0.08905552               -0.00124284               -0.03511759               -0.03919749
               5.99994228                6.99970802                2.00054109                0.01000001               -0.00674593               -0.01215525                0.09542836                0.00039673               -0.03229067               -0.01530473
               6.99976313                6.99967929                2.00066803                0.01000000               -0.01453206               -0.01366320                0.08922363               -0.00496791               -0.00199271               -0.01238787
               7.99965164                6.99964094                2.00095001                0.01000002               -0.01909181               -0.01920804                0.11957586               -0.01085010               -0.02830320               -0.00672467
               8.99938129                6.99966248                2.00085215                0.01000000               -0.03697988               -0.01405414                0.12918995               -0.00609672               -0.04671186                0.00391965
               9.99891205                6.99973806                2.00114990                0.01000003               -0.04692457               -0.00731504                0.12651468               -0.00186512               -0.04863004                0.00465360
               0.00084316                7.99993297                2.00197498                1.00000000               -0.03092159               -0.02609887                0.10122633               -0.00078864               -0.00318105                0.01021280
               1.00053394                7.99984122                2.00166218                0.99541759               -0.03200837               -0.02571636                0.09662665               -0.00051814               -0.00115061                0.00074815
               2.00020299                7.99973704                2.00136439                0.46476092               -0.02325925               -0.02911323                0.09741739               -0.00693101                0.02865195               -0.00577261
               3.00006876                7.99945775                2.00172800                0.01000000               -0.00970214               -0.00906647                0.05871329               -0.00005142               -0.02459072               -0.01553031
               4.00000895                7.99970822                2.00042428                0.01000001               -0.00582921               -0.02032271                0.12006616                0.00464704               -0.03686398               -0.07128487
               4.99995217                7.99956314                2.00082840                0.01000001               -0.00371333               -0.01807371                0.08781482                0.00085638                0.02367840               -0.05157914
               5.99993468                7.99958342                2.00088365                0.01000001               -0.01041835               -0.01601422                0.09977737                0.00406407               -0.00264886               -0.03156740
               6.99974381                7.99958326                2.00090894                0.01000002               -0.02442704               -0.01653024                0.11523361               -0.00696417                0.00691093               -0.03581729
               7.99944614                7.99943055                2.00139471                0.01598115               -0.02723629               -0.01791472                0.11714119               -0.00291522               -0.01412698               -0.02692973
               8.99919908                7.99959166                2.00147055                0.01694550               -0.03369908               -0.02571717                0.11454181                0.00353270               -0.04894344                0.00971716
               9.99877216                7.99975490                2.00174666                0.01000002               -0.04269210               -0.03282992                0.13703654               -0.00329498               -0.05592329                0.03007409
               0.00092902                8.99965080                2.00208857                1.00000000               -0.02926618               -0.02854217                0.10363403               -0.00058564                0.00023545                0.00534668
               1.00063635                8.99957343                2.00175739                0.99999999               -0.02872789               -0.02743669                0.09834375                0.00055266                0.00555299               -0.00173781
               2.00035446                8.99948516                2.00150632                1.00000000               -0.02584148               -0.02560829                0.09432482                0.00739480                0.00846775               -0.00482382
               3.00011953                8.99948138                2.00131601                0.01000000               -0.01747205               -0.01423367                0.09498004               -0.00231353               -0.02163446               -0.04686723
               4.00000502                8.99933721                2.00063790                0.01000002               -0.00397805               -0.03860347                0.09732784                0.00183362               -0.00688252               -0.01957009
               5.00003996                8.99934451                2.00087051                0.01000000               -0.00007871               -0.03272479                0.09480850                0.00995146                0.01541066               -0.03934977
               6.00000344                8.99938774                2.00077372                0.01000001               -0.01316215               -0.02966825                0.10751855                0.00576063               -0.00198077               -0.05005151
               6.99977672                8.99934868                2.00082859                0.01021996               -0.02092534               -0.03249504                0.12131672                0.00020958                0.01167150               -0.04486341
               7.99958494                8.99928265                2.00129254                0.01000001               -0.03245647               -0.02963881                0.12422008               -0.00126135                0.02275089               -0.07998974
               8.99912759                8.99914814                2.00214369                1.00000000               -0.05326366               -0.05253700                0.18840868               -0.01532516                0.01034296                0.00322305
               9.99851966                8.99908146                2.00289621                1.00000000               -0.06079281               -0.05932275                0.18645581               -0.01620586               -0.00381785                0.02012793
               0.00098618                9.99936212                2.00219933                1.00000000               -0.02755528               -0.02886703                0.09822589               -0.00124781                0.00729132                0.00700009
               1.00071063                9.99929248                2.00188173                0.99999999               -0.02716213               -0.02809464                0.09296366                0.00056480                0.01764671                0.00036154
               2.00044294                9.99922487                2.00173174                1.00000000               -0.02700924               -0.02602912                0.08745346                0.00287787                0.02228790                0.00155105
               3.00017044                9.99917308                2.00156769                0.01000000               -0.01302242               -0.03082994                0.09163098               -0.00934438                0.00728953               -0.01199590
               4.00018249                9.99893615                2.00116706                0.01000000               -0.00348856               -0.04010612                0.10204700                0.00452543                0.00820243               -0.01547896
               5.00010067                9.99890864                2.00121440                0.01057816               -0.00683841               -0.04358683                0.10673275                0.00876658                0.00788268               -0.03660503
               6.00004572                9.99899006                2.00104187                0.01000005               -0.01237914               -0.03976781                0.11176904                0.00546377                0.00454192               -0.04659501
               6.99985309                9.99893336                2.00120738                0.01104959               -0.02121326               -0.04153243                0.11607475                0.00002252               -0.00755615               -0.04049281
               7.99962146                9.99883777                2.00107869                0.01000000               -0.03796638               -0.04448753                0.16290377               -0.01596979                0.04761232               -0.10764211
               8.99909376                9.99854092                2.00288903                1.00000000               -0.05200299               -0.06072194                0.18597356               -0.01684916                0.05424829               -0.00242491
               9.99858140                9.99856845                2.00360792                0.99999999               -0.05123653               -0.05130165                0.16497567                0.00892600                0.00296679                0.00157332
               0.00063778                0.00079200                3.00247849                0.99829421               -0.02376746               -0.02407723                0.07736130                0.00052127               -0.00220698                0.00442161
               1.00040011                0.00069547                3.00237504                0.99617884               -0.02316101               -0.02339269                0.07708506                0.00024208               -0.00218357               -0.00230390
               2.00017456                0.00059580                3.00226855                0.01004707               -0.01479084               -0.02155815                0.07640053               -0.00679204               -0.02709955               -0.00534074
               3.00010429                0.00038094                3.00162048                0.01000000                0.00216442                0.00771561                0.06938500                0.02765692                0.00520888                0.01178941
               4.00021785                0.00101544                3.00210241                0.01000001                0.00636370               -0.04350925                0.09799477                0.02068544                0.01554508               -0.00632520
               5.00023156                0.00086762                3.00191303                0.01000001                0.00685097               -0.03125900                0.08285433               -0.02026424                0.00579944                0.00990646
               6.00035487                0.00055907                3.00238091                0.73075158               -0.00607686               -0.02392835                0.09846991               -0.02552098                0.03381666               -0.00349127
               7.00011003                0.00073457                3.00277668                1.00000000               -0.02771552               -0.03268816                0.10876429                0.00152454                0.02786690                0.00900256
               7.99980056                0.00094306                3.00315921                0.99917376               -0.03255253               -0.03367691                0.11254406                0.00465434                0.02048647                0.00048698
               8.99945898                0.00113381                3.00341508                1.00000000               -0.03475402               -0.03409726                0.11485145                0.00260327                0.01223519               -0.00121381
               9.99910548                0.00128317                3.00362912                1.00000000               -0.03534980               -0.03458104                0.11745855                0.00075915                0.00869998                0.00447353
               0.00073953                1.00055123                3.00237913                1.00000000               -0.02389011               -0.02381135                0.07902113                0.00086526               -0.00008000                0.00476102
               1.00050063                1.00046154                3.00225643                0.01000000               -0.02378117               -0.02366164                0.08077149                0.00159111                0.00114315               -0.00397640
               2.00026390                1.00038022                3.00215738                0.01000000               -0.01647933               -0.01251556                0.08077607                0.01451496               -0.02428478               -0.04077701
               3.00017104                1.00045810                3.00150612                0.01000000               -0.00412701                0.00087601                0.06288174                0.02213690               -0.00365548                0.03015246
               4.00018136                1.00058035                3.00197042                0.01000000                0.00430357               -0.03377632                0.10161645                0.00115185                0.01689847                0.00120428
               5.00025711                1.00055503                3.00188798                0.01000000               -0.00075883               -0.02821733                0.09329894               -0.02065612                0.00640775                0.01738218
               6.00016619                1.00031978                3.00231523                0.01000001               -0.01619186               -0.01391195                0.10026483               -0.03395288                0.02711373                0.00219061
               6.99993327                1.00040769                3.00279445                0.99999999               -0.02593528               -0.02851113                0.09464068               -0.00160519                0.01867334                0.01140267
               7.99964748                1.00060629                3.00301866                0.99999999               -0.03091583               -0.03069764                0.10399852                0.00651599                0.00132147               -0.00012598
               8.99931496                1.00079284                3.00315724                0.99999998               -0.03418832               -0.03363702                0.11315358                0.00252683               -0.00125980               -0.00367592
               9.99896371                1.00093736                3.00334420                0.99602776               -0.03512425               -0.03408647                0.11369868                0.00037888               -0.00001857                0.00442989
               0.00083446                2.00031577                3.00228680                0.01577660               -0.02315268               -0.01646087                0.07994290               -0.00874539               -0.00194312               -0.02310102
               1.00060293                2.00022223                3.00209852                0.01000000               -0.01830793               -0.01571951                0.08359480                0.01819278               -0.03130191               -0.03232108
               2.00046830                2.00034549                3.00125613                0.01000001               -0.01280177                0.00032380                0.04086949                0.02018708                0.00451032                0.00809995
               3.00034690                2.00039846                3.00201924                0.01000000               -0.01621758               -0.00866343                0.10077259                0.00295990                0.02412476                0.02211280
               4.00014395                2.00033992                3.00175488                0.01000000               -0.01339443               -0.01846798                0.09396380               -0.00996228               -0.00444525                0.00523783
               5.00007901                2.00030328                3.00201454                0.01166225               -0.01603967               -0.02139234                0.09568700               -0.01797824                0.01750490                0.01489977
               5.99982316                2.00028083                3.00237731                0.01000000               -0.01437996               -0.01294566                0.12291724               -0.02666632                0.02266229                0.00718453
               6.99979141                2.00016435                3.00287830                0.01337957               -0.01387152               -0.01441552                0.05243012               -0.02036729                0.00651918               -0.00426777
               7.99954573                2.00032911                3.00288178                0.01000001               -0.03064806               -0.02003397                0.09520498               -0.00589868               -0.02433426                0.00137460
               8.99917845                2.00046107                3.00286093                0.99860626               -0.03608531               -0.03309636                0.11166193               -0.00239707               -0.01370939               -0.00854049
               9.99882402                2.00060144                3.00307625                0.99999997               -0.03544292               -0.03261926                0.10949303                0.00049412               -0.00381733                0.00566627
               0.00075170                3.00022201                3.00159293                0.01000001                0.00830658                0.00070132                0.06816815                0.01304635                0.00699762                0.01213071
               1.00083476                3.00014715                3.00138824                0.01000000               -0.01301393                0.00329725                0.07151276                0.01038951                0.03915933                0.01220349
               2.00049142                3.00038670                3.00205650                0.01000000               -0.02994746               -0.00414049                0.10367037               -0.00181131                0.02674536                0.03920514
               3.00023581                3.00028483                3.00172128                0.01000000               -0.02070573               -0.01115615                0.09374625               -0.01947066               -0.01061420                0.00051287
               4.00007730                3.00021099                3.00176072                0.01000000               -0.01395880               -0.01476771                0.09924173               -0.01609078                0.00557249                0.01498422
               4.99995664                3.00012719                3.00192747                0.01000001               -0.01527560               -0.01498181                0.09778993               -0.01970917                0.01032344               -0.00750308
               5.99977179                3.00006087                3.00224447                0.01172251               -0.02394963               -0.01618013                0.11234406               -0.00741260                0.01569594               -0.02735552
               6.99947764                3.00011938                3.00266531                0.01621310               -0.02695040               -0.01075408                0.11435516               -0.00722360               -0.00468381               -0.02435211
               7.99923278                3.00020561                3.00268151                0.01323431               -0.02414780               -0.01611785                0.11554501               -0.01549997               -0.03616750               -0.01170636
               8.99899469                3.00013091                3.00249802                0.01287025               -0.02699593               -0.02274662                0.10746443               -0.01386272               -0.02836564                0.00003096
               9.99869286                3.00028497                3.00282310                0.12161581               -0.03018241               -0.02743919                0.10389682               -0.00191014                0.00015946                0.00524612
               0.00124511                4.00032980                3.00233516                0.01000000               -0.05990716                0.00665955                0.12916243                0.01464222               -0.00063879                0.07049176
               1.00064604                4.00028818                3.00217039                0.01000000               -0.04753558                0.00974293                0.12845204               -0.01550617               -0.00443670                0.06330180
               2.00029440                4.00026268                3.00188277                0.01000000               -0.02564221               -0.00984974                0.10336357               -0.01954315               -0.01006870                0.01398768
               3.00013319                4.00017534                3.00181563                0.01000000               -0.01573093               -0.01293077                0.10205738               -0.02019672                0.00150857                0.01732061
               3.99997978                4.00004456                3.00185763                0.01246002               -0.01491212               -0.01810898                0.09918132               -0.01242364               -0.01133472               -0.00348830
               4.99983495                4.00000364                3.00161409                0.01000000               -0.01485314               -0.01610638                0.09442357               -0.01019616               -0.02350123               -0.02292532
               5.99968272                3.99995722                3.00157610                0.01000000               -0.01663781               -0.00953666                0.08302798               -0.00475939                0.00398638               -0.03204877
               6.99950219                3.99994926                3.00213768                0.01000001               -0.02292610               -0.01436710                0.08814386                0.00568574                0.01529532               -0.03106475
               7.99922419                4.00000675                3.00246051                0.01000001               -0.03401775               -0.02014955                0.13070625                0.00436411               -0.02517422               -0.02080709
               8.99882184                4.00000614                3.00236592                0.01000001               -0.03732470               -0.01184044                0.12391801               -0.00531852               -0.02831362                0.00046887
               9.99847770                4.00005265                3.00253320                0.01183761               -0.03441396               -0.01813115                0.09022389               -0.00382308               -0.00286144               -0.00399759
               0.00112778                5.00035520                3.00255826                0.01000000               -0.05360249                0.01287652                0.13125546               -0.02322335               -0.00845730                0.04223365
               1.00059175                5.00034201                3.00232122                0.01000000               -0.04571925                0.00675321                0.13260084               -0.01615991               -0.01255963                0.03869208
               2.00021339                5.00018970                3.00220684                0.01166584               -0.02708785               -0.01365757                0.10664479               -0.01516744               -0.01020145                0.02147276
               3.00005000                5.00002621                3.00198945                0.01000001               -0.01064334               -0.01953278                0.09905527               -0.02028881               -0.02287973                0.01158552
               4.00000053                4.99984881                3.00159676                0.01000000               -0.01049726               -0.01934940                0.09367236               -0.00966084               -0.02950649               -0.02032188
               4.99984005                4.99980506                3.00136548                0.01000000               -0.01347745               -0.01691106                0.08595921                0.00725232               -0.01511212               -0.01545512
               5.99973098                4.99987014                3.00149029                0.01316965               -0.01491115               -0.01590410                0.07877778                0.00542288                0.00788471                0.00445793
               6.99954183                4.99983204                3.00189364                0.01073683               -0.02338940               -0.01725436                0.09496628               -0.00218753               -0.00126657               -0.00673501
               7.99926319                4.99980262                3.00202943                0.01000001               -0.03497063               -0.01833833                0.12790904                0.00405948               -0.01644347               -0.01398182
               8.99884242                4.99989410                3.00219276                0.01325269               -0.03699092               -0.01413632                0.11315923                0.01028838               -0.00812637                0.00198105
               9.99852337                4.99992235                3.00247981                0.01165446               -0.03190447               -0.01440086                0.08756021                0.00576760                0.00993618               -0.00089799
               0.00080703                6.00058733                3.00292589                0.99868866               -0.03186903               -0.00417949                0.10849240               -0.02418424               -0.00559447                0.02956269
               1.00048834                6.00042324                3.00277346                0.01000000               -0.02500921               -0.01195529                0.11219883               -0.02738079               -0.01613673                0.01861633
               2.00030684                5.99998953                3.00233377                0.01000000               -0.02100144               -0.01399230                0.11874478               -0.02640040               -0.02070281                0.00248941
               3.00006831                5.99978468                3.00214125                0.01172707               -0.01495630               -0.02633947                0.11395894               -0.01007747               -0.02826549                0.01940784
               4.00000772                5.99965757                3.00151924                0.01000000               -0.00548175               -0.02070850                0.07998834               -0.00190880               -0.03091941               -0.00235790
               4.99995867                5.99966542                3.00143699                0.01317146               -0.01217598               -0.01689693                0.07683479                0.00622219                0.00862154                0.00378690
               5.99976420                5.99963914                3.00180991                0.01000000               -0.02163586               -0.02414230                0.10804829               -0.00030108                0.01056659                0.00101428
               6.99952596                5.99960418                3.00199193                0.01000001               -0.02604408               -0.02273298                0.11884446                0.00016349               -0.00651464               -0.02520962
               7.99924331                5.99963999                3.00214579                0.01332832               -0.03090371               -0.01956725                0.10999257                0.00484215               -0.00885831                0.00270083
               8.99890788                5.99972341                3.00237378                0.01000000               -0.03533773               -0.02284605                0.12092936                0.00758097               -0.01454060                0.00604906
               9.99853656                5.99976464                3.00249023                0.01186257               -0.03713209               -0.02211865                0.10767635                0.00012865               -0.01203651               -0.00779528
               0.00097227                7.00027161                3.00291791                1.00000000               -0.03303295               -0.03133881                0.10656628               -0.00072228               -0.00401902                0.01387007
               1.00064194                7.00010290                3.00266911                0.99426597               -0.03241598               -0.03160482                0.10678759               -0.00186687               -0.00834861               -0.00352299
               2.00032395                6.99990986                3.00234423                0.01338793               -0.02307662               -0.01915240                0.10380727               -0.02006788                0.02056044               -0.01145097
               3.00018040                6.99949942                3.00264702                0.01622014               -0.01211655               -0.02662954                0.09876099               -0.00421973               -0.00850523               -0.06100318
               4.00008162                6.99943464                3.00188257                0.01000001               -0.00987375               -0.02526968                0.08003480                0.00654148               -0.02977528                0.01729586
               4.99998293                6.99946712                3.00178140                0.01074287               -0.01477082               -0.02329612                0.08860009                0.00055096                0.00670068               -0.01090783
               5.99978620                6.99938729                3.00190878                0.01000001               -0.02193376               -0.02514971                0.11333845                0.00038387               -0.01347899               -0.01723133
               6.99954425                6.99937738                3.00178551                0.01000000               -0.02727003               -0.02451505                0.12077306                0.00533752                0.00290445               -0.01138802
               7.99924080                6.99941128                3.00239128                0.01000001               -0.03374341               -0.02790110                0.12626598               -0.00322645                0.01065083               -0.01505505
               8.99886939                6.99943718                3.00258718                0.01000001               -0.03986509               -0.04515951                0.14531885               -0.01119752               -0.02440944               -0.02574361
               9.99844350                6.99947998                3.00253380                0.01102574               -0.04258893               -0.04525041                0.13769408               -0.00794514               -0.03062683               -0.00584698
               0.00113000                7.99996055                3.00299328                1.00000000               -0.03172451               -0.03063743                0.10380511               -0.00152198               -0.00140107                0.01574996
               1.00081275                7.99979115                3.00268262                1.00000000               -0.03105178               -0.03033077                0.10200281               -0.00120691               -0.00213332                0.00162741
               2.00050896                7.99960648                3.00235722                0.01000001               -0.01768124               -0.02949072                0.09962834               -0.00893130               -0.04646737               -0.00857959
               3.00045913                7.99925209                3.00112576                0.01324498               -0.01690563               -0.01801089                0.09061373               -0.00977555                0.02943129               -0.05945264
               4.00017085                7.99915218                3.00240928                0.01000001               -0.02210422               -0.02929654                0.11199131                0.00936526                0.04837598               -0.03005449
               5.00001704                7.99919950                3.00175565                0.01000001               -0.01546156               -0.03177215                0.11376763                0.00866783               -0.00935527               -0.02532090
               5.99986162                7.99913615                3.00199628                0.01334675               -0.02041634               -0.02716155                0.10223352                0.00624646                0.01824522               -0.01796373
               6.99960872                7.99911388                3.00230446                0.01000001               -0.03713195               -0.02848710                0.12160657                0.00467926               -0.00166434               -0.00264668
               7.99911898                7.99908196                3.00235361                0.01000001               -0.04967416               -0.03743302                0.15066615               -0.02384286               -0.02806449               -0.03298271
               8.99861523                7.99882022                3.00227341                0.01000000               -0.04134545               -0.04851725                0.16787179               -0.03344348               -0.00992069                0.03636382
               9.99829207                7.99885963                3.00269629                0.01000001               -0.03231632               -0.05285897                0.13674482               -0.02470124                0.00505574                0.06393074
               0.00128064                8.99965886                3.00310525                1.00000000               -0.03087704               -0.02999042                0.10233215               -0.00188789                0.00199323                0.01320194
               1.00097187                8.99949629                3.00274935                0.99999997               -0.02981319               -0.02870360                0.09817971               -0.00147418                0.00173364                0.00201956
               2.00068437                8.99932004                3.00239666                1.00000000               -0.02663366               -0.02673810                0.08966213               -0.00152797               -0.00013587               -0.00344861
               3.00043920                8.99913921                3.00200575                0.01291038               -0.01814294               -0.01536704                0.07452320               -0.01630674                0.01254766                0.02865324
               4.00032152                8.99884871                3.00193958                0.01000001               -0.01334377               -0.02704557                0.10193990               -0.00054236                0.02174256               -0.04698396
               5.00017232                8.99883168                3.00189711                0.01329099               -0.01623837               -0.03073302                0.09739731                0.01239382                0.02132828               -0.01052963
               5.99999675                8.99884406                3.00215065                0.01000000               -0.02401488               -0.02995172                0.10956691                0.01029309                0.02104168               -0.02112666
               6.99969202                8.99880763                3.00242974                0.01000001               -0.04695765               -0.03348538                0.13681812                0.00086154                0.00062886               -0.03487070
               7.99905760                8.99866262                3.00246699                0.01000001               -0.06345849               -0.04219213                0.17509295               -0.00922507                0.05001029                0.00254115
               8.99842285                8.99846684                3.00409088                0.99999999               -0.05934681               -0.04524286                0.19304503               -0.02078143                0.04884333                0.06049985
               9.99787066                8.99842280                3.00469677                1.00000000               -0.05521931               -0.04793189                0.18001528               -0.02309003                0.00032862                0.06974476
               0.00141739                9.99936074                3.00316259                0.99999999               -0.02953022               -0.02981180                0.09709673               -0.00069174                0.01026632                0.00983682
               1.00112209                9.99921707                3.00280270                1.00000000               -0.02909541               -0.02792123                0.09197738                0.00057089                0.01496034                0.00131179
               2.00083548                9.99907172                3.00254903                1.00000000               -0.02588820               -0.02483215                0.08201220                0.00149464                0.01785043                0.00210312
               3.00060432                9.99894475                3.00224714                0.01000001               -0.01839754               -0.01944553                0.06961932               -0.00650961                0.02101104                0.00034056
               4.00046753                9.99861127                3.00202424                0.01185403               -0.01673762               -0.02374411                0.06957631               -0.00339415                0.02190048               -0.00717865
               5.00026957                9.99858484                3.00213528                0.01159870               -0.01880040               -0.02468408                0.07281463                0.00601741                0.02145618                0.00676002
               6.00009152                9.99853711                3.00223216                0.01187824               -0.02310922               -0.03069455                0.09336996                0.00244416                0.00981997               -0.01616738
               6.99980739                9.99844417                3.00232499                0.01290818               -0.04081246               -0.03634648                0.12331060               -0.00341298                0.03767938               -0.03891355
               7.99927527                9.99823812                3.00321347                0.01000002               -0.06839804               -0.04244961                0.17475101               -0.00467227                0.08302051                0.03692566
               8.99843943                9.99791537                3.00468517                1.00000000               -0.06784615               -0.05514720                0.17959288               -0.01519909                0.04411183                0.00172241
               9.99791835                9.99790099                3.00529043                1.00000000               -0.05210753               -0.05218052                0.16828303                0.00333182                0.00039460               -0.00099086
               0.00071828                0.00092113                4.00325319                0.99778269               -0.02295938               -0.02321331                0.07696211                0.00092764               -0.00313467                0.00309234
               1.00048869                0.00078596                4.00314555                0.99633072               -0.02307932               -0.02368310                0.07727675                0.00067989               -0.00310198               -0.00115025
               2.00025669                0.00066457                4.00303175                0.02113884               -0.01262225               -0.02440311                0.07744035                0.00812242                0.01296055               -0.00092744
               3.00023624                0.00070752                4.00325339                0.01238226               -0.00170502               -0.01422355                0.08259526                0.00956539                0.00380676               -0.00655249
               4.00022259                0.00100235                4.00285558                0.01000003               -0.00282411               -0.03112261                0.07893397                0.00375909               -0.01233596               -0.00831288
               5.00017976                0.00101937                4.00299322                0.01000001                0.00460215               -0.04166116                0.10754474               -0.02502960                0.03359261                0.00047764
               6.00031464                0.00062406                4.00371406                0.82984977               -0.00960895               -0.03257808                0.10943701               -0.03517862                0.03601945               -0.00384201
               6.99998758                0.00088325                4.00398465                1.00000000               -0.03266803               -0.03221238                0.11255330                0.00071896                0.01216218                0.00050678
               7.99966128                0.00114163                4.00427821                0.99999999               -0.03316409               -0.03272325                0.11347023                0.00290665                0.01308373                0.00131144
               8.99932430                0.00139957                4.00458593                1.00000000               -0.03484462               -0.03427046                0.11733422                0.00268976                0.01030244               -0.00017121
               9.99896438                0.00162482                4.00482697                0.99991269               -0.03599147               -0.03541131                0.12145590                0.00259061                0.00661090                0.00461413
               0.00086272                1.00068899                4.00316748                1.00000000               -0.02389574               -0.02357865                0.07892163                0.00085233                0.00082356                0.00375348
               1.00062377                1.00054913                4.00305820                0.01000000               -0.02427921               -0.02426642                0.08028264                0.00037590                0.00241652               -0.00280051
               2.00037714                1.00042053                4.00298138                0.01000000               -0.02303824               -0.01326608                0.08201804                0.01447487                0.00932269               -0.01645262
               3.00016300                1.00056528                4.00301662                0.01000000               -0.01364388               -0.01290873                0.09179225                0.01177750               -0.00697694               -0.02074899
               4.00010426                1.00069113                4.00275918                0.01000000               -0.00221947               -0.02615428                0.08426881               -0.00620678               -0.00937594                0.00531102
               5.00011861                1.00060275                4.00292172                0.01000000               -0.00366770               -0.03077088                0.10208162               -0.03590563                0.02480527               -0.00012783
               6.00003091                1.00029828                4.00357001                0.01000000               -0.01913129               -0.01340274                0.10079887               -0.03442181                0.02272078               -0.00610685
               6.99973599                1.00056113                4.00379601                0.99964612               -0.02993603               -0.02967800                0.09846719                0.00112453                0.00056863                0.00090274
               7.99943219                1.00081440                4.00404151                1.00000000               -0.03131920               -0.03118802                0.10383730                0.00276930                0.00007420                0.00220087
               8.99910960                1.00105686                4.00427874                0.99999996               -0.03335747               -0.03323502                0.11138416                0.00189629               -0.00054374               -0.00170094
               9.99876504                1.00127070                4.00450278                0.99761845               -0.03445643               -0.03435297                0.11614722                0.00188342               -0.00073523                0.00460104
               0.00101506                2.00044955                4.00308747                0.03223587               -0.02503923               -0.02175438                0.08084047               -0.00408677                0.00180566                0.01395088
               1.00076466                2.00030063                4.00294126                0.01000000               -0.02425091               -0.01942939                0.08366649                0.01450045               -0.00646417                0.00839226
               2.00053004                2.00039924                4.00264400                0.01000001               -0.02817328               -0.00329763                0.11933229                0.01449013               -0.01092126               -0.00794951
               3.00020120                2.00044934                4.00264039                0.01000000               -0.02345248               -0.00986220                0.08374320                0.00724907                0.00007486               -0.00470882
               4.00006099                2.00047927                4.00280181                0.01130218               -0.01733500               -0.01941736                0.09389100               -0.00787385                0.00142865                0.01242521
               4.99985450                2.00040395                4.00286294                0.01000000               -0.01965807               -0.01614058                0.08847155               -0.02400237                0.01150817                0.00537216
               5.99966783                2.00035600                4.00340713                0.01739992               -0.01802719               -0.00275364                0.07204586               -0.02944351                0.01656473               -0.00632578
               6.99949395                2.00028969                4.00360128                0.01014840               -0.02234477               -0.01611791                0.08089658               -0.01223887               -0.01059303               -0.00297584
               7.99922093                2.00051787                4.00381777                0.01000000               -0.02940191               -0.02378230                0.09437265                0.00454986               -0.01580050               -0.01947778
               8.99890592                2.00073486                4.00394354                0.99999999               -0.03232836               -0.03171643                0.10647398               -0.00009756               -0.01095161               -0.00589255
               9.99857436                2.00093776                4.00419195                0.99999999               -0.03315519               -0.03261789                0.11110189                0.00090763               -0.00334033                0.00451524
               0.00107883                3.00025390                4.00321058                0.01000001               -0.01147469                0.00062880                0.07941444                0.00297905                0.00613721                0.02639834
               1.00096408                3.00016054                4.00308345                0.01000000               -0.02803008                0.00572630                0.08895021                0.00020401               -0.01426291                0.02452440
               2.00051823                3.00035458                4.00269857                0.01000000               -0.03680634               -0.00361345                0.09086251                0.00001164               -0.01671222                0.02499989
               3.00022796                3.00036804                4.00278586                0.01000000               -0.02630244               -0.01244645                0.10512835               -0.00608683               -0.00014722                0.01834296
               3.99999218                3.00030278                4.00283684                0.01000001               -0.02330638               -0.01705588                0.09853646               -0.00727983               -0.00638271                0.00061049
               4.99976183                3.00027994                4.00285341                0.01000000               -0.02179437               -0.01523740                0.10120990               -0.00681793                0.00558006                0.00216460
               5.99955629                3.00024321                4.00328070                0.01000000               -0.02162424               -0.01511057                0.08620471               -0.01232189                0.00438480               -0.01666900
               6.99932934                3.00023877                4.00338016                0.01174958               -0.02391406               -0.01081478                0.07697054               -0.00919779               -0.02639452               -0.01468743
               7.99907801                3.00033875                4.00317344                0.01000000               -0.03207924               -0.01995999                0.09548934               -0.00275247               -0.01363600               -0.01350868
               8.99868776                3.00042253                4.00354333                0.01000000               -0.03503047               -0.02631292                0.10240164                0.00463306                0.00168887               -0.00248220
               9.99837740                3.00061835                4.00386784                0.15150025               -0.03103575               -0.03478850                0.10462513                0.01219180               -0.00070078               -0.01148031
               0.00126136                4.00046213                4.00335321                0.01000001               -0.05932986                0.01330206                0.11879104                0.00585603               -0.01917839                0.05998572
               1.00066807                4.00041516                4.00318927                0.01000000               -0.04692966                0.01413790                0.11515490               -0.02962910               -0.01875698                0.05387476
               2.00032277                4.00032697                4.00306186                0.01130432               -0.02684026               -0.01148008                0.10296764               -0.02521835               -0.01528582                0.02799569
               3.00013126                4.00020041                4.00291518                0.01000001               -0.01596418               -0.02099818                0.09952397               -0.01284149               -0.02131411                0.00783968
               4.00000349                4.00013815                4.00267697                0.01000000               -0.01767731               -0.02160985                0.10302415               -0.00254299               -0.01474557               -0.00261706
               4.99977771                4.00009920                4.00270590                0.01000000               -0.02704638               -0.02564344                0.12344183               -0.00423726               -0.00383547               -0.00971156
               5.99946256                4.00005379                4.00281766                0.01000000               -0.02816307               -0.02615344                0.13899822               -0.00411550               -0.00206339               -0.02398542
               6.99921445                4.00007340                4.00307651                0.01523907               -0.02402201               -0.02208885                0.10001061               -0.00185947                0.00065116               -0.00510578
               7.99898212                4.00011867                4.00333843                0.01262201               -0.02477372               -0.02289439                0.08292626                0.00278901               -0.00979831                0.02099118
               8.99871898                4.00020861                4.00324940                0.01000001               -0.02777756               -0.02522110                0.09962179                0.00888977               -0.00879563                0.00361715
               9.99842657                4.00024199                4.00324102                0.01000001               -0.02924102               -0.03424618                0.09082253                0.00826617               -0.00395667               -0.01510479
               0.00128989                5.00051995                4.00404844                0.01000000               -0.07832387                0.01248599                0.17984417               -0.02516967               -0.04480650                0.05635459
               1.00050666                5.00044330                4.00379152                0.01000000               -0.05306449                0.00093318                0.16577628               -0.02405611               -0.05295989                0.04551630
               2.00022860                5.00012498                4.00314640                0.01000000               -0.01733525               -0.01903205                0.09330825               -0.02235328               -0.04104976                0.02042500
               3.00015995                4.99994808                4.00290089                0.01000000               -0.00930346               -0.02550483                0.10102813               -0.00764384               -0.01761272                0.01374477
               4.00004253                4.99987058                4.00268690                0.01000000               -0.01992536               -0.03184174                0.12293339               -0.00462325               -0.01858336               -0.00014961
               4.99976144                4.99976707                4.00258480                0.01000000               -0.02713746               -0.03250494                0.13625705               -0.00525042               -0.00915844               -0.00812286
               5.99949979                4.99972014                4.00269113                0.01233609               -0.02670816               -0.03127301                0.12505299                0.00619022                0.00555854               -0.01153065
               6.99922728                4.99979699                4.00309937                0.01000000               -0.02506017               -0.03064654                0.10256160                0.01280922                0.01422994               -0.01130505
               7.99899858                4.99988086                4.00344652                0.01000001               -0.02425226               -0.03058951                0.10340765                0.01131609               -0.00650425               -0.00407263
               8.99874223                4.99991811                4.00327646                0.01000001               -0.02613108               -0.03046503                0.10537439                0.00582323               -0.01716291                0.00763272
               9.99847596                4.99993342                4.00313461                0.01000000               -0.02662737               -0.02753432                0.09586325                0.00455154               -0.01409812                0.00965355
               0.00091127                6.00071185                4.00402075                0.99897722               -0.03293563               -0.00685779                0.11058620               -0.03337215               -0.00397320                0.01150437
               1.00058191                6.00043382                4.00386289                0.01000000               -0.02701686               -0.01675795                0.10818329               -0.02073334               -0.01495313               -0.00055544
               2.00037093                5.99994633                4.00349329                0.01740595               -0.01745650               -0.01550123                0.07980806               -0.02145960               -0.02110687                0.00863091
               3.00023278                5.99969032                4.00326302                0.01000000               -0.01394520               -0.02449712                0.08609007               -0.01108404               -0.02601307               -0.00585497
               4.00009202                5.99950132                4.00269810                0.01000000               -0.02048126               -0.03355216                0.13520477                0.00019113               -0.02818884               -0.00404428
               4.99982315                5.99944910                4.00261807                0.01233873               -0.02677901               -0.02989532                0.12234434                0.00857113               -0.00659780               -0.00095547
               5.99955644                5.99942833                4.00274016                0.01000000               -0.02566210               -0.02715517                0.09965246                0.00900901               -0.00091230               -0.00863838
               6.99930991                5.99946047                4.00291803                0.01000001               -0.02345595               -0.03289989                0.10366498                0.00949889                0.00777945               -0.00747230
               7.99908733                5.99950688                4.00315903                0.01179550               -0.02635151               -0.03744196                0.11483864                0.01016207                0.01227545               -0.00463564
               8.99878288                5.99959931                4.00327105                0.01000000               -0.03001768               -0.03350690                0.11434707                0.00963848                0.00901124                0.01410834
               9.99848697                5.99969130                4.00329229                0.01000000               -0.02959101               -0.02591766                0.10578465                0.00571492                0.00227757                0.03263633
               0.00117851                7.00038279                4.00399996                1.00000000               -0.03210035               -0.03256064                0.10845041               -0.00120528               -0.00378592                0.01467088
               1.00085750                7.00010814                4.00373470                0.99999999               -0.03177959               -0.03201490                0.10545789               -0.00112065               -0.00784926               -0.00565873
               2.00054291                6.99981496                4.00337666                0.01015724               -0.02371083               -0.02166597                0.10173817               -0.00952167               -0.01859828               -0.01485555
               3.00038329                6.99945813                4.00288417                0.01175707               -0.01276698               -0.03901758                0.07073668               -0.01214331               -0.01105883                0.00394273
               4.00028757                6.99919954                4.00282648                0.01524540               -0.01887181               -0.02256018                0.09379626               -0.00172033                0.01363315               -0.01783842
               5.00000585                6.99916917                4.00287491                0.01000000               -0.03094869               -0.02540472                0.09552242                0.01662066               -0.00160829                0.00538870
               5.99966860                6.99917703                4.00280786                0.01000001               -0.03335689               -0.02230283                0.10046622                0.00820804                0.00552329               -0.00246199
               6.99933871                6.99913900                4.00308350                0.01046125               -0.03028085               -0.02871902                0.11503992               -0.00008682                0.02287831                0.00851512
               7.99906298                6.99913202                4.00347533                0.01342021               -0.02940662               -0.04058462                0.10769010               -0.00312273                0.02148843                0.03922879
               8.99875058                6.99924797                4.00375853                0.01000000               -0.03283589               -0.03920339                0.11718976                0.00790791                0.01835221                0.05944271
               9.99840627                6.99941507                4.00390378                0.01151745               -0.03443135               -0.04103777                0.13376143               -0.00626204                0.01590791                0.04693203
               0.00143646                8.00006064                4.00405108                1.00000000               -0.03091305               -0.03186336                0.10592704               -0.00160325               -0.00159680                0.01925641
               1.00112733                7.99979352                4.00370224                0.99999999               -0.03029801               -0.03072028                0.10149364               -0.00127539               -0.00101897                0.00172823
               2.00083050                7.99951301                4.00335695                0.10896413               -0.02610019               -0.02952850                0.09818477               -0.01655642                0.02619402               -0.01136746
               3.00060533                7.99890997                4.00354028                0.01000000               -0.02419587               -0.02625335                0.09153561               -0.00093150                0.00220232               -0.01743581
               4.00034658                7.99905011                4.00266411                0.01263403               -0.02136260               -0.02084865                0.06460640                0.01459868                0.00007990               -0.01485710
               5.00017808                7.99894101                4.00310375                0.01000001               -0.02979038               -0.02074420                0.09393548                0.00908856                0.02313654               -0.01345334
               5.99975078                7.99898228                4.00292832                0.01181651               -0.04124445               -0.02238544                0.10714894                0.00840620                0.00915873                0.00239987
               6.99935319                7.99888609                4.00334107                0.01345192               -0.04174409               -0.02541317                0.10296850               -0.00764211                0.05243732                0.00906053
               7.99891589                7.99869519                4.00440803                0.01720205               -0.03475969               -0.03292089                0.14013911               -0.01049120                0.03820568                0.02266452
               8.99865799                7.99881524                4.00482799                0.01000000               -0.04441804               -0.06507961                0.17319734               -0.03502719               -0.01425108                0.08713537
               9.99802753                7.99887055                4.00448155                0.01000001               -0.06304586               -0.07664277                0.18872160               -0.04905985               -0.04673094                0.12038531
               0.00168067                8.99974552                4.00413521                0.99999999               -0.03010513               -0.03082304                0.10296362               -0.00143785                0.00196201                0.01633490
               1.00137962                8.99949373                4.00372099                0.99999995               -0.02926628               -0.02907515                0.09700357               -0.00125367                0.00203695                0.00317616
               2.00109534                8.99922439                4.00329957                1.00000000               -0.02760294               -0.02754125                0.09034144               -0.00178276               -0.00167589               -0.00668854
               3.00082756                8.99893307                4.00280647                0.01000002               -0.02734168               -0.01064220                0.08144983                0.00341547                0.01187910               -0.04703117
               4.00054851                8.99878257                4.00267670                0.01000001               -0.02860494               -0.02134327                0.08381679                0.01034955                0.02490341                0.00044843
               5.00025546                8.99875428                4.00281846                0.01000001               -0.03284311               -0.01867477                0.08978579                0.00452817                0.02924283               -0.01899945
               5.99989165                8.99872932                4.00296506                0.01000000               -0.03912491               -0.02392871                0.10489090                0.00890407                0.02966949                0.00147483
               6.99947296                8.99863073                4.00356495                0.01000000               -0.04838193               -0.02607465                0.11081978                0.00082267                0.07321243                0.01053918
               7.99892401                8.99847360                4.00479440                0.01000001               -0.07991428               -0.03059365                0.15999775               -0.03392796                0.08829081               -0.01914093
               8.99787467                8.99794638                4.00600459                0.99999999               -0.08047778               -0.07142258                0.19104815               -0.06751681                0.03544749                0.03594835
               9.99731445                8.99788222                4.00649651                0.99999996               -0.05602228               -0.07546144                0.18005707               -0.03885435               -0.00070757                0.07634389
               0.00191128                9.99944417                4.00414126                1.00000000               -0.02878880               -0.03013483                0.09820871               -0.00015392                0.01140621                0.01217219
               1.00162340                9.99921202                4.00372128                1.00000000               -0.02778846               -0.02817143                0.09190028                0.00027867                0.01538958                0.00199216
               2.00135551                9.99896219                4.00337199                1.00000000               -0.02539706               -0.02621961                0.08363788                0.00027239                0.01678636               -0.00112754
               3.00111545                9.99869712                4.00296008                0.01000002               -0.03115779               -0.02359436                0.07467491                0.01184260                0.01338439               -0.00505197
               4.00073236                9.99862325                4.00255859                0.01000001               -0.03967856               -0.01593205                0.07113711                0.01190445                0.01720390               -0.00548119
               5.00032188                9.99856751                4.00267069                0.01000000               -0.03399748               -0.01867717                0.07818106                0.00066513                0.03290160               -0.00907070
               6.00005241                9.99850370                4.00290927                0.01000000               -0.03482617               -0.02256229                0.09167477                0.00593034                0.04839091               -0.00271578
               6.99962536                9.99836459                4.00367359                0.01404121               -0.05653603               -0.02661397                0.12700335               -0.00577956                0.06639806                0.01148346
               7.99892169                9.99808331                4.00457371                0.01000002               -0.08631564               -0.03902926                0.15414206               -0.04912223                0.11558771               -0.03120696
               8.99789905                9.99738679                4.00648089                0.99998675               -0.07714559               -0.05595933                0.17967807               -0.03366254                0.07156572                0.00068330
               9.99737878                9.99736132                4.00697358                1.00000000               -0.05202702               -0.05208972                0.16871139                0.00388559                0.00077740               -0.00060590
               0.00079036                0.00102526                5.00401773                0.99762174               -0.02308525               -0.02332464                0.07660246                0.00061207               -0.00313010                0.00305630
               1.00055951                0.00084717                5.00392058                0.99718712               -0.02322145               -0.02373459                0.07762977                0.00019075               -0.00354332               -0.00102321
               2.00032593                0.00067798                5.00381736                0.01000000               -0.01014582               -0.02390613                0.07864851                0.01041447               -0.02605670               -0.00169561
               3.00035659                0.00072345                5.00327239                0.01053303               -0.00473138               -0.00673277                0.06044573                0.00791119               -0.00094326                0.01919363
               4.00023130                0.00104198                5.00368109                0.01000000               -0.01558290               -0.03016456                0.08821744                0.00057983                0.03374146                0.00041056
               5.00004493                0.00102017                5.00406393                0.01000000               -0.00737361               -0.03374164                0.10190751               -0.02383669                0.03144782               -0.00885488
               6.00008383                0.00077034                5.00456965                0.70847588               -0.01279017               -0.02657609                0.10421259               -0.02866250                0.02542750               -0.00087506
               6.99978913                0.00112197                5.00502775                1.00000000               -0.03114414               -0.03128557                0.10960249                0.00201890                0.01960106                0.00235179
               7.99946095                0.00144268                5.00542862                1.00000000               -0.03364338               -0.03319402                0.11406179                0.00166869                0.01308703                0.00050821
               8.99911626                0.00174477                5.00576176                0.99999999               -0.03526637               -0.03435522                0.11799981                0.00171125                0.00762072                0.00055930
               9.99875562                0.00202382                5.00605823                1.00000000               -0.03606408               -0.03594213                0.12302489                0.00243565                0.00566411                0.00398248
               0.00097457                1.00079201                5.00395756                0.99999093               -0.02395139               -0.02367845                0.07906953                0.00041375                0.00106057                0.00328004
               1.00073505                1.00060983                5.00386208                0.01000000               -0.02413146               -0.02411739                0.08024806                0.00022633                0.00262707               -0.00261194
               2.00049194                1.00043892                5.00379774                0.01000000               -0.02406759               -0.01043343                0.08134090                0.01355513               -0.01515402               -0.00825128
               3.00025370                1.00065612                5.00334196                0.01000000               -0.02016000               -0.00942017                0.07009713                0.00677026               -0.00352104                0.02536847
               4.00008874                1.00074034                5.00365580                0.01000000               -0.01556562               -0.02656096                0.09022556               -0.01273447                0.02279996                0.00243963
               4.99994239                1.00068276                5.00392962                0.01000000               -0.01712149               -0.02705732                0.09659739               -0.02884203                0.01596860               -0.00459928
               5.99974631                1.00050458                5.00433121                0.01000000               -0.02346222               -0.01633569                0.09458413               -0.02706796                0.01316641               -0.01553516
               6.99947315                1.00080911                5.00476379                0.99990462               -0.02900358               -0.03006422                0.10021727               -0.00070255                0.00927498                0.00189839
               7.99916624                1.00111074                5.00509541                0.99999999               -0.03151689               -0.03175322                0.10546298                0.00093031                0.00182378                0.00061004
               8.99884281                1.00140121                5.00538493                0.99268771               -0.03326560               -0.03330664                0.11109591                0.00113166               -0.00068674               -0.00045192
               9.99850093                1.00166440                5.00566715                0.99999997               -0.03418822               -0.03485637                0.11687056                0.00155688               -0.00088795                0.00484242
               0.00116301                2.00055169                5.00390361                0.01103100               -0.02458814               -0.01538845                0.08154096               -0.01097993                0.00123244               -0.02987574
               1.00091713                2.00036482                5.00377185                0.01000000               -0.03061335               -0.01101019                0.08274726                0.01220408                0.00160331               -0.02967431
               2.00055074                2.00046931                5.00364277                0.01066088               -0.03632740                0.00149539                0.09331148                0.00665238               -0.00525642                0.01071122
               3.00019058                2.00053504                5.00369410                0.01086123               -0.03003823               -0.01396093                0.09397800               -0.00588243               -0.00431916                0.02719769
               3.99994998                2.00051076                5.00363270                0.01000001               -0.02433618               -0.01961464                0.08887084               -0.01313315               -0.00650370                0.00693323
               4.99970386                2.00047903                5.00378397                0.01000000               -0.02669301               -0.01776182                0.09214866               -0.01925756               -0.00457236                0.00694802
               5.99941612                2.00044362                5.00381823                0.01000000               -0.02674719               -0.00938066                0.07418816               -0.01859555                0.01295591               -0.00726719
               6.99916891                2.00052068                5.00449623                0.01438976               -0.02643307               -0.02293580                0.09069280               -0.00260719                0.01321164               -0.00059785
               7.99888746                2.00080762                5.00476924                0.01115614               -0.02918345               -0.03479802                0.09650419                0.00943018               -0.01037346                0.00771520
               8.99858524                2.00107863                5.00499041                1.00000000               -0.03135314               -0.03129020                0.10481903                0.00051692               -0.00799320               -0.00388823
               9.99826039                2.00132669                5.00529828                0.99999997               -0.03248500               -0.03290517                0.11075564                0.00125132               -0.00316198                0.00496481
               0.00112870                3.00048424                5.00318122                0.01000003               -0.00671881                0.00699846                0.07347350               -0.00814205                0.01377673                0.06147839
               1.00106151                3.00038962                5.00316724                0.01000000               -0.03369666                0.01463927                0.07878224               -0.01851519                0.01838687                0.06077105
               2.00045477                3.00046883                5.00387375                0.01086212               -0.04834552               -0.00472728                0.09922469               -0.01503458                0.01938764                0.02263375
               3.00009460                3.00037690                5.00382385                0.01277730               -0.02863377               -0.01589724                0.08827341               -0.01097785               -0.01766885                0.00724471
               3.99988209                3.00034805                5.00373145                0.01000000               -0.02351109               -0.01843003                0.08351004               -0.00526035               -0.00529350                0.01468445
               4.99962438                3.00032752                5.00395167                0.01361535               -0.02746755               -0.02005038                0.09895164               -0.00586930               -0.00204005                0.01526058
               5.99933274                3.00031696                5.00396856                0.01288951               -0.02836874               -0.01882704                0.08809373               -0.00612010               -0.00440048                0.03096964
               6.99905701                3.00035040                5.00420472                0.01718741               -0.02679240               -0.01963739                0.07962967               -0.00383228                0.00597757               -0.00231853
               7.99879689                3.00041478                5.00459129                0.01000000               -0.03614655               -0.03270586                0.10171281                0.01964473               -0.01097999               -0.01210387
               8.99833407                3.00077541                5.00454605                0.01000000               -0.03835286               -0.03666390                0.09940720                0.03748022               -0.02191556                0.00696434
               9.99802984                3.00100629                5.00491561                0.13491335               -0.03042388               -0.04214530                0.10401816                0.03083468               -0.00077935               -0.00493460
               0.00118941                4.00069166                5.00471098                0.01155941               -0.06271712                0.01652545                0.12439711               -0.02256554               -0.03713350                0.16970289
               1.00056224                4.00065761                5.00447349                0.01000000               -0.04633190                0.00945477                0.11577180               -0.04719064               -0.04323691                0.14176074
               2.00026277                4.00037477                5.00394213                0.01000001               -0.02352169               -0.01510240                0.09222681               -0.03061269               -0.03715197                0.01410023
               3.00009180                4.00021710                5.00380611                0.01000000               -0.01843111               -0.02118146                0.08353056               -0.00849787               -0.00884411                0.00960300
               3.99989415                4.00014216                5.00391812                0.01272462               -0.02371264               -0.02616765                0.10323862               -0.00381113                0.00005298                0.01359751
               4.99961755                4.00007802                5.00408293                0.01088650               -0.03116557               -0.02985482                0.11506224               -0.00234057                0.00688981                0.00454086
               5.99927084                4.00006708                5.00435607                0.01391786               -0.03115531               -0.02999689                0.11375391                0.00223787               -0.00818488                0.00397376
               6.99899445                4.00012794                5.00413789                0.01000000               -0.02077502               -0.02929955                0.09334054                0.00502266               -0.02136839               -0.00615191
               7.99885534                4.00015350                5.00411903                0.01702569               -0.01255546               -0.02571067                0.06693440                0.01882731               -0.00295529               -0.00954946
               8.99874334                4.00034536                5.00435835                0.01000001               -0.02200100               -0.03751546                0.08791041                0.04036386                0.00045815                0.00471047
               9.99841532                4.00048379                5.00434965                0.01000000               -0.03280187               -0.04710744                0.11449655                0.03860644               -0.01025261                0.00068485
               0.00074549                5.00081475                5.00615514                0.02219647               -0.03108975                0.00871191                0.12573913               -0.03091004               -0.07659055                0.05792226
               1.00043459                5.00057872                5.00563675                0.01000000               -0.02312321               -0.00943318                0.12435536               -0.02467393               -0.09634181                0.04462389
               2.00028302                5.00016678                5.00407301                0.01000000               -0.01386716               -0.02214392                0.09667168               -0.02018216               -0.07301459                0.00691420
               3.00015725                4.99995327                5.00401002                0.01361825               -0.01690382               -0.02663976                0.09853919               -0.00453280               -0.00594978                0.00553263
               3.99994495                4.99982469                5.00405543                0.01088815               -0.02522987               -0.03525275                0.11429671               -0.00140568               -0.00663966                0.01316547
               4.99965265                4.99973042                5.00409062                0.01315637               -0.03086835               -0.03609100                0.12162466                0.00297190               -0.01045209               -0.00847197
               5.99932758                4.99971703                5.00399135                0.01000001               -0.02908059               -0.03587200                0.11531398                0.01045671               -0.01255121               -0.02086963
               6.99907104                4.99976441                5.00394487                0.01700594               -0.01857801               -0.03286648                0.08377237                0.02258844               -0.00146433               -0.00156957
               7.99895602                4.99990057                5.00409759                0.01000000               -0.01299848               -0.03175205                0.05843804                0.02705808                0.01056789                0.01760179
               8.99881107                5.00002510                5.00430025                0.01000000               -0.02154583               -0.04109244                0.09292845                0.01875404                0.01060095                0.03008668
               9.99852510                5.00006414                5.00439707                0.01000000               -0.02859645               -0.04177967                0.13676518                0.01012000                0.00550051                0.03116680
               0.00104328                6.00086590                5.00513762                0.99839773               -0.03265464               -0.01400308                0.11155238               -0.00561711               -0.00410104               -0.03617697
               1.00071673                6.00046895                5.00493713                0.01000000               -0.02793519               -0.02141718                0.10670858               -0.01301772               -0.04420995               -0.03736657
               2.00048457                5.99993189                5.00392993                0.01000000               -0.01867479               -0.02088505                0.08130745               -0.01325767               -0.04064632                0.02040796
               3.00034324                5.99968430                5.00386305                0.01289448               -0.01978460               -0.03261250                0.08204020               -0.00713077                0.01736315                0.00585432
               4.00008888                5.99943711                5.00422334                0.01392159               -0.02792895               -0.03564159                0.11126424                0.00452423                0.00073645               -0.01106166
               4.99978466                5.99935620                5.00388387                0.01000001               -0.03214460               -0.03206017                0.11265158                0.01146307               -0.01901847               -0.01572686
               5.99944599                5.99934964                5.00380296                0.01685912               -0.02609937               -0.02835712                0.09422559                0.02374545                0.00615665               -0.00072957
               6.99926267                5.99947061                5.00406523                0.01000000               -0.01550926               -0.03198821                0.07813199                0.02160652                0.02498912                0.00857477
               7.99913581                5.99951846                5.00444257                0.01680395               -0.01539136               -0.04768584                0.08865266                0.00462057                0.02263018                0.01974307
               8.99895484                5.99952351                5.00466072                0.01000000               -0.02980884               -0.04779998                0.11771495                0.00633215                0.00783353                0.02980925
               9.99853963                5.99964819                5.00460593                0.01109438               -0.04152138               -0.04173929                0.14889404                0.00977095               -0.00940385                0.05039911
               0.00142705                7.00053469                5.00508692                0.99759402               -0.03188038               -0.03277353                0.10869626               -0.00080829               -0.00333921                0.01589026
               1.00110825                7.00015037                5.00477827                0.99999996               -0.03122675               -0.03147595                0.10395334               -0.00079203               -0.00767039               -0.00511519
               2.00080251                6.99974908                5.00437899                0.01439854               -0.02994162               -0.02378301                0.09950705               -0.00695595               -0.00752005                0.01492464
               3.00050941                6.99930102                5.00406175                0.01719494               -0.02194888               -0.03516152                0.08529060                0.01077819               -0.01159618               -0.03841970
               4.00036354                6.99911186                5.00375849                0.01000000               -0.02700169               -0.02161482                0.08830632                0.01541462               -0.01372740               -0.01742600
               4.99996938                6.99908922                5.00369185                0.01701219               -0.03377268               -0.01846568                0.08003288                0.02344627                0.00739696               -0.00970868
               5.99968808                6.99914988                5.00391810                0.01000000               -0.03175144               -0.01613481                0.07581471                0.01984506                0.01773713                0.01668268
               6.99933435                6.99912464                5.00408630                0.01000001               -0.03462746               -0.03284897                0.09092641               -0.01439723                0.02883270                0.01559634
               7.99899553                6.99894685                5.00454508                0.01000001               -0.02631843               -0.06511381                0.09888465               -0.03975861                0.03248899                0.02942773
               8.99880798                6.99906910                5.00493098                0.01000001               -0.02621906               -0.06033184                0.10674233               -0.02078219                0.02614950                0.04407322
               9.99847115                6.99922936                5.00520903                0.01346129               -0.03368290               -0.04867944                0.14532474               -0.00843929                0.01869621                0.08498711
               0.00179575                8.00021043                5.00511182                0.99999999               -0.03092432               -0.03196547                0.10610063               -0.00103637               -0.00121681                0.02101431
               1.00148650                7.99983943                5.00471249                1.00000000               -0.03004689               -0.03048021                0.10077006               -0.00070964               -0.00079343                0.00202082
               2.00119481                7.99945623                5.00432092                0.01000000               -0.01452422               -0.02889212                0.09573779               -0.00477487               -0.04880503               -0.01281942
               3.00119602                7.99898107                5.00295647                0.01000000               -0.02929165               -0.02611213                0.04699287                0.01694059               -0.01093027               -0.00083139
               4.00060898                7.99900481                5.00370141                0.01703920               -0.04902290               -0.00743286                0.06993702                0.02249390                0.04792532               -0.00575312
               5.00021556                7.99898689                5.00363435                0.01000000               -0.04007522               -0.01022374                0.05300949                0.02607867                0.02283804                0.00422573
               5.99980747                7.99902695                5.00413925                0.01682023               -0.05189030               -0.01286351                0.08383858               -0.00088498                0.03314678                0.01507111
               6.99917775                7.99881363                5.00436383                0.01000001               -0.07056480               -0.02193728                0.09525763               -0.04090909                0.04428548                0.02126487
               7.99839617                7.99821618                5.00515639                0.01417424               -0.04605309               -0.04163661                0.10163686               -0.05542576                0.04223033                0.03136014
               8.99825669                7.99831687                5.00573736                0.01000001               -0.01729244               -0.07680989                0.11372897               -0.04599359                0.02728334                0.10995168
               9.99805033                7.99867460                5.00647072                0.01000000               -0.02063668               -0.08858587                0.17708033               -0.04415115                0.05506438                0.13921369
               0.00214832                8.99989538                5.00516452                0.99999999               -0.03000703               -0.03091720                0.10281568               -0.00097461                0.00226137                0.01793483
               1.00184825                8.99954077                5.00468942                0.99922331               -0.02914748               -0.02915474                0.09685283               -0.00057466                0.00177849                0.00300173
               2.00156537                8.99917124                5.00420349                1.00000000               -0.02743048               -0.02759513                0.09056730               -0.00121941               -0.00287277               -0.00865525
               3.00129964                8.99877878                5.00363475                0.01000000               -0.03788848               -0.02222860                0.08353692                0.01406818                0.02051513                0.02549320
               4.00080760                8.99896320                5.00361591                0.01000001               -0.04154107               -0.01334660                0.07704877                0.02989962                0.02704354               -0.00646873
               5.00046882                8.99888475                5.00369283                0.01000000               -0.04819800               -0.01439641                0.08079603                0.01453860                0.05116036                0.00906061
               5.99984364                8.99889261                5.00424847                0.01000000               -0.05709448               -0.02162805                0.10743914                0.00250604                0.04734873                0.00067253
               6.99932693                8.99868590                5.00464614                0.01000001               -0.07299321               -0.01785312                0.09826821               -0.02426707                0.06368348                0.02082313
               7.99838378                8.99811412                5.00566694                0.01000000               -0.09486188               -0.00804103                0.10796734               -0.03847192                0.12340866                0.02246305
               8.99742969                8.99753290                5.00791184                1.00000000               -0.07555573               -0.06702198                0.19027564               -0.07211516                0.09220116                0.09103862
               9.99687266                8.99745764                5.00829791                0.99540020               -0.05570293               -0.08699367                0.18010537               -0.06261678               -0.00052099                0.07247548
               0.00248548                9.99959208                5.00512676                0.99999999               -0.02863228               -0.03032988                0.09881536                0.00014063                0.01213102                0.01330396
               1.00219915                9.99925633                5.00464071                0.99999997               -0.02765329               -0.02844374                0.09255198                0.00070258                0.01542400                0.00148072
               2.00193241                9.99890433                5.00422179                1.00000000               -0.02568693               -0.02669106                0.08606455                0.00071243                0.01548925               -0.00226481
               3.00168542                9.99853650                5.00374063                0.01000000               -0.04157054               -0.02422778                0.07964211                0.03025521                0.02106072               -0.00380086
               4.00110100                9.99873788                5.00344698                0.01000000               -0.05542460               -0.02253229                0.09248997                0.03746273                0.03756619               -0.00967578
               5.00057692                9.99869896                5.00369890                0.01000000               -0.05222795               -0.01857884                0.11426256                0.00363565                0.05901726                0.00762624
               6.00005644                9.99859438                5.00406565                0.01098829               -0.05530094               -0.02982275                0.12917047                0.00916037                0.07484909               -0.01452645
               6.99947090                9.99845657                5.00486506                0.01000000               -0.06383555               -0.02293310                0.13065724               -0.01255350                0.10831906                0.01744062
               7.99877973                9.99805536                5.00629632                0.01000002               -0.10000180               -0.00587565                0.15520824               -0.03441149                0.15820509                0.04559171
               8.99747087                9.99697643                5.00827873                0.99540134               -0.09156089               -0.05564729                0.17977244               -0.05191407                0.08066894                0.00087074
               9.99694851                9.99693473                5.00866466                0.99501990               -0.05223563               -0.05229122                0.16956387                0.00341495                0.00067176               -0.00071229
               0.00084999                0.00110259                6.00478524                0.99792818               -0.02317952               -0.02338771                0.07689082                0.00048043               -0.00321973                0.00298299
               1.00061819                0.00088249                6.00469815                0.99762698               -0.02331196               -0.02368703                0.07784188                0.00015807               -0.00362233               -0.00105842
               2.00038375                0.00066989                6.00460472                0.01072821               -0.01322766               -0.02397911                0.07878933                0.02453053               -0.00645824               -0.00152962
               3.00035364                0.00095224                6.00446231                0.01163118               -0.01389346               -0.03013083                0.09800617                0.00765202                0.00041688                0.00261832
               4.00010588                0.00106116                6.00461993                0.01000000               -0.02167429               -0.02728476                0.08835078               -0.00539499                0.01958797               -0.00206100
               4.99992016                0.00111089                6.00503137                0.01000005               -0.01232560               -0.03201674                0.09967134               -0.01464332                0.04394938               -0.00578970
               5.99985937                0.00108346                6.00579832                0.74149867               -0.01997580               -0.03444578                0.11214699               -0.02256587                0.02980763               -0.00101754
               6.99952064                0.00145820                6.00617670                1.00000000               -0.03351852               -0.03275866                0.11219840                0.00040243                0.00935250               -0.00078175
               7.99918900                0.00181821                6.00655944                1.00000000               -0.03367718               -0.03322377                0.11387320                0.00116422                0.00927668                0.00038840
               8.99884710                0.00216443                6.00694593                0.99999999               -0.03521351               -0.03452536                0.11848380                0.00112446                0.00698016                0.00096086
               9.99848473                0.00248664                6.00728747                0.99787297               -0.03623674               -0.03591401                0.12314747                0.00203292                0.00465994                0.00504174
               0.00107490                1.00086872                6.00474887                1.00000000               -0.02387702               -0.02371062                0.07911072                0.00035219                0.00100107                0.00321937
               1.00083613                1.00064562                6.00466316                0.01000000               -0.02403598               -0.02402531                0.08003478                0.00003774                0.00259087               -0.00263471
               2.00059418                1.00043010                6.00460820                0.01000000               -0.03008014               -0.00662153                0.08094413                0.00621096               -0.00251163               -0.00662436
               3.00023452                1.00065094                6.00441856                0.01000000               -0.03107862               -0.02204168                0.09696053                0.00647291               -0.00418250                0.00487806
               3.99997261                1.00078831                6.00456369                0.01000000               -0.02359750               -0.02594407                0.09089625               -0.00625207                0.01063464                0.00366016
               4.99976257                1.00079073                6.00485367                0.01000000               -0.02562734               -0.02950202                0.09773620               -0.01959749                0.02198449               -0.00269074
               5.99946006                1.00073900                6.00546169                0.01000000               -0.03026451               -0.02550755                0.10343714               -0.01524017                0.01511320               -0.01406223
               6.99915728                1.00113061                6.00580036                1.00000000               -0.03062661               -0.03106968                0.10301381                0.00167601                0.00098942               -0.00155328
               7.99884753                1.00148598                6.00615077                0.99999995               -0.03165792               -0.03209649                0.10635859                0.00094208                0.00112151                0.00058056
               8.99852413                1.00181917                6.00650066                0.99999999               -0.03323430               -0.03342254                0.11142020                0.00057170                0.00034137                0.00010550
               9.99818284                1.00212750                6.00684020                1.00000000               -0.03412855               -0.03490249                0.11641733                0.00136585               -0.00010927                0.00578332
               0.00130323                2.00062838                6.00471829                0.01000000               -0.02456594               -0.00963074                0.08131709               -0.00726879                0.00136966                0.00314743
               1.00105757                2.00040198                6.00459620                0.01000000               -0.04002874                0.00143504                0.08222363               -0.01438819                0.00325000                0.00237836
               2.00050265                2.00053746                6.00451023                0.01069386               -0.04663427                0.00389023                0.08556260               -0.01176873               -0.00557835                0.00803457
               3.00012488                2.00051141                6.00451995                0.01140558               -0.03308025               -0.01250029                0.08125266               -0.01064105               -0.00357201                0.00948351
               3.99984105                2.00054228                6.00457923                0.01000001               -0.02736810               -0.02386291                0.09154226               -0.01023363               -0.00288359                0.00264522
               4.99957752                2.00052085                6.00470591                0.01000000               -0.03131829               -0.02522671                0.09514717               -0.01238153               -0.00356630                0.00769175
               5.99921468                2.00057330                6.00489090                0.01000000               -0.03851698               -0.02071184                0.10544912                0.00355602                0.01024238               -0.00309022
               6.99880718                2.00083680                6.00541513                0.01445125               -0.03477015               -0.02899358                0.09350989                0.01359292                0.00464518               -0.00539676
               7.99851928                2.00117628                6.00574786                0.01173496               -0.02950887               -0.03695492                0.09866574                0.01643632               -0.00751114               -0.00643778
               8.99821700                2.00149598                6.00603992                1.00000000               -0.03119472               -0.03126463                0.10474988                0.00066581               -0.00594411               -0.00313080
               9.99789538                2.00178859                6.00640706                0.99999997               -0.03216191               -0.03296080                0.10990870                0.00125499               -0.00198338                0.00519076
               0.00138232                3.00067610                6.00468005                0.01178417               -0.07430305                0.01269407                0.12863592               -0.01565571                0.00427634                0.06558129
               1.00063929                3.00067432                6.00465910                0.01000000               -0.05664710                0.01894417                0.12603662               -0.03267925               -0.01759917                0.06099974
               2.00024938                3.00050790                6.00468307                0.01140646               -0.03112030               -0.00638649                0.08046063               -0.02644639               -0.01438251                0.02511317
               3.00001688                3.00040093                6.00455133                0.01000001               -0.02454435               -0.01525511                0.07707220               -0.01716708               -0.01637335                0.00755312
               3.99975849                3.00031105                6.00450704                0.01000000               -0.02664814               -0.02280789                0.08386191               -0.01140298               -0.00032703                0.01018070
               4.99948392                3.00028619                6.00483245                0.01601019               -0.02716297               -0.02348956                0.08111768               -0.00431270                0.01094909                0.01734083
               5.99921523                3.00032476                6.00504257                0.01488754               -0.03288776               -0.02314147                0.08816042                0.01468825               -0.00534528                0.01744475
               6.99882616                3.00055074                6.00497275                0.01000001               -0.03490737               -0.03132988                0.09064087                0.03195295               -0.00784407               -0.00006617
               7.99851708                3.00074688                6.00520770                0.01000000               -0.04505147               -0.03774496                0.08404159                0.04132072                0.00410923               -0.01925486
               8.99792513                3.00119388                6.00553147                0.01000000               -0.04471888               -0.04736796                0.09861179                0.05009627               -0.00620569               -0.00629264
               9.99762270                3.00146829                6.00594820                0.13577341               -0.03024293               -0.05071873                0.10314195                0.04461745               -0.00143905                0.00605185
               0.00099368                4.00088226                6.00584115                0.01362318               -0.04214936                0.02878271                0.08624129               -0.03951184               -0.04185676                0.11022284
               1.00057218                4.00078087                6.00550471                0.01000000               -0.03732810                0.00989108                0.09014898               -0.02249322               -0.04398833                0.09198375
               2.00024711                4.00040973                6.00490640                0.01000001               -0.02968979               -0.01162216                0.09209018               -0.02144442               -0.04624341                0.02493756
               2.99997839                4.00020631                6.00458579                0.01000000               -0.02596951               -0.01995727                0.08511091               -0.01409795               -0.01688850                0.01821186
               3.99972772                4.00008612                6.00474174                0.01588142               -0.02504135               -0.02411915                0.07973801               -0.00422999                0.00632538                0.02297301
               4.99947756                4.00005106                6.00500714                0.01436036               -0.02419120               -0.02447509                0.07371700                0.00784575                0.00587743                0.01210413
               5.99924390                4.00011048                6.00509274                0.01712013               -0.02267185               -0.02344556                0.06274981                0.01692121               -0.00731887                0.00747997
               6.99902412                4.00021021                6.00494332                0.01000000               -0.02706737               -0.03562354                0.08379130                0.02882530               -0.02266110                0.00551094
               7.99870255                4.00042139                6.00467712                0.01000000               -0.02633015               -0.04187578                0.10141140                0.03379451               -0.01224199                0.00324312
               8.99849752                4.00054862                6.00500760                0.01000000               -0.02318170               -0.04882002                0.08748254                0.05412324                0.00880671                0.01817683
               9.99823892                4.00077422                6.00553095                0.01000005               -0.02586013               -0.05839016                0.10867114                0.06104132                0.02471433                0.01611844
               0.00079487                5.00125175                6.00656322                0.02560213               -0.01329150                0.00871345                0.04172242               -0.02613385               -0.01729082                0.04921556
               1.00066196                5.00087214                6.00627862                0.01000000               -0.01999136               -0.01179488                0.05757201               -0.03215423               -0.05752801                0.04260307
               2.00039505                5.00027546                6.00507984                0.01000000               -0.03017149               -0.01806091                0.10079645               -0.02426974               -0.06262766                0.01808737
               3.00005853                5.00000178                6.00487168                0.01601306               -0.02829560               -0.02253211                0.08103440               -0.00692690               -0.01128850                0.02127232
               3.99982913                4.99982867                6.00497283                0.01436201               -0.02210242               -0.02545488                0.07327713                0.00765573                0.00005893                0.01343441
               4.99961648                4.99979669                6.00501730                0.01696157               -0.02173117               -0.02588632                0.07218055                0.02063900               -0.00027790                0.00296555
               5.99939451                4.99985585                6.00499741                0.01000000               -0.02623601               -0.03117409                0.07748519                0.01479507               -0.00739884               -0.00803492
               6.99909176                4.99983827                6.00477482                0.01000000               -0.02699737               -0.03598376                0.08001405                0.00997403               -0.01501131               -0.00341064
               7.99885456                4.99990936                6.00461528                0.01000000               -0.02184970               -0.04835712                0.08409701                0.03105476                0.00879636                0.03324727
               8.99865477                5.00021748                6.00513502                0.01157736               -0.02311185               -0.04919254                0.10744932                0.03348956                0.04379732                0.05060061
               9.99839233                5.00030048                6.00586991                0.01000000               -0.02624396               -0.04434459                0.12124965                0.01677821                0.05836830                0.04825947
               0.00123023                6.00105653                6.00625179                0.99577078               -0.03248325               -0.02626803                0.11105121               -0.00444854               -0.00397233                0.00113309
               1.00090540                6.00054497                6.00599706                0.01000000               -0.02990758               -0.03208340                0.10560955               -0.01289761               -0.03492847               -0.01399718
               2.00063208                6.00004851                6.00511944                0.01000000               -0.03093802               -0.02764985                0.11124133               -0.00376602               -0.04159470                0.02180470
               3.00028664                5.99975567                6.00490382                0.01489243               -0.02730723               -0.02027327                0.08579021                0.01209235               -0.00814327               -0.00617475
               4.00008593                5.99957702                6.00492338                0.01712384               -0.02117366               -0.02278603                0.06048934                0.01657340                0.00310682               -0.00744691
               4.99986316                5.99953334                6.00487111                0.01000000               -0.02938537               -0.02860898                0.07656092                0.01438351               -0.00545797               -0.01097364
               5.99949822                5.99948699                6.00462467                0.01000000               -0.03465354               -0.03407276                0.08072867                0.00957871               -0.00636178               -0.01268603
               6.99917009                5.99949053                6.00448067                0.01000000               -0.02768935               -0.03429733                0.08077764                0.00819370                0.01756137                0.01896030
               7.99894444                5.99945424                6.00493208                0.01000001               -0.01969505               -0.04513060                0.08325770                0.00438810                0.04501417                0.05204568
               8.99877619                5.99956477                6.00562535                0.01028238               -0.02679817               -0.05823434                0.11974136                0.01939693                0.04630857                0.06466629
               9.99840847                5.99988733                6.00627018                0.01000000               -0.03677162               -0.05252304                0.14170544                0.02384392                0.05654772                0.07240987
               0.00172903                7.00072639                6.00617388                0.99803347               -0.03169991               -0.03266028                0.10835342               -0.00056434               -0.00312104                0.01684924
               1.00141203                7.00023047                6.00581377                0.99910854               -0.03099992               -0.03110921                0.10321938               -0.00034840               -0.00726462               -0.00434076
               2.00110903                6.99972246                6.00536680                0.01445983               -0.03200836               -0.03081900                0.09842233                0.01720935               -0.02783684                0.00649918
               3.00077186                6.99959632                6.00458998                0.01000001               -0.03630488               -0.02176607                0.07124689                0.01850437               -0.01501478               -0.01890621
               4.00038293                6.99937295                6.00459260                0.01000000               -0.03888401               -0.02496980                0.08481319                0.00847343                0.01145755               -0.03102856
               4.99999418                6.99922451                6.00447557                0.01000000               -0.03770205               -0.02543970                0.07606299                0.00676365                0.00638788               -0.01903886
               5.99962889                6.99917439                6.00432416                0.01000000               -0.03528980               -0.02668317                0.07864131                0.00569132                0.03007985                0.00989239
               6.99928838                6.99915232                6.00490202                0.01000000               -0.03803993               -0.03694922                0.09913215               -0.00579888                0.05498385                0.04156473
               7.99886809                6.99900675                6.00545302                0.01000000               -0.03393819               -0.06268579                0.11445770               -0.03285004                0.04225473                0.07827829
               8.99860962                6.99905279                6.00589338                0.01000000               -0.03220050               -0.07656798                0.14509680               -0.03217919                0.04940012                0.08896935
               9.99822408                6.99925002                6.00681028                0.01124152               -0.03855392               -0.06606941                0.15557241               -0.01759519                0.07644769                0.11701147
               0.00221078                8.00040333                6.00617310                0.99999999               -0.03084235               -0.03185598                0.10578793               -0.00070129               -0.00132219                0.02187002
               1.00190236                7.99992278                6.00571764                0.99771146               -0.03001836               -0.03024613                0.10039387               -0.00035029               -0.00075009                0.00215437
               2.00161042                7.99943213                6.00527171                0.01000001               -0.04480645               -0.02860241                0.09510059                0.01905466               -0.01759207               -0.01370735
               3.00100623                7.99932034                6.00448013                0.01000000               -0.04916050               -0.04687751                0.17708181                0.03495351               -0.02314909               -0.03294250
               4.00062721                7.99907763                6.00406285                0.01000000               -0.04046203               -0.02326657                0.07529087                0.01762833                0.02158931               -0.01542745
               5.00019699                7.99902454                6.00416394                0.01000000               -0.04714834               -0.01767804                0.07951819                0.02638171                0.05044805                0.00247772
               5.99968424                7.99895333                6.00460510                0.01000001               -0.04876169               -0.01790083                0.07797897               -0.00082878                0.06324932                0.03837841
               6.99922176                7.99875155                6.00524622                0.01000000               -0.06486372               -0.03031795                0.10962529               -0.03565163                0.09403514                0.02893177
               7.99838697                7.99820053                6.00644077                0.01000000               -0.06662119               -0.06119042                0.13582563               -0.07298772                0.10104967                0.08069389
               8.99788933                7.99803341                6.00710257                0.01000002               -0.03624285               -0.09135057                0.16351728               -0.05782406                0.06507209                0.18605872
               9.99766211                7.99856594                6.00802316                0.01000002               -0.02272249               -0.10561182                0.16205307               -0.03135623                0.06603639                0.15826461
               0.00267608                9.00008927                6.00619152                0.99999999               -0.02998650               -0.03087808                0.10263909               -0.00061093                0.00220217                0.01832647
               1.00237622                8.99962555                6.00565805                0.99787901               -0.02917608               -0.02918583                0.09709466               -0.00021863                0.00151580                0.00276345
               2.00209256                8.99915041                6.00511091                1.00000000               -0.02753932               -0.02759192                0.09122442               -0.00059135               -0.00359535               -0.00964785
               3.00182543                8.99865877                6.00447721                0.01000000               -0.05306313               -0.04555043                0.08487686                0.05312237                0.01063398               -0.00724077
               4.00103130                8.99890762                6.00421768                0.01000000               -0.05896598               -0.01550167                0.07856139                0.05551958                0.03989908                0.00189541
               5.00064611                8.99887095                6.00443438                0.01161422               -0.05729946               -0.01583232                0.09637280                0.02976636                0.06309079                0.03759534
               5.99988531                8.99881638                6.00511384                0.01027185               -0.06589786               -0.01872615                0.10247496                0.01870012                0.08316291                0.03705663
               6.99932815                8.99854596                6.00553032                0.01000000               -0.08794158               -0.02379890                0.13297522               -0.03470592                0.10909265                0.04048620
               7.99812648                8.99778294                6.00695375                0.01000001               -0.11202135               -0.02320626                0.14947314               -0.05175163                0.21254871                0.04749105
               8.99708773                8.99722578                6.00981010                0.99999999               -0.07972936               -0.06814917                0.18939167               -0.06952023                0.12770023                0.12277300
               9.99653189                8.99713779                6.01009862                0.99386039               -0.05558369               -0.09761751                0.18006267               -0.06088666               -0.00055458                0.08990969
               0.00312602                9.99978576                6.00611757                1.00000000               -0.02891648               -0.03035113                0.09933759                0.00032368                0.01232874                0.01363981
               1.00283685                9.99933907                6.00557232                1.00000000               -0.02803217               -0.02864827                0.09376916                0.00078966                0.01538244                0.00126635
               2.00256537                9.99888029                6.00509328                0.99999998               -0.02626893               -0.02701221                0.08797683                0.00079452                0.01518988               -0.00276469
               3.00231147                9.99840934                6.00455292                0.01000000               -0.05199779               -0.02494328                0.08217456                0.04296929                0.03130002               -0.00389650
               4.00152542                9.99876759                6.00440839                0.01000005               -0.07139560               -0.01400255                0.08903351                0.06433983                0.05205705                0.01567495
               5.00088356                9.99870790                6.00495594                0.01000000               -0.05710928               -0.01630547                0.10329537                0.01430551                0.06938801                0.05248759
               6.00038323                9.99857881                6.00549268                0.01000000               -0.06612425               -0.02375710                0.11883354                0.02817581                0.09750022                0.04131159
               6.99956108                9.99827557                6.00628674                0.01343165               -0.08555576               -0.02703939                0.13629962               -0.01882817                0.14748521                0.06866049
               7.99867212                9.99773640                6.00767788                0.01000001               -0.12084950               -0.00465404                0.13785299               -0.02569354                0.19370736                0.05885743
               8.99714409                9.99667042                6.01007634                0.99386167               -0.10258753               -0.05553586                0.17977603               -0.05050487                0.10633779                0.00083736
               9.99662037                9.99661359                6.01036486                0.99594995               -0.05237204               -0.05241981                0.17045428                0.00316406                0.00069632               -0.00068789
               0.00090015                0.00115765                7.00555555                0.99824135               -0.02325649               -0.02343029                0.07716665                0.00042058               -0.00321755                0.00297700
               1.00066758                0.00089598                7.00547741                0.99806892               -0.02337695               -0.02369037                0.07801329                0.00013469               -0.00359853               -0.00106403
               2.00043261                0.00064042                7.00539315                0.01037966               -0.01589321               -0.02394964                0.07887319                0.02373647               -0.00777175               -0.00152560
               3.00034972                0.00086331                7.00523251                0.01000005               -0.01893029               -0.01672765                0.08573804                0.01012522                0.00327702               -0.00068179
               4.00005400                0.00111324                7.00544811                0.01000000               -0.03020908               -0.02589967                0.09141584                0.00105545                0.03346672                0.00697873
               4.99974554                0.00125978                7.00605736                0.01000005               -0.02596714               -0.03053820                0.09872997               -0.01064533                0.04917045               -0.00339310
               5.99953466                0.00142324                7.00681259                0.70612975               -0.02652400               -0.02924853                0.10576829               -0.01331631                0.02696518               -0.00168374
               6.99921506                0.00185901                7.00727171                0.99887754               -0.03287032               -0.03193947                0.11066396                0.00110809                0.01128360               -0.00069637
               7.99887725                0.00226780                7.00770608                1.00000000               -0.03436072               -0.03338569                0.11464048                0.00088709                0.00930970                0.00007937
               8.99852784                0.00265452                7.00813144                0.99999999               -0.03557547               -0.03451850                0.11857099                0.00080675                0.00674233                0.00074869
               9.99816574                0.00301920                7.00852118                1.00000000               -0.03620984               -0.03587269                0.12294601                0.00186044                0.00498937                0.00426176
               0.00116602                1.00092335                7.00553978                1.00000000               -0.02384760               -0.02370949                0.07907176                0.00029514                0.00099120                0.00323445
               1.00092754                1.00065908                7.00546278                0.01000001               -0.02398557               -0.02397646                0.07990320                0.00000947                0.00256064               -0.00265978
               2.00068631                1.00040092                7.00541662                0.01000000               -0.03564906               -0.00426404                0.08073908                0.00598867               -0.00029992               -0.00580483
               3.00021456                1.00069604                7.00528117                0.01000000               -0.04099928               -0.01356831                0.08712668                0.00768666               -0.00102063                0.00657999
               3.99986632                1.00085424                7.00547372                0.01000000               -0.03652392               -0.02464572                0.09878285               -0.00446465                0.01435194                0.00804518
               4.99948408                1.00095440                7.00588434                0.01000000               -0.03822192               -0.03028486                0.10337422               -0.00740803                0.02110732               -0.00003952
               5.99910188                1.00113075                7.00639995                0.01000000               -0.03401130               -0.03111488                0.09844622               -0.00188502                0.00937666               -0.00368811
               6.99880386                1.00153961                7.00682407                1.00000000               -0.03067574               -0.03093255                0.10322341               -0.00035061                0.00335456               -0.00107150
               7.99848837                1.00193394                7.00722258                0.99999995               -0.03218236               -0.03229320                0.10739221                0.00024567                0.00134688                0.00015129
               8.99816021                1.00230933                7.00761333                0.99479189               -0.03343491               -0.03346569                0.11162577                0.00029215                0.00026785                0.00023009
               9.99781967                1.00266047                7.00799549                0.99999999               -0.03405396               -0.03483461                0.11595496                0.00114833               -0.00020026                0.00563238
               0.00143458                2.00068346                7.00552995                0.01000001               -0.02443910               -0.01251663                0.08098862               -0.02219455                0.00137118                0.01527144
               1.00119019                2.00041645                7.00541632                0.01000000               -0.04595799                0.00210162                0.08180251               -0.01746730                0.00405987                0.01174564
               2.00051542                2.00055514                7.00535402                0.01019263               -0.05700291                0.00869965                0.08586113               -0.01179626               -0.00210515                0.00416420
               3.00005013                2.00059195                7.00531916                0.01090200               -0.04045395               -0.01169561                0.08047661               -0.01031080               -0.00317143                0.01080063
               3.99970634                2.00062032                7.00546355                0.01000001               -0.03646349               -0.02325461                0.09066598               -0.01048759               -0.00050831                0.00794820
               4.99932086                2.00065408                7.00568691                0.01000000               -0.03972994               -0.02906460                0.09951209                0.00021823               -0.00134147                0.00579563
               5.99891175                2.00080094                7.00592721                0.01000000               -0.04580045               -0.03333669                0.10249577                0.02849590                0.00365765               -0.00305394
               6.99840486                2.00124036                7.00636643                0.01257951               -0.03996499               -0.03593624                0.09569423                0.03760655               -0.00146771                0.00350233
               7.99811245                2.00162193                7.00674255                0.01000000               -0.02988498               -0.04167576                0.10001406                0.02884184               -0.00667735                0.00058706
               8.99780716                2.00198520                7.00708541                1.00000000               -0.03130037               -0.03137309                0.10497995                0.00049121               -0.00519388               -0.00237199
               9.99748644                2.00232250                7.00749646                0.99999997               -0.03207173               -0.03285135                0.10933552                0.00112663               -0.00183441                0.00596902
               0.00125614                3.00067301                7.00575394                0.01038928               -0.05496238                0.01647452                0.10470558               -0.01766157               -0.00863195                0.04153939
               1.00070651                3.00070111                7.00568798                0.01000000               -0.04906251                0.02306523                0.09790463               -0.03355345               -0.00271685                0.04461413
               2.00027489                3.00057492                7.00548297                0.01090286               -0.03816764               -0.00391949                0.07978249               -0.02487957               -0.01410362                0.02803183
               2.99994316                3.00046212                7.00536529                0.01000001               -0.03402288               -0.01654799                0.08609159               -0.01586050               -0.01390680                0.01781437
               3.99959443                3.00038915                7.00540869                0.01000000               -0.03176654               -0.02422448                0.08961714               -0.00980270               -0.00460229                0.01409594
               4.99930783                3.00037311                7.00557402                0.01584791               -0.02544508               -0.02594164                0.07072398                0.00690552               -0.00231690                0.01147067
               5.99908553                3.00046402                7.00573177                0.01427896               -0.02864183               -0.02695479                0.07253139                0.03621599                0.00446330                0.00473915
               6.99873499                3.00082089                7.00601754                0.01709289               -0.03825859               -0.04021335                0.09061446                0.05941969                0.00744567                0.00319440
               7.99832036                3.00110042                7.00627212                0.01000000               -0.06327658               -0.04055735                0.10089021                0.06473741                0.00465326                0.00040701
               8.99746946                3.00168187                7.00651829                0.01000000               -0.05763767               -0.04399320                0.09870423                0.05807497               -0.01220120                0.00334407
               9.99716760                3.00200344                7.00697845                0.01012789               -0.03018590               -0.07190313                0.10273348                0.05098064               -0.00145896                0.00818901
               0.00102516                4.00101295                7.00643581                0.01371847               -0.04079370                0.03577026                0.05954467               -0.02788294               -0.01526079                0.07551665
               1.00061722                4.00087776                7.00627647                0.01000000               -0.03841684                0.01186579                0.07734202               -0.02376495               -0.03292934                0.06414583
               2.00025682                4.00047675                7.00578393                0.01000001               -0.03492630               -0.01297128                0.09349694               -0.02271199               -0.03925127                0.03998894
               2.99991869                4.00026099                7.00550833                0.01000000               -0.03287565               -0.02007183                0.08934123               -0.01227982               -0.02038004                0.02284859
               3.99959931                4.00013583                7.00551288                0.01627285               -0.02672935               -0.02387037                0.07310781                0.00401700               -0.00665771                0.01744252
               4.99938411                4.00013525                7.00555727                0.01483738               -0.02055103               -0.02236683                0.05393541                0.02203465               -0.00379473                0.01271302
               5.99918829                4.00026184                7.00561106                0.01740420               -0.02136317               -0.02198110                0.05527824                0.03186953                0.00113255                0.01039442
               6.99895684                4.00043609                7.00581372                0.01000000               -0.03210372               -0.03310258                0.07652086                0.04834448                0.00900125                0.00529402
               7.99854621                4.00081079                7.00614726                0.01000000               -0.04456021               -0.03949374                0.10945495                0.05603177               -0.01054416                0.00998478
               8.99806564                4.00110534                7.00610800                0.01000000               -0.03416504               -0.06312531                0.11944650                0.05182875               -0.01675118                0.04174055
               9.99786291                4.00088444                7.00652307                0.01154596               -0.02027277               -0.08566657                0.10869483                0.03066465                0.01024045                0.01404726
               0.00096886                5.00138842                7.00698959                0.02167793               -0.02014478                0.01324740                0.05357610               -0.02259199               -0.00150990                0.06007206
               1.00076741                5.00093843                7.00678819                0.01000000               -0.02657214               -0.01119515                0.05923546               -0.02698130               -0.03647511                0.04366480
               2.00043742                5.00031549                7.00608893                0.01000000               -0.03644662               -0.01978674                0.10012193               -0.01943205               -0.05156061                0.02751212
               3.00003848                5.00006069                7.00563070                0.01585071               -0.03184574               -0.02092434                0.07409124                0.00269909               -0.02407090                0.01291477
               3.99980051                4.99991174                7.00552097                0.01483899               -0.02079841               -0.02337173                0.05442936                0.02247563               -0.00440532                0.00804465
               4.99962251                4.99992577                7.00553423                0.01769347               -0.01892114               -0.02283999                0.05139265                0.03513799                0.00083650                0.00755327
               5.99942208                5.00002440                7.00554106                0.01000000               -0.02347861               -0.02463341                0.05532180                0.03769832               -0.00154529                0.00908086
               6.99915294                5.00015884                7.00554516                0.01000000               -0.03251700               -0.03567406                0.07805499                0.03178963                0.00769683                0.02366780
               7.99877174                5.00031055                7.00577953                0.01000000               -0.03602794               -0.05445777                0.12111608                0.03028639                0.03003318                0.03489334
               8.99843238                5.00041936                7.00644924                0.01604171               -0.02745232               -0.05234294                0.10800990                0.02284224                0.03001027                0.05882799
               9.99822270                5.00029011                7.00682207                0.01000000               -0.02096871               -0.03642071                0.07688819                0.01297581                0.02312075                0.03683600
               0.00147330                6.00127790                7.00735864                0.99246962               -0.03227800               -0.02190227                0.11017170               -0.00660509               -0.00399268                0.03672003
               1.00115052                6.00065385                7.00704932                0.01000000               -0.03636908               -0.02977256                0.10485726               -0.00971331               -0.03300596                0.01501957
               2.00074592                6.00008102                7.00615476                0.01000000               -0.03870470               -0.02943513                0.10301995                0.01103949               -0.05517127                0.01792833
               3.00037643                5.99984250                7.00557886                0.01428373               -0.02810916               -0.03570506                0.07394742                0.02661086               -0.02408624                0.00072690
               4.00018373                5.99966840                7.00543313                0.01740783               -0.02011070               -0.02799599                0.05685186                0.03712735                0.00357681                0.00368116
               4.99997421                5.99967845                7.00541509                0.01000000               -0.02372739               -0.02550794                0.05550096                0.04219231                0.00962220               -0.00356279
               5.99970919                5.99976918                7.00541754                0.01000000               -0.03338651               -0.03285460                0.07571371                0.02426504                0.02438491                0.01834750
               6.99930648                5.99972261                7.00568078                0.01000000               -0.04088879               -0.04842241                0.11640277                0.00523354                0.03894429                0.04757634
               7.99889141                5.99972163                7.00610772                0.01000000               -0.03817792               -0.06534078                0.12633428                0.02067034                0.06149512                0.07625444
               8.99854292                6.00005848                7.00705554                0.01513621               -0.02552374               -0.05240464                0.10562997                0.02203730                0.04821285                0.08110543
               9.99838094                6.00015603                7.00744004                0.01296589               -0.01619865               -0.02367520                0.07498900                0.00693507                0.03296140                0.06589360
               0.00208485                7.00095037                7.00725399                0.99891529               -0.03148158               -0.03238565                0.10759769               -0.00039423               -0.00293993                0.01722550
               1.00177003                7.00034298                7.00684266                1.00000000               -0.03076408               -0.03078071                0.10249139               -0.00006078               -0.00693008               -0.00384106
               2.00146956                6.99972679                7.00634744                0.01258788               -0.03933570               -0.03215219                0.09762550                0.01690844               -0.02917744                0.00508701
               3.00098332                6.99934659                7.00548669                0.01710008               -0.03812326               -0.07037531                0.09552650                0.05952516               -0.01393905                0.02496793
               4.00070710                6.99935182                7.00545476                0.01000000               -0.03088663               -0.02986053                0.07317255                0.06211244                0.02038992               -0.01572055
               5.00036558                6.99941561                7.00521311                0.01000000               -0.04219362               -0.03004093                0.07713833                0.03617736                0.03342776                0.00155600
               5.99986323                6.99936730                7.00549093                0.01000000               -0.05302130               -0.03821742                0.11398333                0.00278805                0.06099668                0.02870909
               6.99930516                6.99919039                7.00606895                0.01000000               -0.05069754               -0.04793199                0.11987816               -0.02236338                0.07088848                0.05305041
               7.99884928                6.99900373                7.00683424                0.01000000               -0.04332124               -0.06961456                0.14018190               -0.00748523                0.08753063                0.09551619
               8.99843873                6.99937127                7.00783291                0.01000000               -0.03414844               -0.09685817                0.16871582                0.01228473                0.06812586                0.10391119
               9.99816631                6.99981661                7.00832048                0.01000001               -0.02724255               -0.08022376                0.13548071                0.00198026                0.04142917                0.12030774
               0.00268021                8.00063018                7.00722758                0.99999999               -0.03073219               -0.03164679                0.10515658               -0.00047075               -0.00119791                0.02220146
               1.00237289                8.00003824                7.00672037                0.99758664               -0.02998665               -0.03008077                0.10009988               -0.00015334               -0.00061604                0.00228292
               2.00208048                7.99943797                7.00622293                0.08283059               -0.02154955               -0.02850397                0.09504949               -0.01992581                0.03851363               -0.01414364
               3.00194190                7.99843499                7.00649811                0.01000000               -0.03617598               -0.03927060                0.08509831                0.05277270                0.01646712               -0.03324269
               4.00135696                7.99907119                7.00520723                0.01000000               -0.06298100               -0.03481223                0.10322787                0.07919793                0.00642265               -0.02355386
               5.00068228                7.99907763                7.00522472                0.01000000               -0.06833923               -0.02854815                0.11276685                0.02012624                0.06726236                0.02330503
               5.99999017                7.99900483                7.00569883                0.01000000               -0.07297466               -0.03105695                0.11755982                0.01170331                0.09128944                0.04599174
               6.99922278                7.99876397                7.00655633                0.01000000               -0.07146746               -0.03676403                0.13148190               -0.01558846                0.11489516                0.06619016
               7.99856082                7.99832934                7.00787290                0.01000000               -0.06235188               -0.05884491                0.14309441               -0.05684797                0.12672403                0.09777241
               8.99797575                7.99812132                7.00900771                0.01000005               -0.05154749               -0.11783398                0.19974431               -0.06888482                0.09332816                0.19665617
               9.99752987                7.99855155                7.00971178                0.01000000               -0.04458723               -0.14512365                0.19108586               -0.05106528                0.07193011                0.18513074
               0.00325932                9.00031744                7.00721730                0.99999999               -0.03001428               -0.03086993                0.10261308               -0.00049071                0.00230761                0.01844778
               1.00295918                8.99974136                7.00663132                0.99999996               -0.02925116               -0.02925663                0.09743339               -0.00012609                0.00141220                0.00267704
               2.00267430                8.99915671                7.00602797                0.99999999               -0.02768111               -0.02768366                0.09197675               -0.00025278               -0.00415499               -0.01020829
               3.00240555                8.99856117                7.00533229                0.01000000               -0.05129390               -0.00639205                0.08610235                0.02766404                0.01859764               -0.06439131
               4.00164842                8.99865558                7.00518714                0.01000000               -0.07855419               -0.02006108                0.10255926                0.03328206                0.06811631               -0.01012183
               5.00083447                8.99884465                7.00562029                0.01608362               -0.06187296               -0.01860250                0.09915633                0.01443522                0.06866643                0.02579877
               6.00041096                8.99874616                7.00629797                0.01514653               -0.05827967               -0.01709378                0.09007535                0.01479683                0.09369527                0.03618779
               6.99966888                8.99845511                7.00730564                0.01161232               -0.10279952               -0.02235136                0.14634041                0.00466484                0.11792663                0.05197709
               7.99835497                8.99782684                7.00865641                0.01000001               -0.14150259               -0.02725402                0.16012069               -0.05685319                0.23575748                0.06588294
               8.99683883                8.99701459                7.01169968                1.00000000               -0.10352161               -0.08303069                0.18852058               -0.09889049                0.14148791                0.12656869
               9.99628454                8.99691413                7.01189917                0.99444718               -0.05542892               -0.10815311                0.18004276               -0.06726990               -0.00054946                0.10009045
               0.00382255               10.00001279                7.00711351                1.00000000               -0.02914558               -0.03046513                0.09993685                0.00035516                0.01253461                0.01367005
               1.00353109                9.99945311                7.00651609                0.99999999               -0.02834708               -0.02882522                0.09466582                0.00076727                0.01545123                0.00121595
               2.00325561                9.99888430                7.00598132                0.99999998               -0.02673913               -0.02724113                0.08926489                0.00083333                0.01512981               -0.00300574
               3.00299631                9.99830715                7.00538412                0.01077809               -0.07582423               -0.02540215                0.08392232                0.04835900                0.03357990               -0.00395811
               4.00173912                9.99866997                7.00522765                0.01165188               -0.10579587                0.00143897                0.09221564                0.02899202                0.05180178                0.00294018
               5.00088039                9.99870558                7.00576481                0.01000000               -0.05317359               -0.01390657                0.06633431                0.00424148                0.05396339                0.02145272
               6.00067565                9.99866295                7.00644232                0.01293424               -0.03224921               -0.00832134                0.06233470                0.00703706                0.07973042                0.02486121
               7.00023541                9.99831694                7.00759105                0.01000000               -0.09056880               -0.01381662                0.10847131                0.01271855                0.13632849                0.03457512
               7.99886427                9.99778426                7.00905338                0.01000000               -0.16623850               -0.00425772                0.13094421               -0.04188125                0.23804382                0.05087458
               8.99691064                9.99646070                7.01187425                0.99444850               -0.12394403               -0.05538883                0.17980303               -0.06260714                0.13191150                0.00084279
               9.99638539                9.99638849                7.01207374                0.99700364               -0.05252448               -0.05256441                0.17132487                0.00286429                0.00069135               -0.00069313
               0.00094191                0.00119368                8.00632857                0.99855500               -0.02332796               -0.02346761                0.07743461                0.00036238               -0.00321382                0.00297605
               1.00070863                0.00089049                8.00625841                0.99851686               -0.02343438               -0.02369692                0.07818578                0.00012357               -0.00358719               -0.00106871
               2.00047322                0.00059242                8.00618218                0.01000000               -0.01722052               -0.02392962                0.07894074                0.02719651               -0.00037809               -0.00151740
               3.00036422                0.00084129                8.00617707                0.01000000               -0.02614245               -0.01453979                0.09472518                0.00713434                0.01314611               -0.00372842
               3.99995037                0.00114951                8.00644825                0.01000000               -0.04125686               -0.02157319                0.10059258               -0.00200042                0.03236835                0.01432672
               4.99953908                0.00138907                8.00700597                0.01000000               -0.03830283               -0.02286859                0.09984383                0.00821955                0.05294376                0.00887944
               5.99918431                0.00187507                8.00791368                0.70203528               -0.03431276               -0.03244566                0.10883199               -0.00012012                0.03159570               -0.00078562
               6.99885282                0.00233956                8.00838998                0.99881295               -0.03344238               -0.03250976                0.11153980                0.00047895                0.00891800               -0.00126125
               7.99851547                0.00278681                8.00885225                1.00000000               -0.03429924               -0.03342764                0.11468685                0.00077625                0.00829004               -0.00009418
               8.99816684                0.00321562                8.00931735                0.99999999               -0.03552173               -0.03458159                0.11853002                0.00079532                0.00660342                0.00096881
               9.99780503                0.00362326                8.00974639                1.00000000               -0.03618083               -0.03583835                0.12242841                0.00171211                0.00483405                0.00488862
               0.00124872                1.00095900                8.00633031                1.00000000               -0.02382300               -0.02370149                0.07903570                0.00025178                0.00098737                0.00324104
               1.00101049                1.00065352                8.00626122                0.01039071               -0.02394693               -0.02393949                0.07978492                0.00000938                0.00255274               -0.00266475
               2.00076978                1.00035312                8.00622298                0.01000000               -0.04267393               -0.00190094                0.08053252                0.00634327                0.00296548               -0.00331358
               3.00015701                1.00069589                8.00616109                0.01000000               -0.05566539               -0.00989923                0.09055974                0.00841848                0.00843011               -0.00058698
               3.99965648                1.00093378                8.00653935                0.01373223               -0.04492599               -0.01916177                0.08993421               -0.00113766                0.01662987                0.00878797
               4.99925849                1.00116038                8.00692115                0.01000000               -0.04743065               -0.02209911                0.09012717                0.00823910                0.01855469                0.00816367
               5.99870786                1.00155062                8.00743062                0.01000000               -0.04283739               -0.03473339                0.10196425                0.01390453                0.00549731               -0.00198447
               6.99840175                1.00201447                8.00786483                1.00000000               -0.03113313               -0.03130925                0.10421695                0.00057901                0.00130578               -0.00198262
               7.99808520                1.00245253                8.00829861                0.99999998               -0.03225893               -0.03241651                0.10783159                0.00033104                0.00115453                0.00003473
               8.99775657                1.00286980                8.00873318                0.99741291               -0.03353441               -0.03360203                0.11198044                0.00023614                0.00067010                0.00048611
               9.99741451                1.00326488                8.00915929                0.99999999               -0.03420551               -0.03491197                0.11614504                0.00108585                0.00021873                0.00604979
               0.00155791                2.00071965                8.00633806                0.01394891               -0.02432184               -0.01789843                0.08064161               -0.02615117                0.00137876                0.02501092
               1.00131469                2.00041170                8.00623225                0.01000000               -0.05000999                0.00264680                0.08138500               -0.01599093                0.00654394                0.01652141
               2.00055771                2.00055440                8.00622745                0.01000001               -0.06813825                0.01427542                0.08505553               -0.01240963               -0.00322876                0.00353827
               2.99995193                2.00064330                8.00612948                0.01000001               -0.05472937               -0.00639200                0.08677022               -0.00660586               -0.00333605                0.01279002
               3.99946313                2.00076628                8.00639255                0.01000001               -0.04324526               -0.01950680                0.08485203                0.00525087                0.00181698                0.00577964
               4.99908702                2.00094708                8.00669615                0.01000000               -0.04274039               -0.02575653                0.08653128                0.01350680                0.00036036               -0.00327548
               5.99860832                2.00118041                8.00694081                0.01000000               -0.05622676               -0.04074614                0.10925603                0.04597050               -0.00882131               -0.00182568
               6.99796249                2.00171338                8.00732902                0.01014904               -0.04707842               -0.04235635                0.09679765                0.04955237               -0.00585850               -0.00312831
               7.99766675                2.00213848                8.00774814                0.01037986               -0.03016351               -0.05511103                0.10093632                0.04271992               -0.00599717                0.00143050
               8.99735922                2.00254358                8.00813952                0.99999999               -0.03150728               -0.03158171                0.10547651                0.00023808               -0.00446049               -0.00209448
               9.99703660                2.00292502                8.00859377                0.99999997               -0.03226152               -0.03297126                0.10957188                0.00107890               -0.00138432                0.00586770
               0.00134160                3.00060103                8.00677416                0.01000001               -0.04856809                0.02186462                0.07601095               -0.01699693               -0.00879977                0.02804648
               1.00085592                3.00070645                8.00661719                0.01000000               -0.05258088                0.02759364                0.07922197               -0.03558119               -0.01574694                0.04028133
               2.00028999                3.00063863                8.00627872                0.01000001               -0.05214509                0.00245687                0.08772055               -0.02329422               -0.01800899                0.03331350
               2.99981302                3.00056805                8.00627316                0.01300310               -0.04161370               -0.01227165                0.08197481               -0.01025394               -0.01130350                0.02373464
               3.99945771                3.00054364                8.00629938                0.01000000               -0.03492601               -0.02217942                0.08287864                0.00798502               -0.01713784                0.01035466
               4.99911450                3.00064525                8.00624693                0.01439019               -0.02983671               -0.03009855                0.07345415                0.02042523               -0.01676493                0.00188944
               5.99886098                3.00073569                8.00649320                0.01248413               -0.03398900               -0.03356646                0.08434207                0.04619377               -0.01337131                0.01006196
               6.99843472                3.00116734                8.00678504                0.01492197               -0.03757894               -0.04624534                0.09049477                0.06600414               -0.00642256                0.00340276
               7.99810940                3.00135031                8.00722550                0.01000000               -0.07299664               -0.05123995                0.11281380                0.08007322               -0.02590751                0.01571923
               8.99697479                3.00223817                8.00750556                0.01000000               -0.07180954               -0.05455508                0.09894424                0.08412999               -0.01238194                0.02198281
               9.99667321                3.00260545                8.00800287                0.01000000               -0.03015795               -0.08567384                0.10260834                0.06557727               -0.00157899                0.01922205
               0.00100714                4.00115694                8.00703204                0.01210811               -0.04416617                0.04646644                0.07069089               -0.02804331                0.00602598                0.04735646
               1.00056547                4.00096357                8.00705155                0.01373556               -0.03884509                0.01330687                0.07105892               -0.02881063               -0.01433227                0.04466740
               2.00023023                4.00060354                8.00677634                0.01000001               -0.03618175               -0.00918796                0.08826129               -0.01671839               -0.03469369                0.04932014
               2.99984184                4.00039787                8.00637262                0.01000000               -0.03423040               -0.01892493                0.08247125                0.00255995               -0.03228452                0.01774229
               3.99954563                4.00032269                8.00620390                0.01509654               -0.02691798               -0.02371633                0.06550626                0.01635137               -0.01912844                0.00837002
               4.99930348                4.00034511                8.00608585                0.01365682               -0.02677609               -0.02776567                0.05939555                0.03425073               -0.01208935                0.01728198
               5.99901010                4.00050908                8.00619830                0.01616931               -0.03177623               -0.02523487                0.06466966                0.04675323                0.00012758                0.01277949
               6.99866795                4.00078847                8.00647373                0.01000000               -0.04063599               -0.03613873                0.07341776                0.05885543                0.00398643                0.01925590
               7.99819738                4.00111368                8.00686622                0.01000000               -0.04406372               -0.03517716                0.08587387                0.05528748                0.01081344                0.03749799
               8.99778668                4.00145248                8.00739653                0.01000000               -0.02918987               -0.08958351                0.12554357                0.06677528                0.00425812                0.03758337
               9.99761359                4.00121154                8.00770485                0.01309190               -0.01730934               -0.12426041                0.11362789                0.04770031               -0.00034354                0.01294265
               0.00116748                5.00153036                8.00763474                0.01765005               -0.03343672                0.01847964                0.07198955               -0.01768272                0.00416176                0.08649620
               1.00083311                5.00097259                8.00746333                0.01000000               -0.03230810               -0.00863385                0.06695439               -0.00959025               -0.01812964                0.05377336
               2.00052132                5.00045487                8.00708227                0.01000000               -0.03440219               -0.02274816                0.08333170               -0.00070809               -0.04573455                0.02921284
               3.00014507                5.00018955                8.00635350                0.01439291               -0.03419114               -0.02418268                0.07772526                0.01495748               -0.03864543                0.01074745
               3.99983750                5.00006932                8.00606142                0.01365838               -0.02659716               -0.03029107                0.06055087                0.03379965               -0.00913651                0.00884861
               4.99961313                5.00008994                8.00604515                0.01675468               -0.02424064               -0.02809535                0.05791889                0.04646988                0.00036239                0.01426743
               5.99935268                5.00023100                8.00610385                0.01000000               -0.03029502               -0.03025012                0.06442353                0.05323801                0.00447606                0.02040939
               6.99900723                5.00044456                8.00633592                0.01000000               -0.04007698               -0.04351025                0.08576895                0.05033054                0.02826089                0.04870727
               7.99855114                5.00064677                8.00703760                0.01000000               -0.03973982               -0.05945286                0.12243236                0.03020623                0.02800361                0.05923150
               8.99821243                5.00044650                8.00729522                0.01000001               -0.02210305               -0.08246389                0.10767156                0.00474622                0.00111928                0.04632084
               9.99810908                5.00012024                8.00740768                0.01030753               -0.01033474               -0.07523784                0.09513099                0.00163093               -0.00561902                0.02775920
               0.00176902                6.00152653                8.00845523                0.98895266               -0.03198652               -0.01641962                0.10905747               -0.00729348               -0.00402387                0.06056646
               1.00144916                6.00079089                8.00809420                0.01000000               -0.03849561               -0.02449940                0.10400549               -0.00155464               -0.03137469                0.03487606
               2.00099911                6.00014857                8.00717984                0.01000000               -0.04613081               -0.03494212                0.11002461                0.02417240               -0.05970369                0.01869431
               3.00052654                5.99991421                8.00638277                0.01248876               -0.03389399               -0.05065623                0.09341315                0.04044907               -0.02625869                0.00819253
               4.00032123                5.99971687                8.00606042                0.01617285               -0.02276732               -0.03924382                0.06731298                0.05479024               -0.00366986                0.01032821
               5.00007120                5.99978320                8.00598113                0.01000000               -0.03004985               -0.03219655                0.06452030                0.06003223                0.01150733                0.01129694
               5.99972024                5.99990407                8.00613894                0.01000000               -0.04062019               -0.03818585                0.07807570                0.03876822                0.04027375                0.04018078
               6.99925879                5.99991827                8.00680873                0.01000000               -0.04603307               -0.05533936                0.11322470                0.01880829                0.05785682                0.06983117
               7.99879957                5.99992462                8.00745877                0.01000000               -0.04253314               -0.07474394                0.12626055                0.00942633                0.03807623                0.08184883
               8.99840813                5.99980320                8.00773795                0.01000001               -0.02504280               -0.06338224                0.09741107                0.00278140                0.01369340                0.09470201
               9.99829872                5.99970679                8.00776996                0.01000001               -0.01094122               -0.03679033                0.08280311               -0.01121889               -0.00287619                0.09057501
               0.00249289                7.00120197                8.00832583                0.99807476               -0.03129140               -0.03212443                0.10686191               -0.00032556               -0.00289926                0.01735538
               1.00217998                7.00048260                8.00786360                1.00000000               -0.03057251               -0.03055547                0.10186097               -0.00002070               -0.00682413               -0.00363072
               2.00188144                6.99975603                8.00731931                0.01015722               -0.03971104               -0.03399283                0.09701280                0.01488294               -0.02449989                0.00366505
               3.00138576                6.99917642                8.00650051                0.01492896               -0.04085667               -0.05521591                0.10980717                0.06765736               -0.02599337               -0.00219426
               4.00106431                6.99928444                8.00605605                0.01000000               -0.03795980               -0.04213511                0.06813366                0.09886986                0.00801019                0.00694306
               5.00062656                6.99944600                8.00601834                0.01000000               -0.05356623               -0.03498682                0.08648493                0.05811372                0.04966122                0.02724227
               5.99999299                6.99946728                8.00660382                0.01000000               -0.06318599               -0.04189746                0.11166790                0.01749764                0.07593469                0.05159183
               6.99936284                6.99933778                8.00729959                0.01000000               -0.05691242               -0.05398068                0.12345262               -0.01142965                0.08671781                0.06992697
               7.99885474                6.99915189                8.00825666                0.01000000               -0.04384750               -0.07954082                0.13517843               -0.02442126                0.09684272                0.10642582
               8.99848589                6.99917885                8.00926769                0.01329402               -0.03886037               -0.08517165                0.15565521               -0.01292804                0.06383595                0.14281591
               9.99807753                6.99938444                8.00951989                0.01000000               -0.04083633               -0.05084598                0.15021626               -0.00974937                0.02708614                0.17233328
               0.00320125                8.00088404                8.00827623                0.99999999               -0.03065620               -0.03148384                0.10476438               -0.00036093               -0.00103067                0.02239250
               1.00289469                8.00017978                8.00771964                1.00000000               -0.02991499               -0.02996176                0.09979362               -0.00007603               -0.00048434                0.00240168
               2.00260295                7.99946872                8.00717270                0.06704901               -0.02717034               -0.02840872                0.09482415                0.00285813               -0.02214107               -0.01429867
               3.00235128                7.99880990                8.00618210                0.01000000               -0.02869492               -0.03457497               -0.02152440                0.05289517                0.01552432               -0.00968824
               4.00202905                7.99887416                8.00612741                0.01000000               -0.06503236               -0.02998416                0.10566421                0.06574434                0.05701623                0.01081864
               5.00105063                7.99908347                8.00641927                0.01000000               -0.09253169               -0.02995829                0.11638721                0.02370061                0.06995320                0.02521102
               6.00017842                7.99906612                8.00695629                0.01000000               -0.08525212               -0.03353166                0.11786392               -0.00819733                0.09322506                0.02588868
               6.99934559                7.99883865                8.00787586                0.01000000               -0.08541720               -0.03934954                0.13251784               -0.03834572                0.13081976                0.07169207
               7.99847007                7.99833381                8.00930266                0.01000000               -0.07142832               -0.06158795                0.14841151               -0.05730144                0.15737425                0.10437530
               8.99791702                7.99809977                8.01109745                0.01216736               -0.03887522               -0.11441226                0.17401991               -0.07275541                0.11769662                0.21182603
               9.99769257                7.99868987                8.01184488                0.01000001               -0.02244557               -0.13034012                0.15945967               -0.03877048                0.08447305                0.21401495
               0.00389420                9.00057229                8.00824378                0.99999998               -0.03004131               -0.03086551                0.10269421               -0.00037714                0.00231615                0.01857243
               1.00359379                8.99988337                8.00760671                0.99999996               -0.02928538               -0.02929711                0.09762006               -0.00005290                0.00131713                0.00257077
               2.00330849                8.99918785                8.00695045                0.99999999               -0.02777853               -0.02776202                0.09247826               -0.00007279               -0.00446755               -0.01055391
               3.00303822                8.99848493                8.00619926                0.01000000               -0.06014334               -0.02917004                0.08725834                0.04411818                0.03164402               -0.00425189
               4.00210563                8.99868476                8.00626886                0.01000000               -0.10648008               -0.00643943                0.10699787                0.02568170                0.06887169                0.00708413
               5.00090861                8.99884684                8.00641750                0.01000001               -0.10158853               -0.01177802                0.09884224               -0.00952914                0.07320000                0.00205176
               6.00007386                8.99879665                8.00691535                0.01000001               -0.07901834               -0.01394006                0.09388790               -0.01614367                0.10499744                0.00457488
               6.99932825                8.99855079                8.00845713                0.01536692               -0.08131296               -0.02211965                0.10990859               -0.02727570                0.13049270                0.04315168
               7.99844760                8.99792013                8.01015616                0.01000001               -0.13267618               -0.01869253                0.12863914               -0.04902299                0.23996412                0.06656604
               8.99667472                8.99689061                8.01358051                1.00000000               -0.11628380               -0.08808205                0.18764894               -0.11487854                0.16457034                0.12026022
               9.99612192                8.99677763                8.01369947                0.99396867               -0.05528047               -0.12196444                0.18001939               -0.08416517               -0.00055137                0.08758441
               0.00457156               10.00026673                8.00811631                1.00000000               -0.02934905               -0.03055583                0.10053572                0.00044625                0.01240225                0.01374021
               1.00427807                9.99959384                8.00746564                0.99999999               -0.02858115               -0.02895268                0.09540539                0.00076505                0.01537612                0.00101588
               2.00399993                9.99891348                8.00687858                1.00000000               -0.02706628               -0.02743776                0.09033412                0.00077692                0.01525995               -0.00326360
               3.00373674                9.99822650                8.00623137                0.01266343               -0.09095816               -0.02584297                0.08538485                0.06144734                0.04528993               -0.00390334
               4.00218077                9.99874537                8.00625270                0.01323531               -0.14942903                0.00606184                0.09895135                0.03858511                0.06042174                0.00181587
               5.00074816                9.99884791                8.00628263                0.01036663               -0.10145877                0.00010693                0.08148693               -0.01394808                0.06877391               -0.00108884
               6.00015160                9.99878732                8.00673937                0.01000001               -0.05357844               -0.00093227                0.07907948               -0.01480839                0.10291008                0.00023588
               6.99967659                9.99839626                8.00845616                0.01108617               -0.05009028               -0.01545263                0.08461293               -0.00653411                0.12214571                0.01633418
               7.99914979                9.99795995                8.01029676                0.01010101               -0.14573206                0.00398245                0.10081540               -0.03268736                0.24035498                0.02846408
               8.99676195                9.99633813                8.01367240                0.99396996               -0.14572870               -0.05524837                0.17982709               -0.07674632                0.16367541                0.00084135
               9.99623522                9.99625058                8.01379136                0.99744626               -0.05267343               -0.05270553                0.17219654                0.00257485                0.00069304               -0.00069189
               0.00097618                0.00121370                9.00710424                0.99886547               -0.02339574               -0.02350220                0.07769595                0.00030484               -0.00321182                0.00297030
               1.00074223                0.00086899                9.00704113                0.99896585               -0.02348967               -0.02370446                0.07835661                0.00010812               -0.00358252               -0.00106949
               2.00050639                0.00052847                9.00697196                0.01000001               -0.01978262               -0.02390830                0.07901920                0.03152103                0.00728267               -0.00151593
               3.00034657                0.00082070                9.00712701                0.01000001               -0.03169614               -0.00888173                0.09542301                0.00647704                0.02847425               -0.00612684
               3.99987247                0.00121757                9.00745996                0.01000000               -0.05037991               -0.01318683                0.09666173               -0.00404583                0.04077761               -0.00566644
               4.99933898                0.00160700                9.00805423                0.01000000               -0.05449505               -0.01795147                0.10310842                0.02029823                0.05595615               -0.00771256
               5.99878257                0.00237366                9.00898923                0.69274018               -0.04420644               -0.03097255                0.10740261                0.01241252                0.03043925               -0.00143626
               6.99845485                0.00288408                9.00950251                0.99910882               -0.03334426               -0.03231578                0.11117072                0.00068928                0.00871343               -0.00163659
               7.99811568                0.00337319                9.00999982                1.00000000               -0.03445364               -0.03344412                0.11473876                0.00065095                0.00806047               -0.00018385
               8.99776577                0.00384224                9.01050204                0.99999999               -0.03556683               -0.03453529                0.11840224                0.00061378                0.00649602                0.00100755
               9.99740434                0.00429115                9.01096975                1.00000000               -0.03614293               -0.03570735                0.12216649                0.00163757                0.00484340                0.00491986
               0.00132394                1.00097867                9.00712049                0.99991063               -0.02380158               -0.02369369                0.07900550                0.00020732                0.00098851                0.00323848
               1.00108592                1.00063195                9.00705847                0.01000001               -0.02390948               -0.02390381                0.07966661                0.00000859                0.00255195               -0.00266678
               2.00084575                1.00028939                9.00702727                0.01000000               -0.05095623                0.00208521                0.08032217                0.00735795                0.00896137               -0.00286810
               3.00006680                1.00073188                9.00709237                0.01000000               -0.07034451               -0.00425085                0.09097251                0.01340239                0.00735554                0.00137378
               3.99943886                1.00108570                9.00727241                0.01201865               -0.05514423               -0.01208404                0.07974359               -0.00004232                0.01214676                0.00430314
               4.99896391                1.00142749                9.00768688                0.01000000               -0.05853512               -0.01721002                0.08430853                0.02095351                0.02506145                0.00212493
               5.99826815                1.00206393                9.00843923                0.01000000               -0.05009685               -0.03359076                0.10086934                0.02266615                0.01523333                0.01029766
               6.99796197                1.00256092                9.00890841                1.00000000               -0.03125217               -0.03132507                0.10447538                0.00001635                0.00107681               -0.00215184
               7.99764311                1.00303875                9.00937921                0.99999998               -0.03245222               -0.03247688                0.10819090                0.00011420                0.00113977               -0.00005601
               8.99731293                1.00349688                9.00985294                0.99999996               -0.03356524               -0.03356529                0.11193728                0.00009343                0.00075571                0.00061066
               9.99697181                1.00393408                9.01031839                1.00000000               -0.03411240               -0.03474343                0.11568645                0.00101424                0.00039260                0.00609862
               0.00167378                2.00073982                9.00714278                0.01001930               -0.02420984               -0.02193538                0.08031547               -0.03138289                0.00137743                0.00904654
               1.00143169                2.00039091                9.00704402                0.01000000               -0.05600847                0.00277476                0.08097783               -0.01842731                0.00698528                0.00796597
               2.00055361                2.00057017                9.00705513                0.01000001               -0.08066875                0.02014558                0.08493387               -0.01211200               -0.00144963                0.01342584
               2.99981831                2.00073568                9.00705456                0.01000000               -0.06888006               -0.00190978                0.08962633                0.00176704               -0.00695984                0.00731398
               3.99917601                2.00097588                9.00716059                0.01225166               -0.05192502               -0.01504012                0.07664085                0.01830851               -0.00614082                0.01332051
               4.99877981                2.00126280                9.00741754                0.01000000               -0.05367778               -0.02031437                0.07643613                0.02703816                0.01425893                0.00275809
               5.99810246                2.00170184                9.00811233                0.01686980               -0.06497256               -0.03280827                0.09252685                0.05033032               -0.00416349                0.00594599
               6.99748036                2.00225758                9.00830238                0.01000000               -0.04602285               -0.04083476                0.09773234                0.04670353               -0.01761688                0.00364211
               7.99718200                2.00272365                9.00876128                0.02052871               -0.03040238               -0.03710088                0.10160852                0.01759676               -0.00566604                0.01923598
               8.99687231                2.00317093                9.00919494                0.99999999               -0.03158793               -0.03161872                0.10559438                0.00020815               -0.00414523               -0.00183832
               9.99655024                2.00359628                9.00968790                0.99863706               -0.03220694               -0.03286359                0.10933817                0.00101501               -0.00119585                0.00589968
               0.00139409                3.00053997                9.00727416                0.01043824               -0.05070693                0.01798402                0.07913543               -0.01360848                0.00421157                0.04552570
               1.00088702                3.00068744                9.00727241                0.01000000               -0.05676760                0.02670239                0.08150586               -0.03465394               -0.00549295                0.03811683
               2.00025874                3.00069230                9.00723738                0.01000000               -0.05952986                0.00447117                0.09009076               -0.01527470               -0.01731381                0.03129736
               2.99969643                3.00069369                9.00700479                0.01169937               -0.04904175               -0.01000955                0.07998539                0.00598645               -0.01862513                0.01961675
               3.99927791                3.00078489                9.00706626                0.01000001               -0.04588548               -0.02173428                0.07472403                0.03275024               -0.01939095                0.00998697
               4.99877872                3.00102120                9.00704311                0.01254278               -0.04989591               -0.02900673                0.08235900                0.04954888               -0.01698179                0.00572546
               5.99827999                3.00140777                9.00741861                0.01039603               -0.04522396               -0.03975280                0.08453375                0.07117591               -0.02084047                0.01010355
               6.99787424                3.00174422                9.00782744                0.01262634               -0.05991480               -0.04936228                0.09628925                0.08886293               -0.00157428                0.01134048
               7.99708169                3.00229673                9.00852840                0.01000001               -0.07148882               -0.04875011                0.09775615                0.08889824               -0.05086429                0.03826909
               8.99644446                3.00286451                9.00849717                0.01000000               -0.04701439               -0.05517947                0.09940081                0.07099677               -0.02969296                0.03702986
               9.99614140                3.00327681                9.00903061                0.08825963               -0.03030575               -0.09288988                0.10300732                0.07568813               -0.00159198                0.02563857
               0.00110666                4.00109950                9.00784963                0.01000003               -0.05203878                0.05775956                0.08876638               -0.01741287               -0.00355118                0.05584849
               1.00058628                4.00092496                9.00769765                0.01202191               -0.04323931                0.01418979                0.07528597               -0.01848199               -0.00730571                0.04334658
               2.00024188                4.00065960                9.00754916                0.01225365               -0.03704162               -0.00980221                0.07436035               -0.00078254               -0.02439196                0.03326677
               2.99984544                4.00053549                9.00715775                0.01000001               -0.03691872               -0.02141017                0.07824553                0.02358030               -0.03417089                0.02141909
               3.99950350                4.00054120                9.00682300                0.01331843               -0.03487638               -0.02763505                0.07268694                0.03976987               -0.02653526                0.00710962
               4.99914792                4.00068267                9.00674518                0.01180003               -0.03502749               -0.03526781                0.07498854                0.05871031               -0.01427876                0.01895563
               5.99880295                4.00090679                9.00690446                0.01430742               -0.03896300               -0.04579119                0.08390716                0.07642549                0.00084617                0.01726659
               6.99836866                4.00127033                9.00728207                0.01000000               -0.04816362               -0.04731189                0.09278897                0.08760141                0.01383472                0.02635704
               7.99783968                4.00174865                9.00786474                0.01000001               -0.05282426               -0.06970512                0.12733144                0.10439153                0.02736170                0.05355073
               8.99731217                4.00206734                9.00861888                0.01000000               -0.03001339               -0.09300732                0.12840850                0.08150352                0.00944920                0.05489266
               9.99723941                4.00173849                9.00879563                0.01376048               -0.00727578               -0.12483103                0.10092029                0.05431467               -0.01378332                0.03963933
               0.00139491                5.00169516                9.00842938                0.01391087               -0.04376249                0.03493157                0.08325519               -0.02198178               -0.00223071                0.09554252
               1.00095729                5.00097124                9.00812728                0.01000000               -0.03811759                0.00130736                0.07508218                0.00066189               -0.01969799                0.07489267
               2.00063256                5.00049625                9.00775557                0.01000000               -0.03354297               -0.02208666                0.07298101                0.01578229               -0.03670514                0.04564763
               3.00028643                5.00026548                9.00718521                0.01254542               -0.03532185               -0.03380768                0.08384692                0.04305824               -0.03675101                0.01911257
               3.99992613                5.00023219                9.00673199                0.01180155               -0.03495476               -0.03304358                0.07564111                0.05294211               -0.01547360                0.01453949
               4.99958733                5.00031585                9.00669261                0.01504833               -0.03526453               -0.03757326                0.07464249                0.06188343                0.00114660                0.02306472
               5.99922083                5.00049194                9.00682953                0.01000000               -0.04014655               -0.04169863                0.08386884                0.06831233                0.01417398                0.03441526
               6.99878440                5.00079799                9.00726053                0.01000000               -0.04241621               -0.05573837                0.10722378                0.05929092                0.04246879                0.07321206
               7.99837251                5.00090263                9.00822817                0.01000000               -0.03498546               -0.08045515                0.12262536                0.05452052                0.03193051                0.10511433
               8.99808469                5.00100436                9.00860267                0.01000001               -0.02435502               -0.10436451                0.12616993                0.05354967                0.00426354                0.08275801
               9.99788541                5.00078019                9.00872469                0.01221477               -0.01992845               -0.09415865                0.12414130                0.02858179               -0.00199529                0.06052849
               0.00211487                6.00179813                9.00953979                0.98532234               -0.03164499               -0.01093384                0.10782811               -0.00688148               -0.00404628                0.07612486
               1.00179842                6.00095111                9.00912943                0.01000000               -0.04257944               -0.01631558                0.10301373                0.00512551               -0.02187828                0.05452575
               2.00126328                6.00021786                9.00835525                0.01687527               -0.04138748               -0.03445133                0.08938227                0.03091585               -0.04598237                0.03332241
               3.00097067                5.99985934                9.00744712                0.01040054               -0.03756482               -0.03810550                0.09632566                0.05513709               -0.02992731                0.01666579
               4.00051198                5.99988033                9.00677939                0.01431086               -0.04224167               -0.04042496                0.08324465                0.07476101               -0.01268249                0.01941858
               5.00012583                5.99993120                9.00670550                0.01000000               -0.04124620               -0.03967680                0.08280260                0.07080964                0.01593903                0.03104965
               5.99968706                6.00007281                9.00697905                0.01000000               -0.04910223               -0.04550759                0.09349282                0.05520989                0.05866237                0.06501577
               6.99914379                6.00015556                9.00794527                0.01000000               -0.04816720               -0.06380951                0.11788258                0.03345009                0.07130291                0.08960312
               7.99872371                6.00013955                9.00863293                0.01000000               -0.03190924               -0.08071323                0.11859036                0.01350020                0.04140417                0.10023924
               8.99850560                5.99998005                9.00900377                0.01000000               -0.02321547               -0.10681384                0.13337672                0.00416490                0.02680216                0.14303444
               9.99825940                5.99985531                9.00909610                0.01000003               -0.02462007               -0.07959172                0.14336045                0.00343740                0.01851150                0.14271682
               0.00295133                7.00147648                9.00939123                0.99755618               -0.03112618               -0.03190246                0.10619455               -0.00026029               -0.00287947                0.01747668
               1.00264007                7.00064493                9.00887988                0.99999997               -0.03043396               -0.03039748                0.10137283               -0.00004713               -0.00676139               -0.00354772
               2.00234265                6.99980723                9.00828769                0.01000000               -0.04566811               -0.03484998                0.09662641                0.03851819               -0.01131059               -0.00576922
               3.00172671                6.99950337                9.00768284                0.01263315               -0.04965867               -0.06584273                0.09188079                0.09717374               -0.02537468               -0.04830710
               4.00134948                6.99942369                9.00681743                0.01000000               -0.04578336               -0.04027878                0.08920226                0.08835305               -0.00851010                0.04654330
               5.00081104                6.99952231                9.00694281                0.01000000               -0.06244035               -0.03742578                0.10419555                0.06423594                0.06562973                0.04857948
               6.00010067                6.99958179                9.00772428                0.01000000               -0.07121833               -0.04308708                0.11506701                0.03552585                0.08976071                0.06834856
               6.99938667                6.99952180                9.00853800                0.01000000               -0.06413231               -0.05576467                0.11658104                0.00277967                0.09816612                0.08748127
               7.99881803                6.99928836                9.00953780                0.01023068               -0.04672242               -0.08111003                0.13588885               -0.04453545                0.11823136                0.13465460
               8.99845223                6.99886809                9.01094602                0.01682814               -0.03071947               -0.09675177                0.13271286               -0.04090779                0.08324660                0.14921843
               9.99820364                6.99918835                9.01132481                0.01182985               -0.02485891               -0.06015241                0.12176510                0.00528082                0.04845871                0.15184750
               0.00377277                8.00116008                9.00932286                0.99999999               -0.03060419               -0.03138367                0.10451100               -0.00026973               -0.00108535                0.02245806
               1.00346673                8.00034316                9.00871624                1.00000000               -0.02987873               -0.02990736                0.09964378               -0.00002173               -0.00055256                0.00239134
               2.00317520                7.99952086                9.00811941                0.01000000               -0.00845269               -0.02837363                0.09478293               -0.00754664               -0.07282159               -0.01442862
               3.00329767                7.99854248                9.00606762                0.01000000               -0.04575451               -0.05382526                0.09758712                0.07735994               -0.01042659               -0.00354049
               4.00226011                7.99907475                9.00732051                0.01000001               -0.10226093               -0.03758626                0.11834022                0.10491665                0.10368926                0.03674521
               5.00125246                7.99918269                9.00755246                0.01000000               -0.09310093               -0.02499884                0.11305557                0.04886323                0.09819382                0.03173900
               6.00039809                7.99921107                9.00805611                0.01000000               -0.08798220               -0.02636035                0.11273358                0.01140979                0.11796437                0.03975040
               6.99949281                7.99904027                9.00920669                0.01027709               -0.09556864               -0.03919785                0.13164724               -0.05212413                0.15737741                0.07421809
               7.99848671                7.99851735                9.01084113                0.01000000               -0.08526759               -0.05621540                0.14746923               -0.08912076                0.17821600                0.10969389
               8.99778746                7.99804502                9.01248811                0.01250957               -0.03811111               -0.10116178                0.13004741               -0.08651934                0.10539167                0.20903770
               9.99772449                7.99865226                9.01290097                0.01000001               -0.00629681               -0.12345069                0.10958020               -0.04767769                0.03564833                0.18073887
               0.00457978                9.00084881                9.00927118                0.99999999               -0.03009291               -0.03087688                0.10277086               -0.00024478                0.00223091                0.01857534
               1.00427886                9.00004678                9.00858372                0.99999996               -0.02936936               -0.02937914                0.09790480                0.00002813                0.00123408                0.00257072
               2.00399240                8.99923975                9.00787754                0.99999999               -0.02794187               -0.02790480                0.09307503               -0.00000165               -0.00454162               -0.01057669
               3.00372002                8.99842687                9.00707745                0.01000000               -0.05923954               -0.01888067                0.08831673                0.03312644                0.04302331                0.04619057
               4.00280761                8.99867197                9.00732710                0.01000000               -0.10340171               -0.01680678                0.11607908                0.06158292                0.08376706                0.00238317
               5.00165198                8.99902233                9.00759713                0.01000001               -0.11681608               -0.01145624                0.10891113                0.04496791                0.12174857                0.00252612
               6.00047129                8.99905458                9.00817573                0.01000000               -0.13070327               -0.00957216                0.12312938               -0.00611312                0.15053900                0.02808707
               6.99903792                8.99873784                9.00950382                0.01000001               -0.12202106               -0.01973577                0.12098579               -0.06312045                0.17924902                0.03538809
               7.99803086                8.99816405                9.01122919                0.01000001               -0.12254997               -0.02225002                0.13679468               -0.09622827                0.29197604                0.03678052
               8.99658692                8.99684485                9.01545266                1.00000000               -0.09976387               -0.08756284                0.18678115               -0.12713144                0.20812587                0.14801965
               9.99603559                8.99671934                9.01549955                0.99305154               -0.05513327               -0.12306908                0.17999442               -0.09070918               -0.00055030                0.12847176
               0.00537193               10.00054255                9.00912423                1.00000000               -0.02955872               -0.03062603                0.10105314                0.00051772                0.01245246                0.01374055
               1.00507634                9.99975558                9.00842420                1.00000000               -0.02884284               -0.02912012                0.09625990                0.00075988                0.01542836                0.00104941
               2.00479507                9.99896277                9.00778801                1.00000000               -0.02741780               -0.02769864                0.09149365                0.00073226                0.01530776               -0.00322284
               3.00452799                9.99816487                9.00709182                0.01425190               -0.09493881               -0.02619978                0.08673178                0.06958941                0.05246619               -0.00394377
               4.00289630                9.99873862                9.00720668                0.01393649               -0.13793945                0.00666469                0.08492354                0.04830385                0.08846823               -0.00456410
               5.00176920                9.99895356                9.00739454                0.01229661               -0.11679907               -0.00687697                0.10628022                0.02577218                0.11602542               -0.00263308
               6.00056032                9.99901963                9.00802391                0.01000003               -0.13241332               -0.00349548                0.12622898               -0.00649721                0.14762140                0.01451887
               6.99912093                9.99864555                9.00928331                0.01417182               -0.10525900               -0.00922851                0.10866393               -0.03906283                0.17988569                0.01247079
               7.99845514                9.99807234                9.01106968                0.01000000               -0.12156923               -0.00917096                0.14273343               -0.07516243                0.28828882                0.00160663
               8.99668955                9.99629376                9.01547079                0.99305279               -0.11469005               -0.05510919                0.17984957               -0.08381023                0.21855372                0.00084331
               9.99616134                9.99619088                9.01551767                0.99757742               -0.05282120               -0.05284549                0.17306748                0.00228725                0.00069108               -0.00069458
               0.00100389                0.00122059               10.00788249                0.99917542               -0.02346343               -0.02353569                0.07795752                0.00024555               -0.00320737                0.00297294
               1.00076926                0.00083441               10.00782555                0.99941495               -0.02354519               -0.02371175                0.07852886                0.00009327               -0.00357739               -0.00106353
               2.00053299                0.00045147               10.00776257                0.01202203               -0.01617786               -0.02388844                0.07910311                0.03589496                0.01537501               -0.00151778
               3.00044570                0.00078805               10.00808553                0.01000001               -0.03471422                0.00077710                0.08029505                0.00932029                0.03528523               -0.01016671
               3.99983870                0.00141129               10.00838148                0.01000000               -0.06583854               -0.00920772                0.09416354                0.00569246                0.04261502               -0.00419485
               4.99912893                0.00196951               10.00906814                0.01000001               -0.07469421               -0.01299413                0.10256600                0.02314942                0.06208208               -0.00734052
               5.99834482                0.00294635               10.01006173                0.68371142               -0.05562103               -0.03128800                0.10728458                0.02089486                0.03159211               -0.00107028
               6.99801651                0.00349504               10.01061339                0.99925602               -0.03338378               -0.03234823                0.11105921                0.00057967                0.00858929               -0.00168506
               7.99767715                0.00402435               10.01114703                1.00000000               -0.03448415               -0.03343964                0.11470845                0.00057852                0.00794518               -0.00020719
               8.99732683                0.00453397               10.01168539                1.00000000               -0.03553325               -0.03448572                0.11822912                0.00056830                0.00647939                0.00100481
               9.99696648                0.00502437               10.01218972                0.99836965               -0.03603469               -0.03556682                0.12173458                0.00153772                0.00477340                0.00486797
               0.00139253                1.00098523               10.00791042                1.00000000               -0.02377775               -0.02368364                0.07897002                0.00016097                0.00098555                0.00324097
               1.00115475                1.00059729               10.00785456                0.01000000               -0.02387029               -0.02386664                0.07954249                0.00000754                0.00254701               -0.00265803
               2.00091512                1.00021259               10.00782943                0.01000000               -0.05478774                0.00806716                0.08010905                0.00918584                0.01295100               -0.00000464
               3.00005899                1.00079582               10.00798054                0.01000000               -0.08051124                0.00445567                0.08305670                0.01841029                0.01105485               -0.00047981
               3.99930490                1.00131922               10.00813422                0.01061431               -0.07330487               -0.00862314                0.08990647                0.00911918                0.01510799                0.00235162
               4.99859290                1.00183957               10.00860732                0.01000000               -0.07569445               -0.01617456                0.09618666                0.03028902                0.02838004                0.00216919
               5.99779101                1.00263347               10.00944800                0.01000000               -0.05547947               -0.03132006                0.10102116                0.03136842                0.01775252               -0.00332881
               6.99748331                1.00317156               10.00995434                1.00000000               -0.03137715               -0.03139236                0.10470664                0.00005908                0.00101761               -0.00228857
               7.99716346                1.00368995               10.01046243                0.99999998               -0.03254045               -0.03251710                0.10841587                0.00006419                0.00110743               -0.00009649
               8.99683250                1.00418912               10.01097192                0.99999996               -0.03360026               -0.03356969                0.11198347                0.00008110                0.00070036                0.00062269
               9.99649146                1.00466870               10.01147302                0.99999997               -0.03410399               -0.03467893                0.11553267                0.00097382                0.00021353                0.00606405
               0.00178299                2.00074691               10.00794437                0.01000000               -0.02409372               -0.00902612                0.07998250               -0.03714407                0.00137437                0.02252521
               1.00154205                2.00035708               10.00785181                0.01000000               -0.06324042                0.01089355                0.08055890               -0.02530010                0.00983735                0.01574901
               2.00051818                2.00061281               10.00792613                0.01000001               -0.09173862                0.02789842                0.08579860               -0.00918502                0.00130480                0.01631950
               2.99970728                2.00087716               10.00792201                0.01000000               -0.07704237                0.00306889                0.08657679                0.00893271               -0.01068300                0.00931544
               3.99897733                2.00123883               10.00792537                0.01121316               -0.06434109               -0.01191241                0.08312147                0.02477719               -0.00482306                0.01165931
               4.99842046                2.00164602               10.00822488                0.01000001               -0.06685643               -0.02037283                0.08644246                0.04553694                0.00504192                0.00838152
               5.99764020                2.00231995               10.00879135                0.01531222               -0.07296241               -0.02439140                0.07638252                0.05450013                0.00643922               -0.00146143
               6.99696121                2.00286719               10.00928366                0.01000000               -0.04896671               -0.03785495                0.09838303                0.04320982               -0.00429688                0.00191905
               7.99666087                2.00337401               10.00978031                0.01894734               -0.03057560               -0.03388584                0.10211858                0.01271502               -0.00551692                0.00406067
               8.99634970                2.00386258               10.01025140                0.99999999               -0.03170448               -0.03171415                0.10585287                0.00015029               -0.00403668               -0.00168589
               9.99602678                2.00433079               10.01078054                0.99863434               -0.03229165               -0.03291095                0.10949734                0.00097294               -0.00125180                0.00597693
               0.00142932                3.00080471               10.00835687                0.01130039               -0.06464751                0.01858856                0.09757692               -0.02610065               -0.00474739                0.05405249
               1.00078284                3.00081516               10.00824731                0.01000000               -0.06089917                0.03092816                0.09192105               -0.04281867               -0.01399501                0.04334854
               2.00021134                3.00077056               10.00808053                0.01000000               -0.05856058                0.00689330                0.08508475               -0.00969277               -0.02150086                0.02693368
               2.99961163                3.00085719               10.00787287                0.01053184               -0.05898800               -0.01156642                0.08891493                0.02438534               -0.02339262                0.01820343
               3.99903158                3.00108097               10.00779386                0.01000001               -0.05945580               -0.02198397                0.08175665                0.05125391               -0.02204368                0.01711241
               4.99842252                3.00143212               10.00789411                0.01078729               -0.06858685               -0.02856518                0.08961208                0.07903332               -0.01504634                0.01177289
               5.99765984                3.00214564               10.00818387                0.01000000               -0.05645360               -0.04382284                0.08544826                0.09161368               -0.01384786                0.01998927
               6.99729345                3.00241446               10.00871083                0.01059327               -0.06187314               -0.04923391                0.08926934                0.09448779               -0.00707284                0.01913195
               7.99642238                3.00301223               10.00918063                0.01000000               -0.07073642               -0.04445427                0.09102831                0.09436605               -0.02751941                0.05671269
               8.99587872                3.00355483               10.00949357                0.01000000               -0.04239439               -0.07088728                0.09982440                0.08466601               -0.01422744                0.05776344
               9.99557449                3.00401048               10.01006301                0.13091267               -0.03042280               -0.10102689                0.10342928                0.09344651               -0.00152373                0.02353031
               0.00124006                4.00111868               10.00880737                0.01000003               -0.05202360                0.04731700                0.08935564                0.00058343               -0.01078275                0.05672084
               1.00071983                4.00097564               10.00855727                0.01061752               -0.04788863                0.01117520                0.08794399               -0.00189394               -0.01661283                0.04414051
               2.00028229                4.00075068               10.00826355                0.01121509               -0.04176275               -0.01044133                0.08007805                0.00940700               -0.02862596                0.03439136
               2.99988457                4.00064583               10.00793753                0.01000001               -0.04274012               -0.02873805                0.08467690                0.04352316               -0.03092389                0.02193922
               3.99942749                4.00079915               10.00765764                0.01150683               -0.04740622               -0.03386219                0.09027576                0.07089662               -0.02766902                0.01526099
               4.99893645                4.00107472               10.00758562                0.01000000               -0.04686773               -0.04206006                0.09525745                0.08801733               -0.01175744                0.02281554
               5.99849014                4.00144349               10.00787645                0.01233572               -0.04760393               -0.06504660                0.10573918                0.11080983                0.00267149                0.03699820
               6.99798437                4.00188251               10.00832951                0.01000001               -0.05411595               -0.05844257                0.11147471                0.11029703                0.02956583                0.04956191
               7.99740782                4.00248492               10.00941285                0.01655220               -0.04698018               -0.05156874                0.12143153                0.09937813                0.01996401                0.10179868
               8.99704477                4.00244483               10.00996470                0.01000000               -0.02117050               -0.09190320                0.10399502                0.08739028               -0.01753774                0.06342376
               9.99698441                4.00231026               10.00972325                0.01392021               -0.00603609               -0.14900694                0.09751868                0.09907485               -0.04615385                0.04664910
               0.00172708                5.00175105               10.00929984                0.01000000               -0.06141102                0.04842508                0.10513475               -0.00779989               -0.00353176                0.10371011
               1.00111297                5.00103867               10.00896498                0.01000000               -0.04988975                0.00765845                0.09628500                0.01434937               -0.02030069                0.09283612
               2.00072928                5.00056173               10.00854189                0.01000001               -0.03396714               -0.02338910                0.08532673                0.03616240               -0.03431911                0.04375734
               3.00043363                5.00028243               10.00803044                0.01078986               -0.03543319               -0.04479634                0.08926639                0.07306418               -0.03641983                0.02491893
               4.00002062                5.00040372               10.00757424                0.01000000               -0.04475518               -0.03896749                0.09572650                0.08450976               -0.01750250                0.02128169
               4.99953852                5.00059091               10.00753800                0.01310937               -0.04761900               -0.04603585                0.09899108                0.08474250                0.00394752                0.03222953
               5.99906824                5.00084471               10.00778122                0.01000000               -0.05402835               -0.05669296                0.10491113                0.09091323                0.03146846                0.04716294
               6.99845796                5.00124561               10.00848039                0.01000001               -0.06103108               -0.07248249                0.14776625                0.10913753                0.06050612                0.09897368
               7.99784762                5.00198086               10.00949011                0.01000000               -0.03283842               -0.09325726                0.11130646                0.08162553                0.03862358                0.10317670
               8.99780119                5.00171677               10.00981862                0.01000000               -0.00112388               -0.10621467                0.09394020                0.02428621               -0.00196654                0.08625688
               9.99782514                5.00103035               10.00989050                0.01343054                0.00239540               -0.11746255                0.11653878                0.00635159                0.00089097                0.07873496
               0.00250883                6.00208719               10.01061179                0.98161028               -0.03126945                0.00086918                0.10649019               -0.00929134               -0.00403272                0.08694030
               1.00219613                6.00112881               10.01015448                0.01000000               -0.03735277               -0.01069150                0.10195842                0.01155166               -0.04015443                0.06463895
               2.00176177                6.00028290               10.00896748                0.01531757               -0.03461356               -0.03426237                0.07127421                0.03720424               -0.04967904                0.04234695
               3.00150386                5.99974990               10.00830928                0.01000000               -0.04762843               -0.03463256                0.09000848                0.08259023               -0.01995497                0.01148736
               4.00080920                6.00001980               10.00772531                0.01233908               -0.06567744               -0.03647713                0.10363188                0.10088064               -0.00352852                0.02435245
               5.00019031                6.00015400               10.00763718                0.01000000               -0.05777482               -0.05101425                0.10286083                0.08918052                0.02540621                0.05118293
               5.99965371                6.00030963               10.00800880                0.01000000               -0.05796716               -0.05437606                0.11769638                0.07018156                0.06946699                0.07839265
               6.99903097                6.00043286               10.00916638                0.01000000               -0.05422715               -0.07098099                0.12734851                0.06824170                0.06825607                0.12747819
               7.99856916                6.00061978               10.00983058                0.01000000               -0.02749825               -0.11720415                0.11594571                0.04257025                0.05703319                0.14304282
               8.99848101                6.00032054               10.01040549                0.01000000               -0.00424408               -0.15189425                0.13441236               -0.00480666                0.04714893                0.15280280
               9.99848428                5.99996100               10.01063716                0.01163010                0.00032775               -0.12069170                0.13860321               -0.01275419                0.03765616                0.13712414
               0.00345801                7.00176843               10.01044973                0.99689682               -0.03097195               -0.03169676                0.10551910               -0.00016119               -0.00293695                0.01751630
               1.00314829                7.00082484               10.00989106                1.00000000               -0.03028679               -0.03025199                0.10087728               -0.00004986               -0.00675479               -0.00351414
               2.00285227                6.99987648               10.00925184                0.01000000               -0.03998801               -0.03463008                0.09623313                0.03991542               -0.02435723                0.01259568
               3.00234853                6.99958978               10.00833813                0.01059996               -0.06090687               -0.02027169                0.07538429                0.06177440               -0.01547509               -0.01462800
               4.00163414                6.99967418               10.00784010                0.01000001               -0.06581136               -0.04602018                0.10923014                0.08948178                0.02790054                0.04346221
               5.00103230                6.99957063               10.00810225                0.01000001               -0.07205631               -0.05450367                0.14056521                0.10858007                0.08906253                0.06779215
               6.00019301                6.99975719               10.00890516                0.01000000               -0.07598280               -0.04499700                0.12314999                0.07425636                0.12774028                0.06569329
               6.99951265                6.99982599               10.00963121                0.01000000               -0.06908309               -0.05378328                0.11270776                0.02783666                0.12593540                0.10869336
               7.99881135                6.99963678               10.01097444                0.01084537               -0.05744103               -0.08917381                0.14027911               -0.04816457                0.12778443                0.15786881
               8.99836383                6.99867888               10.01192195                0.01000001               -0.02611094               -0.12733289                0.11443935               -0.07681254                0.06871054                0.20259721
               9.99828913                6.99861651               10.01195519                0.01000002               -0.00746967               -0.09155551                0.10289393               -0.05146129                0.02633754                0.19862387
               0.00439279                8.00145325               10.01036645                0.99999999               -0.03057077               -0.03129974                0.10423942               -0.00016120               -0.00113896                0.02243890
               1.00408709                8.00052377               10.00971252                1.00000000               -0.02988288               -0.02990067                0.09962001                0.00004354               -0.00057889                0.00237292
               2.00379514                7.99959030               10.00906836                0.01000000               -0.05727171               -0.02843762                0.09499055                0.03461774               -0.01463497               -0.01443483
               3.00294165                7.99934447               10.00813384                0.01000000               -0.05885713               -0.06026231                0.18851006                0.08048467                0.01704364               -0.02501980
               4.00261799                7.99909940               10.00849421                0.01656671               -0.03313715               -0.04139652                0.09563526                0.06733063                0.10208935                0.02775116
               5.00227891                7.99906393               10.00868039                0.01000000               -0.08672575               -0.02576749                0.10172087                0.08864768                0.10977764                0.03565244
               6.00088348                7.99940969               10.00921096                0.01000000               -0.12853965               -0.01833000                0.11042476                0.06391046                0.15493809                0.04655162
               6.99970811                7.99935720               10.01050881                0.01089716               -0.10652507               -0.03220293                0.13098181               -0.01131367                0.18269270                0.09780358
               7.99875298                7.99883630               10.01225204                0.01000000               -0.08715475               -0.06047923                0.13783307               -0.10281927                0.18602950                0.12681821
               8.99796502                7.99777388               10.01369840                0.01283351               -0.05865878               -0.09052856                0.15986560               -0.12516772                0.11012110                0.27004372
               9.99757980                7.99812989               10.01403648                0.01000001               -0.03852194               -0.09430717                0.18652057               -0.07799951                0.03049622                0.25487797
               0.00531375                9.00114243               10.01029920                1.00000000               -0.03016368               -0.03088976                0.10281324               -0.00016750                0.00221320                0.01854789
               1.00501211                9.00022682               10.00956481                1.00000000               -0.02949122               -0.02949494                0.09829886                0.00005327                0.00122486                0.00254972
               2.00472393                8.99930773               10.00881195                0.99999999               -0.02814953               -0.02811052                0.09379804                0.00005218               -0.00454747               -0.01058079
               3.00444912                8.99838454               10.00796559                0.01000000               -0.07313178               -0.06127935                0.08929672                0.09821305                0.06408766               -0.01203755
               4.00326129                8.99884625               10.00859045                0.01000000               -0.09770810               -0.01022329                0.09588421                0.08500817                0.08479090               -0.01343831
               5.00249496                8.99905528               10.00859573                0.01000000               -0.10416709                0.00682442                0.07855456                0.02584339                0.11268515                0.00025980
               6.00117795                8.99939059               10.00937794                0.01000000               -0.13175979               -0.00141813                0.11751950                0.02292152                0.17312110                0.03902116
               6.99985976                8.99918193               10.01087684                0.01000001               -0.14198351               -0.01352539                0.13817362               -0.02214889                0.23215221                0.04788044
               7.99833828                8.99842719               10.01289206                0.01000001               -0.16464444               -0.02626002                0.16277127               -0.11692555                0.35208192                0.07155006
               8.99656688                8.99686831               10.01731614                0.99999997               -0.11605819               -0.07275848                0.18592099               -0.14884038                0.22135469                0.18393834
               9.99601711                8.99673037               10.01729936                0.99999999               -0.05497618               -0.09647209                0.17997383               -0.08502024               -0.00056064                0.16492115
               0.00622067               10.00083545               10.01013737                1.00000000               -0.02978119               -0.03069800                0.10157701                0.00053322                0.01248244                0.01374183
               1.00592286                9.99993387               10.00939084                0.99889591               -0.02911015               -0.02929534                0.09708656                0.00070592                0.01548069                0.00105613
               2.00563847                9.99902809               10.00870845                0.99999999               -0.02777332               -0.02796422                0.09262162                0.00070468                0.01536032               -0.00320915
               3.00536739                9.99811888               10.00796600                0.01548724               -0.09955266               -0.02656529                0.08813221                0.08516898                0.04833240               -0.00396340
               4.00364741                9.99889493               10.00795117                0.01411853               -0.15579761                0.00486806                0.08059949                0.09268890                0.09257052               -0.04168793
               5.00225144                9.99920042               10.00840823                0.01353366               -0.12160766                0.01451371                0.09927150               -0.00003235                0.11666576                0.00831503
               6.00121526                9.99938133               10.00926395                0.01172936               -0.10114526               -0.00092590                0.11566241               -0.00195521                0.16901617                0.02793556
               7.00022853                9.99908669               10.01062944                0.01000001               -0.12435892               -0.00952375                0.13976587               -0.01663472                0.26631725                0.01852893
               7.99872808                9.99831110               10.01315143                0.01000003               -0.17717484               -0.01160935                0.19449488               -0.09941864                0.36064176                0.05820594
               8.99668504                9.99631871               10.01726939                0.99999999               -0.12863989               -0.05495998                0.17987622               -0.09371633                0.20757106                0.00083431
               9.99615528                9.99620045               10.01725271                0.99758644               -0.05297531               -0.05299163                0.17392998                0.00199085                0.00070181               -0.00068492
               0.00102592                0.00121730               11.00866339                0.99948654               -0.02353220               -0.02356887                0.07822176                0.00018551               -0.00320402                0.00296353
               1.00079060                0.00078970               11.00861171                0.99986440               -0.02360084               -0.02371791                0.07870306                0.00007954               -0.00357366               -0.00106133
               2.00055391                0.00036439               11.00855402                0.01000002               -0.01786199               -0.02386577                0.07919130                0.04436897                0.00790739               -0.00151299
               3.00043336                0.00082734               11.00873292                0.01000000               -0.04058741                0.00584646                0.08285084                0.01816340                0.03860337                0.00594759
               3.99974216                0.00162819               11.00934323                0.01000000               -0.07664987               -0.00393436                0.09050013                0.01493165                0.05895631               -0.00673987
               4.99890037                0.00238182               11.01010555                0.01000001               -0.09365013               -0.00676876                0.11024692                0.02931327                0.05967658               -0.00588215
               5.99786916                0.00357972               11.01113493                0.67544130               -0.06795119               -0.03119750                0.10713431                0.03003695                0.03148196               -0.00114810
               6.99754134                0.00416849               11.01172369                0.99935607               -0.03332866               -0.03236098                0.11096587                0.00058158                0.00857882               -0.00175059
               7.99720258                0.00473823               11.01229399                0.99999999               -0.03443347               -0.03346996                0.11461393                0.00054861                0.00783524               -0.00023811
               8.99685267                0.00528928               11.01286662                0.99538292               -0.03557098               -0.03459503                0.11840073                0.00055049                0.00626299                0.00114856
               9.99649116                0.00582190               11.01340444                0.99994380               -0.03615081               -0.03573572                0.12217972                0.00153299                0.00443871                0.00524121
               0.00145537                1.00098161               11.00869989                1.00000000               -0.02375228               -0.02367134                0.07892812                0.00011541                0.00098554                0.00323339
               1.00121785                1.00055252               11.00864932                0.01000000               -0.02382974               -0.02382799                0.07941505                0.00001003                0.00254466               -0.00265696
               2.00097878                1.00012573               11.00862946                0.01000000               -0.06173767                0.01405343                0.07989577                0.01444394                0.01132728                0.00181339
               2.99998310                1.00088580               11.00875350                0.01000000               -0.09322726                0.01011643                0.08303603                0.03175789                0.01135381                0.01234999
               3.99911423                1.00158884               11.00907054                0.01000000               -0.08826826               -0.00393783                0.09202204                0.02314286                0.01978360                0.00186941
               4.99821773                1.00231413               11.00961062                0.01000000               -0.09190205               -0.01190846                0.10317421                0.03966006                0.02598948                0.00269193
               5.99727619                1.00326774               11.01045966                0.01000000               -0.06249174               -0.03214869                0.10110376                0.04170216                0.01626370               -0.00831012
               6.99696790                1.00384488               11.01100254                1.00000000               -0.03142595               -0.03145097                0.10489581               -0.00000428                0.00100247               -0.00233138
               7.99664767                1.00440353               11.01154753                0.99999998               -0.03257764               -0.03257834                0.10858310               -0.00001068                0.00107253               -0.00013532
               8.99631635                1.00494333               11.01209261                0.99999996               -0.03369013               -0.03368574                0.11230340               -0.00001578                0.00060697                0.00072619
               9.99597387                1.00546454               11.01262905                0.99999999               -0.03424734               -0.03480334                0.11601252                0.00091056                0.00005973                0.00630554
               0.00188640                2.00074387               11.00874243                0.01145751               -0.02397233               -0.01117945                0.07963588               -0.03992766                0.00137378                0.02562821
               1.00164668                2.00031314               11.00865520                0.01000000               -0.06884478                0.01482147                0.08013336               -0.02164003                0.01164892                0.01832506
               2.00050951                2.00064546               11.00877111                0.01000001               -0.10206352                0.03839095                0.08397688               -0.00295459                0.00450733                0.01878055
               2.99960541                2.00102967               11.00878610                0.01000000               -0.08664107                0.00782179                0.08594649                0.02180577               -0.01006897                0.01728293
               3.99877669                2.00154943               11.00882302                0.01042676               -0.07953708               -0.00969850                0.09294604                0.04077706               -0.00571738                0.01355433
               4.99801467                2.00214365               11.00914639                0.01000001               -0.08021147               -0.02091089                0.09444021                0.06286794               -0.00068274                0.01262657
               5.99717246                2.00293674               11.00963998                0.01412765               -0.08046027               -0.02726427                0.08949451                0.06529654                0.00866181               -0.00620516
               6.99640546                2.00353947               11.01027004                0.01000001               -0.05342682               -0.03819317                0.09886086                0.04590265                0.00076527                0.00076374
               7.99610392                2.00408667               11.01080365                0.02144345               -0.03070556               -0.03025446                0.10254728                0.00884879               -0.00544788                0.01436126
               8.99579135                2.00461556               11.01131200                0.99999999               -0.03184877               -0.03184226                0.10622622                0.00001714               -0.00397419               -0.00159903
               9.99546695                2.00512583               11.01187784                1.00000000               -0.03244060               -0.03299227                0.10988685                0.00093576               -0.00123218                0.00606696
               0.00151828                3.00075802               11.00922570                0.01000000               -0.06348135                0.02735379                0.08172738               -0.01566624               -0.00060616                0.04093203
               1.00088346                3.00084895               11.00911084                0.01000000               -0.06575563                0.03884798                0.08379931               -0.03566537               -0.00902619                0.04277505
               2.00020316                3.00089355               11.00893907                0.01000000               -0.06841107                0.01203015                0.08713965               -0.00135621               -0.01972211                0.03055304
               2.99951524                3.00104224               11.00878309                0.01000000               -0.06936866               -0.01064825                0.09292568                0.03643932               -0.02329863                0.02192975
               3.99881579                3.00139487               11.00870140                0.01000001               -0.07137316               -0.02416943                0.09537393                0.06895088               -0.01934818                0.02185746
               4.99808778                3.00189592               11.00883535                0.01000000               -0.08147409               -0.03242828                0.09817591                0.10034370               -0.01196688                0.02143349
               5.99718631                3.00272246               11.00912758                0.01000000               -0.06758763               -0.04436702                0.09767112                0.10625652               -0.00701514                0.02687218
               6.99673603                3.00308101               11.00961282                0.01000000               -0.07188768               -0.05237324                0.09240025                0.10470490                0.00746348                0.02835625
               7.99574856                3.00379845               11.01034897                0.01728636               -0.07292505               -0.03057632                0.09356626                0.08626586               -0.01898609                0.04731243
               8.99527753                3.00430648               11.01049366                0.01000001               -0.03882541               -0.08023954                0.10024034                0.09329530               -0.02442617                0.04755074
               9.99497205                3.00480469               11.01109920                0.14044260               -0.03054777               -0.11409250                0.10388387                0.11643605               -0.00152976                0.02587199
               0.00139121                4.00129095               11.00963674                0.01000003               -0.05933710                0.06034594                0.09698020                0.00370248               -0.00559429                0.08839687
               1.00079784                4.00109010               11.00945653                0.01000000               -0.05510571                0.01908972                0.09635145                0.00104384               -0.01931336                0.06063282
               2.00028910                4.00088606               11.00915072                0.01042864               -0.04824836               -0.01130428                0.09185203                0.02020762               -0.03108945                0.03871624
               2.99983287                4.00081670               11.00885129                0.01000001               -0.04935354               -0.03250674                0.09488895                0.05952122               -0.03263889                0.02705932
               3.99930203                4.00106604               11.00862852                0.01000001               -0.05694577               -0.04023602                0.10349596                0.09655531               -0.02443852                0.02416412
               4.99869396                4.00149509               11.00865033                0.01000000               -0.05947688               -0.04935179                0.11167770                0.11774424               -0.00629153                0.03458446
               5.99811249                4.00204940               11.00901924                0.01051946               -0.06351939               -0.07098039                0.11340033                0.13592076                0.00764782                0.04689831
               6.99742357                4.00249200               11.00951157                0.01000001               -0.07543598               -0.05702097                0.13347732                0.14876759                0.01551761                0.09841533
               7.99660377                4.00347514               11.01029337                0.01529850               -0.03862815               -0.06250077                0.08389572                0.12884837                0.00652777                0.07888794
               8.99665101                4.00301077               11.01069878                0.01000000                0.00977330               -0.10088801                0.06591584                0.08681421               -0.01326130                0.06251710
               9.99679924                4.00284398               11.01074601                0.01381758                0.01482284               -0.16818603                0.10024880                0.12269210               -0.01902315                0.05181189
               0.00199402                5.00196494               11.01053208                0.01000002               -0.06847891                0.05480559                0.11820144                0.00446186               -0.02158286                0.12598544
               1.00130923                5.00123075               11.01005298                0.01000000               -0.05566485                0.01138534                0.10941453                0.02721611               -0.03462668                0.10393216
               2.00088072                5.00066747               11.00946210                0.01000001               -0.03917695               -0.02656031                0.09628800                0.04935755               -0.03899054                0.04271879
               3.00052569                5.00039210               11.00897054                0.01000000               -0.04061021               -0.05176546                0.09749240                0.09517749               -0.03274313                0.03242870
               4.00006851                5.00059015               11.00864652                0.01000000               -0.05331919               -0.04822623                0.11229551                0.11641325               -0.01113243                0.02983069
               4.99945930                5.00090888               11.00867243                0.01124273               -0.05803524               -0.05522367                0.12000787                0.11846042                0.00888997                0.04090427
               5.99890781                5.00130285               11.00892775                0.01000001               -0.05868319               -0.07663376                0.12531779                0.12332088                0.05613748                0.06321678
               6.99828564                5.00194059               11.01021586                0.01710466               -0.05505270               -0.04688440                0.13706823                0.12545719                0.04310904                0.12555594
               7.99780675                5.00254843               11.01045430                0.01000000               -0.03203344               -0.09795350                0.09185199                0.11848146                0.01085105                0.06982355
               8.99764497                5.00228872               11.01048147                0.01000000               -0.00236432               -0.10389950                0.08098332                0.04417660                0.02120270                0.10422326
               9.99775947                5.00144097               11.01105546                0.01414835                0.01144980               -0.11554372                0.10709336                0.00272216                0.05007781                0.09845871
               0.00294883                6.00238706               11.01166960                0.97791027               -0.03091958                0.00536044                0.10513634               -0.00612908               -0.00397730                0.07880690
               1.00263964                6.00131781               11.01116860                0.01000000               -0.04169698               -0.01070706                0.10090924                0.01807145               -0.04795966                0.06147198
               2.00211489                6.00035486               11.00978074                0.01413289               -0.04129500               -0.03546015                0.08791659                0.04956493               -0.06201242                0.04645772
               3.00181374                5.99978139               11.00924729                0.01000000               -0.05006881               -0.05029250                0.09603635                0.10249607               -0.01683846                0.01562768
               4.00111352                6.00010152               11.00885202                0.01052276               -0.07316327               -0.05330570                0.11272235                0.13420380                0.00194910                0.02908703
               5.00035047                6.00039061               11.00876271                0.01000001               -0.07831616               -0.05369678                0.12349103                0.12415676                0.04011180                0.07405724
               5.99954719                6.00051673               11.00933298                0.01000001               -0.08316693               -0.08046779                0.16004679                0.16912055                0.09045250                0.09896686
               6.99868713                6.00155431               11.01049224                0.01000000               -0.04609604               -0.07936768                0.11076542                0.12749046                0.08442396                0.09983418
               7.99862527                6.00151607               11.01095184                0.01000000               -0.00225684               -0.12620783                0.08878185                0.03273422                0.06799272                0.15527340
               8.99864200                6.00093278               11.01169201                0.01000000               -0.00380512               -0.13308024                0.12280846                0.01088744                0.05944355                0.18856420
               9.99854917                6.00053311               11.01186816                0.01318070               -0.00928256               -0.08397301                0.12008376                0.00525436                0.02858637                0.16411304
               0.00400993                7.00207215               11.01150161                1.00000000               -0.03070734               -0.03138366                0.10450538               -0.00010306               -0.00310645                0.01761654
               1.00370286                7.00101661               11.01089742                1.00000000               -0.03007490               -0.03004723                0.10020450               -0.00001410               -0.00687382               -0.00346457
               2.00340843                6.99995826               11.01021235                0.01000001               -0.04369557               -0.03413980                0.09594247                0.03579623               -0.02759810                0.02046947
               3.00282895                6.99938625               11.00919052                0.01000000               -0.06325317               -0.06833860                0.09620550                0.09823661               -0.01353095                0.02104652
               4.00214337                6.99952404               11.00900203                0.01000001               -0.06508594               -0.06110440                0.12952874                0.15452605                0.07783831                0.01846669
               5.00152723                6.99983494               11.00975411                0.01711126               -0.05084259               -0.04941773                0.13205184                0.12751198                0.11410807                0.05101530
               6.00112652                6.99969349               11.01018728                0.01000000               -0.08455618               -0.04236988                0.10788849                0.13197657                0.10303635                0.07923822
               6.99983610                7.00035324               11.01079216                0.01000000               -0.10217729               -0.09018035                0.11834440                0.08746173                0.14742183                0.12496457
               7.99908297                7.00002427               11.01234339                0.01122204               -0.04952100               -0.11899892                0.13963897               -0.01668451                0.14772002                0.16861260
               8.99884568                6.99962711               11.01323480                0.01000000               -0.02095348               -0.14405382                0.13847623               -0.03496553                0.08455995                0.25737843
               9.99866390                6.99976151               11.01338268                0.01000001               -0.01817811               -0.10637271                0.15232805               -0.03110547                0.04466742                0.30331335
               0.00505785                8.00175939               11.01140765                0.99999999               -0.03046146               -0.03116525                0.10371602               -0.00010693               -0.00127766                0.02228053
               1.00475324                8.00071687               11.01070864                1.00000000               -0.02983422               -0.02985765                0.09947546                0.00002109               -0.00068748                0.00229633
               2.00446117                7.99967206               11.01001923                0.03202907               -0.02702733               -0.02851086                0.09521850               -0.01050080                0.02517983               -0.01440120
               3.00421269                7.99841462               11.00983782                0.01729570               -0.03529112               -0.05161504                0.07677457                0.08008485                0.05887768               -0.04800557
               4.00375535                7.99887943               11.00923322                0.01531149               -0.07407181               -0.02888963                0.08408641                0.13587794                0.06320309                0.01346960
               5.00273126                7.99940226               11.00958688                0.01000000               -0.10434594               -0.02676305                0.08774977                0.11904335                0.07643991                0.00709212
               6.00166843                7.99966933               11.01026461                0.01000000               -0.13128353                0.00442643                0.08429700                0.04372608                0.16101488                0.04939608
               7.00010559                7.99975071               11.01182633                0.01127673               -0.13253609               -0.03892132                0.13480076               -0.01012482                0.19726014                0.11500846
               7.99901771                7.99913609               11.01359780                0.01000000               -0.09500709               -0.06643020                0.13908021               -0.10743836                0.21528092                0.13899791
               8.99820545                7.99805170               11.01568542                0.01350196               -0.06797223               -0.13372423                0.19253705               -0.14847098                0.16680638                0.31861434
               9.99765826                7.99840565               11.01663138                0.01000000               -0.05471823               -0.14799910                0.23257221               -0.09490429                0.10904281                0.30654237
               0.00609283                9.00144884               11.01132745                1.00000000               -0.03022278               -0.03091686                0.10288631               -0.00009934                0.00226051                0.01844980
               1.00579061                9.00041945               11.01054970                1.00000000               -0.02960859               -0.02961089                0.09869840                0.00004196                0.00124616                0.00250965
               2.00550066                8.99938805               11.00975350                0.99999999               -0.02836659               -0.02832396                0.09449886                0.00002206               -0.00454558               -0.01054797
               3.00522327                8.99835395               11.00886339                0.01000001               -0.08136851               -0.01649194                0.09023616                0.07987123                0.05408772               -0.05188469
               4.00387329                8.99894625               11.00924478                0.01000000               -0.10525399                0.01519909                0.05869040                0.07479316                0.08332931               -0.00398102
               5.00311819                8.99929968               11.00916822                0.01000000               -0.11103504                0.00462986                0.07455119                0.04471257                0.12038211                0.02033701
               6.00165259                8.99978202               11.01052612                0.01000000               -0.14756750                0.00684940                0.11454857                0.01630662                0.19478650                0.04211123
               7.00016684                8.99957481               11.01226729                0.01000000               -0.15096915               -0.01198846                0.13741932               -0.03160700                0.22597672                0.05130507
               7.99863321                8.99869567               11.01448461                0.01000001               -0.17800694               -0.02091873                0.15576356               -0.13059339                0.37062976                0.09771840
               8.99660671                8.99695263               11.01917107                0.99999997               -0.12876437               -0.08238828                0.18510186               -0.16799465                0.23722309                0.18012429
               9.99605792                8.99680153               11.01909903                1.00000000               -0.05487848               -0.10675789                0.17995493               -0.08758610               -0.00056744                0.12795287
               0.00711465               10.00114105               11.01115577                0.99994714               -0.02997707               -0.03077947                0.10208198                0.00054121                0.01254758                0.01372659
               1.00681488               10.00012465               11.01036593                1.00000000               -0.02937677               -0.02948061                0.09795325                0.00065364                0.01551333                0.00105032
               2.00652711                9.99910558               11.00964044                0.99999998               -0.02814795               -0.02824654                0.09380575                0.00065170                0.01539252               -0.00320216
               3.00625192                9.99808478               11.00885447                0.01653741               -0.11108153               -0.02691710                0.08956648                0.10675584                0.04948684               -0.00396326
               4.00430548                9.99918341               11.00881867                0.01404705               -0.17310921                0.02371645                0.08706819                0.11372258                0.09029270               -0.01699859
               5.00278973                9.99949485               11.00937997                0.01428802               -0.12930252                0.01951723                0.09251746               -0.00170077                0.12769910                0.05258805
               6.00171943                9.99980632               11.01033716                0.01331105               -0.11149676                0.00242961                0.11162197                0.00748808                0.17868061                0.02312708
               7.00055980                9.99951094               11.01207863                0.01000000               -0.13457043               -0.00638759                0.14222627               -0.01513458                0.26263638                0.02272748
               7.99902802                9.99871772               11.01495958                0.01050089               -0.19100544                0.00220488                0.17219867               -0.11586856                0.37628501                0.08548044
               8.99673969                9.99640394               11.01906832                1.00000000               -0.14096426               -0.05486922                0.17990537               -0.10906284                0.20986901                0.00083011
               9.99620874                9.99627049               11.01899627                0.99756882               -0.05309523               -0.05310379                0.17474889                0.00173723                0.00069471               -0.00069442
               0.00104318                0.00120686               12.00944693                0.99979878               -0.02360260               -0.02360036                0.07847994                0.00012804               -0.00320988                0.00295506
               1.00080715                0.00073795               12.00939961                1.00000000               -0.02366256               -0.02372882                0.07889614                0.00006668               -0.00357841               -0.00105052
               2.00056993                0.00027035               12.00934639                0.01166504               -0.01892977               -0.02385740                0.07932200                0.05314994                0.01853357               -0.00150447
               3.00042856                0.00086583               12.00974255                0.01108425               -0.04623678                0.01238068                0.08233194                0.01922018                0.03698518               -0.00877591
               3.99964519                0.00182189               12.01019149                0.01000000               -0.09488954                0.00549300                0.08425232                0.01862155                0.05709015               -0.00364058
               4.99853077                0.00284174               12.01127308                0.01209894               -0.11444383                0.00108322                0.10528184                0.04188151                0.05391745               -0.01161423
               5.99735632                0.00427393               12.01220442                0.66621968               -0.07508717               -0.03117176                0.10696972                0.03983367                0.02485997               -0.00109035
               6.99702903                0.00490234               12.01283271                0.99942136               -0.03326981               -0.03237569                0.11087031                0.00057516                0.00864633               -0.00175776
               7.99669092                0.00551251               12.01343930                0.99999999               -0.03436974               -0.03349232                0.11450187                0.00052410                0.00796175               -0.00019878
               8.99634163                0.00610497               12.01405341                0.99701431               -0.03556525               -0.03467092                0.11846389                0.00052281                0.00667120                0.00089869
               9.99597962                0.00667999               12.01463331                1.00000000               -0.03620144               -0.03585734                0.12242709                0.00151774                0.00504696                0.00465086
               0.00151337                1.00097085               12.00948898                1.00000000               -0.02372929               -0.02365925                0.07888509                0.00006830                0.00097765                0.00322565
               1.00127608                1.00050066               12.00944286                0.01000000               -0.02379404               -0.02379417                0.07930436                0.00000608                0.00253041               -0.00264791
               2.00103749                1.00003177               12.00942734                0.01000000               -0.07155438                0.02042320                0.07972011                0.01982362                0.01557534                0.00336172
               2.99984499                1.00098963               12.00964126                0.01000001               -0.10970190                0.01637018                0.08436839                0.04352375                0.01266912                0.00418451
               3.99884345                1.00187682               12.00997466                0.01000000               -0.10607124                0.00285842                0.08934424                0.03602211                0.01821090                0.00700158
               4.99772357                1.00285257               12.01067081                0.01000000               -0.10595475               -0.00839604                0.10133086                0.05722278                0.01519929               -0.00046353
               5.99672436                1.00396221               12.01147008                0.01000000               -0.06540394               -0.03729999                0.10119708                0.05297366                0.01205091               -0.00884206
               6.99641549                1.00457858               12.01205225                1.00000000               -0.03147561               -0.03150768                0.10507944               -0.00004001                0.00110160               -0.00232509
               7.99609484                1.00517758               12.01263409                0.99999998               -0.03261845               -0.03263576                0.10875022               -0.00006408                0.00112639               -0.00008910
               8.99576312                1.00575826               12.01321799                0.99999996               -0.03375333               -0.03377130                0.11253955               -0.00008892                0.00075527                0.00057734
               9.99541978                1.00632141               12.01379327                0.99680877               -0.03433394               -0.03490040                0.11631555                0.00085688                0.00031225                0.00593562
               0.00198493                2.00073367               12.00953709                0.01074061               -0.02385759               -0.01209054                0.07929288               -0.04048351                0.00137821                0.02389547
               1.00174636                2.00026206               12.00945448                0.01000000               -0.07537531                0.01843365                0.07972434               -0.02209978                0.01318436                0.01870741
               2.00047743                2.00067881               12.00960566                0.01000001               -0.11461854                0.04851164                0.08399040                0.00191592                0.00491914                0.02244427
               2.99945399                2.00119323               12.00964094                0.01000000               -0.09873667                0.01204819                0.08730212                0.03692967               -0.00732700                0.01993782
               3.99850270                2.00187906               12.00978429                0.01000000               -0.09320766               -0.00821014                0.09663140                0.06147459               -0.00600521                0.01908095
               4.99758983                2.00267382               12.01011368                0.01000001               -0.09064551               -0.02478663                0.09723647                0.08411513               -0.00145501                0.01187445
               5.99668978                2.00352793               12.01058124                0.01326795               -0.08884925               -0.03291897                0.09581815                0.08080334                0.00805807               -0.00752337
               6.99581285                2.00427218               12.01126088                0.01000000               -0.05899143               -0.04192611                0.09933433                0.05688512                0.00138209                0.00148699
               7.99550996                2.00485979               12.01183125                0.02007992               -0.03084149               -0.03544082                0.10298082                0.01121673               -0.00551195                0.00111705
               8.99519602                2.00542955               12.01237593                0.99999999               -0.03197527               -0.03195965                0.10659548               -0.00004832               -0.00404046               -0.00161095
               9.99487045                2.00598198               12.01297827                1.00000000               -0.03255689               -0.03308272                0.11023562                0.00089534               -0.00125923                0.00598136
               0.00164692                3.00072904               12.00999142                0.01000001               -0.07579709                0.04232830                0.08441558               -0.01078784                0.00155607                0.06024746
               1.00088894                3.00086933               12.00992329                0.01000001               -0.07511366                0.04920444                0.08585410               -0.03269072               -0.00699424                0.05439952
               2.00014464                3.00100200               12.00982333                0.01000000               -0.07528042                0.01615821                0.08795257                0.00747897               -0.01592355                0.03354909
               2.99938334                3.00123060               12.00973138                0.01000000               -0.07761452               -0.00968316                0.09441930                0.05053088               -0.02000428                0.02851419
               3.99859235                3.00171262               12.00970134                0.01000001               -0.08131688               -0.02708752                0.10313819                0.08816137               -0.01543845                0.02789833
               4.99775700                3.00235684               12.00985762                0.01000000               -0.09251454               -0.03722503                0.10429929                0.12106370               -0.01266973                0.03058588
               5.99674206                3.00330383               12.01013730                0.01000000               -0.07678378               -0.04733213                0.10088782                0.12376429               -0.00743650                0.03447448
               6.99622132                3.00374006               12.01055883                0.01000000               -0.07901226               -0.05122005                0.09671710                0.11863432               -0.00326702                0.05014887
               7.99516182                3.00446877               12.01105195                0.01607674               -0.07906809               -0.04512236                0.08315173                0.11101096               -0.01315165                0.03374931
               8.99463996                3.00511907               12.01149838                0.01000003               -0.04144993               -0.08610918                0.10077536                0.11609377               -0.01116453                0.02956333
               9.99433282                3.00565976               12.01214069                0.15243468               -0.03071438               -0.12958754                0.10443604                0.13602058               -0.00154876                0.02596233
               0.00148860                4.00158024               12.01074697                0.01000000               -0.06690153                0.07544274                0.09922763               -0.00307305               -0.01694870                0.10667923
               1.00081958                4.00124615               12.01048430                0.01000000               -0.06114275                0.02679547                0.09629553                0.00116007               -0.03137952                0.07427446
               2.00026574                4.00100197               12.01010059                0.01000000               -0.05327940               -0.01079594                0.09554628                0.03203426               -0.03478550                0.04271302
               2.99975399                4.00099957               12.00983531                0.01000001               -0.05630326               -0.03477950                0.10074889                0.07731703               -0.02716573                0.03097635
               3.99913968                4.00133731               12.00972756                0.01000000               -0.06670494               -0.04678915                0.11039150                0.12167381               -0.01712091                0.03261929
               4.99841990                4.00192932               12.00981918                0.01000000               -0.06789117               -0.05301131                0.11577711                0.14610358               -0.00367680                0.04379669
               5.99778185                4.00258128               12.01014445                0.01000000               -0.06996489               -0.07542597                0.10922273                0.16119823                0.02849501                0.05825098
               6.99702060                4.00324778               12.01099906                0.01677538               -0.07153455               -0.04820043                0.11523527                0.14741607                0.01775284                0.08942449
               7.99635116                4.00395734               12.01109076                0.01420039               -0.03468485               -0.08749569                0.08474569                0.15483950                0.00157772                0.05004934
               8.99632690                4.00370736               12.01128302                0.01000000                0.00791597               -0.11555371                0.07392596                0.12085030                0.00448419                0.06790957
               9.99650948                4.00339023               12.01172823                0.01358491                0.01825817               -0.18911984                0.09816819                0.13558172                0.01639827                0.05054948
               0.00225362                5.00223790               12.01166387                0.01000003               -0.07632136                0.05567763                0.12384628                0.01386866               -0.03085156                0.14843915
               1.00149041                5.00140524               12.01115327                0.01000000               -0.06108553                0.01338241                0.11381607                0.04272025               -0.03571150                0.10527978
               2.00103191                5.00078609               12.01046765                0.01000001               -0.04480331               -0.02700861                0.09776135                0.06534266               -0.04214590                0.04250356
               3.00059434                5.00053501               12.00998029                0.01000000               -0.04679198               -0.05785477                0.10232685                0.11662788               -0.02552524                0.03397692
               4.00009607                5.00077683               12.00982015                0.01000000               -0.05796256               -0.05456374                0.11544061                0.14773456               -0.00221697                0.03370597
               4.99943509                5.00129662               12.00993816                0.01000000               -0.07242551               -0.06879272                0.11977878                0.15550882                0.01875091                0.05064323
               5.99864756                5.00179531               12.01028758                0.01000001               -0.08207550               -0.07759241                0.14849496                0.17154041                0.05028138                0.10093964
               6.99779358                5.00277605               12.01122176                0.01577033               -0.04242691               -0.06972656                0.09263694                0.15017641                0.03569765                0.07101840
               7.99779903                5.00271885               12.01132715                0.01000000               -0.00847511               -0.10605921                0.07923404                0.12050161                0.00766458                0.05562824
               8.99762408                5.00280800               12.01143829                0.01000000               -0.00601535               -0.11844348                0.10049488                0.07925841                0.03174146                0.12645123
               9.99767872                5.00187736               12.01203237                0.01000000                0.00546375               -0.12370926                0.10142812                0.01664815                0.05481083                0.10885317
               0.00343128                6.00269379               12.01271452                0.97429013               -0.03054824                0.00724023                0.10372770               -0.00046732               -0.00401829                0.07465697
               1.00312580                6.00151380               12.01217266                0.01000000               -0.04942257               -0.00948710                0.09982237                0.02888343               -0.04886993                0.05686118
               2.00244283                6.00046180               12.01072581                0.01327309               -0.05149972               -0.03693524                0.09619163                0.06519838               -0.06314457                0.04779047
               3.00209581                5.99984247               12.01023001                0.01000000               -0.05550352               -0.05574141                0.09879546                0.12390590               -0.01102586                0.02467351
               4.00133276                6.00024603               12.00997976                0.01000000               -0.07921049               -0.05572552                0.10862854                0.16211153                0.01234326                0.04807036
               5.00051160                6.00055347               12.01010700                0.01000001               -0.07997659               -0.07649235                0.14679209                0.17387598                0.07517786                0.06864882
               5.99973323                6.00102943               12.01120973                0.01643948               -0.07055068               -0.06924930                0.14361565                0.19339574                0.08270600                0.09041383
               6.99910058                6.00185325               12.01138169                0.01000000               -0.05019900               -0.08924271                0.09050613                0.16590605                0.05815706                0.05942617
               7.99872925                6.00183616               12.01160621                0.01000000               -0.01735120               -0.11778877                0.08593119                0.05046572                0.08991054                0.15313992
               8.99875356                6.00133849               12.01286166                0.01000000               -0.00127687               -0.14874741                0.11843114                0.02357654                0.08094552                0.19898927
               9.99870371                6.00091604               12.01303884                0.01426435               -0.00498469               -0.09789028                0.12499813                0.01815503                0.02979668                0.18105166
               0.00460426                7.00238270               12.01253983                1.00000000               -0.03041876               -0.03103844                0.10338921               -0.00002095               -0.00307425                0.01754062
               1.00430007                7.00121550               12.01189515                1.00000000               -0.02985226               -0.02981906                0.09948890                0.00003206               -0.00681714               -0.00350356
               2.00400721                7.00004738               12.01117069                0.01000000               -0.05059180               -0.03503374                0.09568441                0.04656987               -0.01986219                0.02133697
               3.00328823                6.99942018               12.01026224                0.01000000               -0.06899507               -0.05654896                0.09886077                0.12121746                0.00717071               -0.01306677
               4.00262731                6.99966232               12.01043067                0.01678089               -0.05795114               -0.05599976                0.11126655                0.15734123                0.05395210                0.03349936
               5.00212921                6.99976677               12.01074329                0.01577688               -0.07058079               -0.03809023                0.09017727                0.15063602                0.05980890                0.04094610
               6.00121569                7.00041032               12.01106293                0.01000000               -0.09121152               -0.04853260                0.08968410                0.16777639                0.06067711                0.05290888
               7.00030498                7.00099120               12.01199810                0.01000000               -0.09462977               -0.08355091                0.09804403                0.05861502                0.15840952                0.13435442
               7.99932310                7.00036308               12.01376722                0.01145043               -0.06446261               -0.11805646                0.13983131               -0.03439469                0.15050951                0.19955455
               8.99901573                6.99983305               12.01469147                0.01000000               -0.02181905               -0.15642975                0.14562108               -0.04647585                0.07618800                0.25621373
               9.99888672                6.99991956               12.01500175                0.01000001               -0.01290098               -0.11858252                0.15710669               -0.03309838                0.05053821                0.30150454
               0.00576527                8.00207302               12.01244077                0.99999999               -0.03035048               -0.03096939                0.10313238               -0.00004966               -0.00116078                0.02231859
               1.00546176                8.00091742               12.01170202                1.00000000               -0.02978593               -0.02978877                0.09929614               -0.00004899               -0.00060882                0.00232727
               2.00516955                7.99976113               12.01097273                0.01356449               -0.02782746               -0.02859122                0.09545679                0.00530913               -0.02885604               -0.01445527
               3.00490521                7.99871149               12.00966933                0.01608590               -0.05182769               -0.05449911                0.05185367                0.10581351               -0.00424336                0.00926089
               4.00413300                7.99912604               12.01017594                0.01421323               -0.10644493               -0.02405730                0.08659930                0.15379510                0.05286667                0.00112696
               5.00277632                7.99979166               12.01043538                0.01000000               -0.11343327               -0.00489222                0.07763160                0.12124036                0.05260630                0.00322122
               6.00186433                8.00005878               12.01089690                0.01000000               -0.12280935               -0.01250310                0.08251318                0.05747435                0.15749913                0.07542658
               7.00032013                8.00018223               12.01320482                0.01150564               -0.13324138               -0.05177338                0.13426462               -0.02339659                0.22387401                0.11876161
               7.99919950                7.99947503               12.01503365                0.01000000               -0.10262840               -0.06716507                0.14340003               -0.12241733                0.23277996                0.14207171
               8.99826756                7.99820990               12.01754914                0.01382355               -0.06653893               -0.13725760                0.17818148               -0.16247218                0.19192283                0.33340942
               9.99786872                7.99854439               12.01868792                0.01000000               -0.03988365               -0.14975101                0.19353834               -0.10339374                0.13187532                0.31002018
               0.00691447                9.00176331               12.01235693                0.99735055               -0.03034821               -0.03098383                0.10315193               -0.00005736                0.00232112                0.01844480
               1.00661098                9.00061972               12.01153878                0.99999999               -0.02975724               -0.02975065                0.09917993               -0.00005337                0.00127075                0.00249691
               2.00631932                8.99947556               12.01070193                1.00000000               -0.02856955               -0.02854799                0.09516738               -0.00006489               -0.00457287               -0.01058843
               3.00603959                8.99833020               12.00977032                0.01000000               -0.08481399               -0.03270163                0.09114464                0.09896504                0.03673027                0.00207756
               4.00462304                8.99918118               12.00976425                0.01000000               -0.12091614                0.01405748                0.06815626                0.10667445                0.08531874               -0.00006185
               5.00362127                8.99966892               12.01008675                0.01000000               -0.13242161                0.00185036                0.09570605                0.07448504                0.13796830                0.02567727
               6.00197461                9.00016026               12.01166891                0.01000000               -0.16002355                0.00815002                0.11315304                0.02563464                0.20968726                0.06728138
               7.00042080                8.99995573               12.01362523                0.01000000               -0.15637615               -0.01318344                0.13418005               -0.03008871                0.24316883                0.05025338
               7.99884709                8.99901978               12.01600733                0.01000001               -0.18619398               -0.02021279                0.15009871               -0.14016229                0.39176048                0.10861815
               8.99669692                8.99708790               12.02101817                0.99999998               -0.13486176               -0.08345360                0.18435332               -0.17585363                0.25581167                0.18167829
               9.99614985                8.99692454               12.02089846                1.00000000               -0.05470685               -0.10761549                0.17992599               -0.09410842               -0.00057445                0.11748603
               0.00805130               10.00145335               12.01217901                1.00000000               -0.03028464               -0.03099692                0.10302958                0.00058956                0.01276350                0.01357728
               1.00774845               10.00032241               12.01134990                1.00000000               -0.02967606               -0.02973173                0.09901711                0.00058800                0.01565334                0.00098571
               2.00745778                9.99919017               12.01058457                0.99999998               -0.02847794               -0.02853894                0.09497704                0.00059833                0.01544558               -0.00320335
               3.00717890                9.99805746               12.00975733                0.01807687               -0.12650110               -0.02727371                0.09101320                0.12478107                0.05009940               -0.00397352
               4.00492776                9.99940719               12.00969253                0.01386790               -0.19459820                0.02260100                0.08928932                0.11903194                0.08939428                0.01585273
               5.00328693                9.99982867               12.01025858                0.01000000               -0.14187687                0.01597449                0.09257983                0.00729586                0.13982463                0.05246566
               6.00209022               10.00022178               12.01149639                0.01000002               -0.12140462                0.00615222                0.11962166                0.01605570                0.19858513                0.02240018
               7.00085884                9.99991856               12.01347397                0.01000000               -0.14130657               -0.00371632                0.13618085               -0.01374656                0.28823431                0.02473138
               7.99926409                9.99907077               12.01659540                0.01033222               -0.20065565                0.00509988                0.15998274               -0.12718682                0.39554885                0.09330477
               8.99684573                9.99654083               12.02086750                1.00000000               -0.14754081               -0.05470698                0.17992641               -0.11905403                0.22041612                0.00082594
               9.99631327                9.99639208               12.02074769                0.99757077               -0.05324536               -0.05324540                0.17550000                0.00146775                0.00068775               -0.00070411
               0.00105636                0.00119229               13.01023299                1.00000000               -0.02367955               -0.02363324                0.07874705                0.00007214               -0.00320159                0.00295865
               1.00081957                0.00068220               13.01018963                1.00000000               -0.02373613               -0.02374977                0.07912565                0.00005849               -0.00357512               -0.00104097
               2.00058164                0.00017240               13.01014046                0.01000000               -0.02457969               -0.02387039                0.07951091                0.05963347                0.01047430               -0.00150026
               3.00032797                0.00085439               13.01037955                0.01000000               -0.06141041                0.02167117                0.08191626                0.02694961                0.04099952                0.00512439
               3.99935343                0.00198902               13.01102828                0.01000001               -0.11810976                0.01470532                0.09131408                0.03453177                0.06641896               -0.00113900
               4.99796578                0.00335407               13.01221119                0.01384829               -0.12733535                0.01101853                0.07957087                0.05793160                0.06368904               -0.01266376
               5.99680673                0.00502660               13.01327432                0.65674839               -0.07431971               -0.03125143                0.10702557                0.04991285                0.02974123               -0.00105647
               6.99647938                0.00569424               13.01394110                0.99943904               -0.03328027               -0.03240405                0.11083155                0.00055735                0.00871913               -0.00175654
               7.99614112                0.00634468               13.01458402                0.99999999               -0.03436470               -0.03348784                0.11439612                0.00052666                0.00797410               -0.00018695
               8.99579209                0.00697808               13.01523590                0.99842074               -0.03544127               -0.03457352                0.11803149                0.00053336                0.00673300                0.00081831
               9.99543229                0.00759499               13.01585298                1.00000000               -0.03597957               -0.03566978                0.12162496                0.00141573                0.00517639                0.00450955
               0.00156718                1.00095596               13.01027759                1.00000000               -0.02370800               -0.02364739                0.07884259                0.00001602                0.00097681                0.00322531
               1.00133010                1.00044470               13.01023541                0.01000001               -0.02376488               -0.02376706                0.07921722               -0.00000174                0.00252543               -0.00264137
               2.00109188                0.99993369               13.01022386                0.01000000               -0.08204686                0.02629819                0.07959729                0.02330923                0.01551962                0.00566912
               2.99968916                1.00107110               13.01044087                0.01000001               -0.13214863                0.02419604                0.08556449                0.05773238                0.02093919                0.01317730
               3.99844891                1.00213607               13.01085742                0.01000000               -0.13314276                0.01076766                0.09329962                0.06117843                0.02544367                0.01005055
               4.99702631                1.00346426               13.01163723                0.01000000               -0.11565693               -0.00798737                0.08875883                0.09004251                0.02312583               -0.00467680
               5.99613577                1.00471408               13.01248360                0.01000000               -0.06001951               -0.04537697                0.10154801                0.06428195                0.01269619               -0.00796182
               6.99582591                1.00537020               13.01310413                1.00000000               -0.03156516               -0.03158079                0.10533162               -0.00002865                0.00119221               -0.00231038
               7.99550447                1.00600980               13.01372253                0.99999998               -0.03268222               -0.03267665                0.10891784               -0.00001700                0.00113335               -0.00006805
               8.99517227                1.00663235               13.01434340                1.00000000               -0.03374589               -0.03375672                0.11251437               -0.00000396                0.00077671                0.00055261
               9.99482955                1.00723829               13.01495536                0.99805476               -0.03427230               -0.03484744                0.11609621                0.00083316                0.00037751                0.00590039
               0.00207920                2.00071934               13.01032829                0.01185340               -0.02374057               -0.01014342                0.07894350               -0.04532481                0.00137821                0.03033615
               1.00184179                2.00020685               13.01024969                0.01000000               -0.08288875                0.02312125                0.07931816               -0.02197008                0.01548677                0.02405373
               2.00042142                2.00069836               13.01045091                0.01000001               -0.12807746                0.05679579                0.08564048                0.00580902                0.01490527                0.02161183
               2.99928025                2.00133831               13.01053214                0.01000000               -0.11187917                0.01735298                0.08853421                0.05269942               -0.00000610                0.02437241
               3.99818384                2.00220437               13.01075565                0.01000000               -0.10458138               -0.00632493                0.09544095                0.08939436               -0.00184144                0.02442592
               4.99718862                2.00319432               13.01109112                0.01000001               -0.09987109               -0.03310591                0.09841065                0.11434056               -0.00129838                0.01002187
               5.99618642                2.00411906               13.01155635                0.01266061               -0.10027638               -0.04326742                0.09882023                0.10344525                0.00871635               -0.00698598
               6.99518309                2.00506263               13.01225673                0.01000000               -0.06538937               -0.05121960                0.09987802                0.07511032                0.00057144                0.00393393
               7.99487863                2.00569115               13.01286327                0.01995367               -0.03097830               -0.03979390                0.10343282                0.01409162               -0.00557504                0.00035697
               8.99456352                2.00630295               13.01344391                0.99999999               -0.03207790               -0.03208469                0.10698348                0.00000581               -0.00408388               -0.00161362
               9.99423707                2.00689804               13.01408255                0.99999999               -0.03264495               -0.03321531                0.11056108                0.00085412               -0.00126726                0.00599752
               0.00168565                3.00075309               13.01091401                0.01000001               -0.07739795                0.05163688                0.08597770               -0.00967686               -0.00050994                0.06419974
               1.00091167                3.00090712               13.01082792                0.01000001               -0.08045231                0.05693818                0.08574218               -0.03543172               -0.01129941                0.05674889
               2.00007661                3.00106961               13.01069812                0.01000000               -0.08372671                0.01988155                0.08694789                0.01659943               -0.01435040                0.03655978
               2.99923714                3.00141816               13.01067147                0.01000000               -0.08479153               -0.00754928                0.09163931                0.06611533               -0.01112019                0.03390793
               3.99838078                3.00200957               13.01076416                0.01000001               -0.09193549               -0.03023760                0.10654672                0.10879396               -0.00999428                0.03426636
               4.99739843                3.00280214               13.01092133                0.01000000               -0.10222025               -0.04519188                0.10783992                0.14270358               -0.00316549                0.02735918
               5.99633637                3.00384873               13.01114533                0.01000001               -0.08212005               -0.05274582                0.09981484                0.14298778               -0.00674896                0.03806157
               6.99575603                3.00434581               13.01154716                0.01000000               -0.08951990               -0.07225309                0.10073952                0.15072108               -0.00307261                0.04264736
               7.99454597                3.00521393               13.01201200                0.01517903               -0.08952666               -0.07451081                0.09768873                0.15587888               -0.01468371                0.03575503
               8.99396550                3.00599065               13.01250917                0.01000000               -0.04447618               -0.09369477                0.10145167                0.14498790               -0.01045583                0.02659411
               9.99365645                3.00657398               13.01318792                0.16343095               -0.03090458               -0.14673733                0.10503972                0.15831844               -0.00157872                0.02554715
               0.00157759                4.00175208               13.01162129                0.01000000               -0.07609555                0.11065457                0.09300385               -0.00501892               -0.01595949                0.11485533
               1.00081664                4.00134562               13.01138244                0.01000000               -0.06676069                0.03704263                0.09294554                0.01117279               -0.02584183                0.07891440
               2.00024238                4.00109599               13.01106164                0.01000000               -0.05770235               -0.00886494                0.09281751                0.04879383               -0.02801040                0.04446115
               2.99966259                4.00118732               13.01086627                0.01000001               -0.06333196               -0.03706101                0.10374940                0.09645855               -0.02221423                0.03925289
               3.99897574                4.00159962               13.01083635                0.01000000               -0.07295312               -0.04987511                0.11103642                0.13943462               -0.01220639                0.03753661
               4.99820353                4.00229049               13.01096587                0.01000000               -0.07366173               -0.05841091                0.11084888                0.17164927               -0.00120530                0.04218201
               5.99750251                4.00306414               13.01120370                0.01000000               -0.06856042               -0.07961875                0.10433882                0.18102699                0.01897878                0.08274812
               6.99683232                4.00361756               13.01181627                0.01560560               -0.05755703               -0.06837389                0.08657420                0.16703923                0.01823213                0.06804308
               7.99635136                4.00420093               13.01198828                0.01328925               -0.03645482               -0.10341919                0.09304232                0.20045169                0.00325779                0.05022773
               8.99610322                4.00442905               13.01217730                0.01000000               -0.00572899               -0.13757726                0.09818546                0.16857219                0.00817822                0.07283162
               9.99623678                4.00396329               13.01270937                0.01334791                0.01335616               -0.21332785                0.10320065                0.15397752                0.02529770                0.05389499
               0.00239820                5.00296618               13.01300900                0.01368965               -0.06069810                0.06260802                0.09118685               -0.01309146               -0.04475658                0.14007891
               1.00179122                5.00164798               13.01232930                0.01000000               -0.05937078                0.01837685                0.09464618                0.03802186               -0.05310968                0.09932529
               2.00121078                5.00089231               13.01141733                0.01000001               -0.05642650               -0.02441823                0.09721325                0.07906194               -0.05322724                0.04354671
               3.00066269                5.00067694               13.01101707                0.01000000               -0.05722385               -0.05972059                0.10265878                0.13982208               -0.02867590                0.04427627
               4.00006630                5.00101207               13.01095533                0.01000000               -0.06478958               -0.05736091                0.10998455                0.17323189               -0.00231804                0.03501953
               4.99936689                5.00163392               13.01106801                0.01000000               -0.07182347               -0.06660135                0.11058850                0.18324070                0.03986400                0.06941264
               5.99862983                5.00225636               13.01189765                0.01663110               -0.07034361               -0.07572454                0.12654334                0.18842641                0.04947490                0.08764930
               6.99796002                5.00297833               13.01206860                0.01458823               -0.04431585               -0.08255321                0.08570105                0.17553295                0.02616449                0.03858543
               7.99774352                5.00314554               13.01203898                0.01000000               -0.01927212               -0.10310666                0.08332002                0.14264659                0.01798400                0.08249635
               8.99757458                5.00323911               13.01249137                0.01000000               -0.00379973               -0.13848376                0.10798610                0.09434718                0.04630600                0.14172406
               9.99766752                5.00230743               13.01308403                0.01000000                0.00929437               -0.13892684                0.11019470                0.03452931                0.05630267                0.12508854
               0.00395217                6.00300424               13.01374415                0.97068623               -0.03012293               -0.01347352                0.10219651                0.01287285               -0.00405460                0.05895328
               1.00365094                6.00171316               13.01316504                0.01000000               -0.05787579               -0.01154005                0.09862084                0.03739162               -0.04767717                0.04771205
               2.00279466                6.00060763               13.01170457                0.01266566               -0.06558343               -0.03771123                0.09785458                0.08565349               -0.06341038                0.05013218
               3.00233927                5.99999291               13.01122320                0.01000001               -0.06556307               -0.04956709                0.09644722                0.14472318               -0.00883372                0.02546751
               4.00148339                6.00045240               13.01102459                0.01000000               -0.08576102               -0.05071125                0.10256196                0.18203061                0.03624931                0.03756726
               5.00062405                6.00095846               13.01169856                0.01663291               -0.07783858               -0.06542191                0.12498381                0.19107517                0.06440872                0.06414922
               5.99992662                6.00154965               13.01220529                0.01514317               -0.05851290               -0.05959283                0.08299998                0.17317282                0.04042108                0.04546293
               6.99945380                6.00196650               13.01230237                0.01000000               -0.04915521               -0.08805674                0.08580635                0.14645680                0.03763591                0.05676305
               7.99894352                6.00213880               13.01267047                0.01000000               -0.03127571               -0.12788049                0.11160520                0.06745733                0.09893085                0.18587421
               8.99882828                6.00165938               13.01406064                0.01022884               -0.00763915               -0.15876043                0.12396079                0.03031442                0.09124096                0.21738645
               9.99879074                6.00118476               13.01436813                0.01000002               -0.00375455               -0.10824532                0.13543701                0.02186711                0.03877807                0.20003239
               0.00523782                7.00269671               13.01356939                1.00000000               -0.03021631               -0.03077883                0.10250185                0.00004428               -0.00308492                0.01759842
               1.00493566                7.00141717               13.01288720                1.00000000               -0.02968626               -0.02966880                0.09892621               -0.00002300               -0.00680675               -0.00348562
               2.00464410                7.00013809               13.01212604                0.01000000               -0.06116405               -0.03779550                0.09545177                0.06952538               -0.02049682                0.02009747
               3.00371238                6.99968560               13.01116774                0.01000000               -0.09513650               -0.04505748                0.09416028                0.12225493               -0.00114974                0.00406813
               4.00274137                6.99999784               13.01122736                0.01561102               -0.08106144               -0.04420058                0.08397387                0.16015629                0.03504923                0.02630353
               5.00209115                7.00032548               13.01155766                0.01459480               -0.08280577               -0.04176216                0.08178915                0.17525121                0.02814479                0.02881799
               6.00108525                7.00106450               13.01198097                0.01000000               -0.08955702               -0.04888828                0.08506726                0.15070321                0.05928093                0.02987140
               7.00030001                7.00121720               13.01275304                0.01000000               -0.08427328               -0.07338474                0.08942814                0.02579792                0.16178804                0.13708591
               7.99939979                7.00058793               13.01514001                0.01157965               -0.05825485               -0.12006902                0.13263385               -0.03839152                0.17493949                0.21405324
               8.99913491                7.00006390               13.01614723                0.01000000               -0.01728368               -0.16330935                0.14256010               -0.04420335                0.07940557                0.28585430
               9.99905411                7.00014252               13.01652482                0.01000000               -0.00807997               -0.12377050                0.14546950               -0.03076432                0.05354753                0.33346120
               0.00651213                8.00238866               13.01347030                0.99999999               -0.03030216               -0.03086052                0.10281011               -0.00000149               -0.00108883                0.02246659
               1.00620910                8.00111978               13.01269456                1.00000000               -0.02976918               -0.02978293                0.09925087               -0.00007889               -0.00054663                0.00238240
               2.00591674                7.99985172               13.01192836                0.01102531               -0.06422448               -0.02868236                0.09570135                0.02527744               -0.01445375               -0.01458166
               3.00492461                7.99909176               13.01087489                0.01518806               -0.09350543               -0.06890464                0.11949837                0.14499227               -0.01694461                0.00080824
               4.00404663                7.99956839               13.01096520                0.01330171               -0.09310969               -0.02847142                0.08172166                0.17766621                0.03697747               -0.00025543
               5.00306242                8.00012322               13.01113951                0.01000000               -0.09988303               -0.01677270                0.07903646                0.14426257                0.08126233                0.00993302
               6.00204897                8.00057188               13.01191487                0.01000000               -0.13080484               -0.02681693                0.10626509                0.07990983                0.18823765                0.08098097
               7.00044632                8.00049881               13.01451162                0.01163407               -0.13599944               -0.04532309                0.12630879               -0.02213349                0.24177331                0.13897768
               7.99932898                7.99973742               13.01646580                0.01000000               -0.10283494               -0.06408272                0.14057918               -0.12149623                0.25034000                0.14354663
               8.99838962                7.99839319               13.01924905                0.01401407               -0.06553872               -0.13980297                0.16627721               -0.16655896                0.21451650                0.35641295
               9.99801821                7.99870935               13.02050215                0.01000000               -0.03714154               -0.15255153                0.17712930               -0.10679735                0.14101100                0.32763407
               0.00777556                9.00207950               13.01339049                0.99874966               -0.03045343               -0.03101148                0.10331010                0.00000218                0.00218483                0.01871523
               1.00747102                9.00082152               13.01253329                0.99999999               -0.02989471               -0.02988321                0.09961019               -0.00008877                0.00116765                0.00257799
               2.00717766                8.99956444               13.01165685                0.99992085               -0.02877359               -0.02877426                0.09584704               -0.00010821               -0.00466431               -0.01071744
               3.00689555                8.99830750               13.01068628                0.01000000               -0.09572150               -0.05302400                0.09207400                0.15426506                0.03497954               -0.01247920
               4.00526323                8.99942842               13.01060791                0.01000000               -0.14613237                0.00377588                0.09245401                0.16140065                0.08687900                0.00273256
               5.00397290                8.99999003               13.01108234                0.01000000               -0.14776877                0.00386462                0.09685643                0.09098481                0.15488057                0.03302196
               6.00230786                9.00052816               13.01278918                0.01035806               -0.16405508                0.00137388                0.11473497                0.03737411                0.23099523                0.07622510
               7.00069180                9.00031074               13.01495089                0.01000000               -0.16161925               -0.00953572                0.13008022               -0.02213689                0.26509282                0.04825848
               7.99907547                8.99930628               13.01748659                0.01000001               -0.19299992               -0.01648774                0.14621822               -0.14132046                0.41961671                0.11269333
               8.99683180                8.99726784               13.02285814                0.99999998               -0.13948085               -0.08356918                0.18364637               -0.18043420                0.27590468                0.19072798
               9.99628586                8.99709149               13.02269755                0.99999996               -0.05459482               -0.10756914                0.17989845               -0.09543978               -0.00058533                0.11874964
               0.00902813               10.00176843               13.01321636                1.00000000               -0.03057468               -0.03110657                0.10376647                0.00062578                0.01244379                0.01394399
               1.00872239               10.00052211               13.01234627                0.99794623               -0.02997718               -0.02994010                0.09995896                0.00052635                0.01545015                0.00111579
               2.00842859                9.99927623               13.01153998                0.99999998               -0.02882242               -0.02882062                0.09612552                0.00055088                0.01538880               -0.00326735
               3.00814594                9.99803128               13.01067473                0.01069641               -0.14182349               -0.02762231                0.09245955                0.14342230                0.05178704               -0.00399522
               4.00559212                9.99964391               13.01060446                0.01367381               -0.21817843                0.02154902                0.09776751                0.14135010                0.09450915                0.02116626
               5.00378237               10.00020051               13.01123157                0.01000000               -0.15581862                0.02104803                0.09694001                0.02871925                0.16203694                0.04782368
               6.00247575               10.00059936               13.01272959                0.01000002               -0.12784492                0.00711984                0.12436647                0.02216805                0.21892794                0.03150024
               7.00122547               10.00030809               13.01480224                0.01000000               -0.14651401               -0.00026444                0.12722519               -0.00621804                0.31233948                0.02309728
               7.99954547                9.99940766               13.01815924                0.01000000               -0.21148719                0.01013869                0.15464026               -0.13231467                0.42338806                0.10057055
               8.99699573                9.99672181               13.02266685                0.99999996               -0.15416757               -0.05460331                0.17995009               -0.12609274                0.23422706                0.00081718
               9.99646212                9.99655796               13.02250627                0.99761183               -0.05336114               -0.05335270                0.17620683                0.00124146                0.00069875               -0.00069481
               0.00106587                0.00117683               14.01102187                1.00000000               -0.02376889               -0.02367675                0.07905471                0.00001405               -0.00318743                0.00297037
               1.00082818                0.00062557               14.01098212                1.00000000               -0.02381888               -0.02377897                0.07938502                0.00005029               -0.00356789               -0.00103727
               2.00058949                0.00007355               14.01093661                0.01103370               -0.02337235               -0.02388474                0.07971818                0.06629932                0.02055562               -0.00150199
               3.00036073                0.00084569               14.01138087                0.01000000               -0.07237769                0.02549074                0.09054900                0.03031146                0.05667616               -0.00503374
               3.99914194                0.00214082               14.01201777                0.01000001               -0.14011129                0.02096376                0.09734841                0.04593681                0.06601785               -0.00139684
               4.99755851                0.00373638               14.01286449                0.01000002               -0.14603541                0.01427313                0.08202494                0.08481033                0.10528988               -0.01180576
               5.99622123                0.00583424               14.01434493                0.64697421               -0.08324020               -0.03132961                0.10712447                0.06925413                0.04897275               -0.00104322
               6.99589370                0.00654115               14.01504934                0.99940920               -0.03328137               -0.03244076                0.11080970                0.00054506                0.00883378               -0.00177885
               7.99555560                0.00723175               14.01572723                0.99999999               -0.03431871               -0.03347728                0.11423219                0.00052324                0.00797994               -0.00018881
               8.99520733                0.00790634               14.01641404                0.99962276               -0.03533125               -0.03450332                0.11762515                0.00053352                0.00674781                0.00083415
               9.99484898                0.00856543               14.01706581                1.00000000               -0.03583522               -0.03555804                0.12099456                0.00135268                0.00512562                0.00456295
               0.00161727                1.00094006               14.01106583                0.99993808               -0.02369479               -0.02364224                0.07882229               -0.00003608                0.00098410                0.00323130
               1.00138032                1.00038778               14.01102720                0.01181189               -0.02374220               -0.02374668                0.07914992               -0.00000319                0.00253025               -0.00264036
               2.00114243                0.99983470               14.01101929                0.01000000               -0.08750552                0.02816155                0.07948470                0.03082022                0.02115639                0.00930987
               2.99963021                1.00110059               14.01135255                0.01000001               -0.14932327                0.03021937                0.08849588                0.06520800                0.03434074                0.00452161
               3.99815596                1.00235046               14.01184066                0.01000000               -0.15351537                0.01600057                0.09549861                0.07717336                0.03346405                0.00300520
               4.99655990                1.00387911               14.01244599                0.01000000               -0.13222874               -0.00731100                0.08987613                0.11875688                0.05373329               -0.00490893
               5.99551139                1.00552094               14.01350104                0.01000000               -0.06797531               -0.05538838                0.10197689                0.09074513                0.02148629               -0.00610758
               6.99520040                1.00621674               14.01415888                1.00000000               -0.03165726               -0.03166625                0.10562371               -0.00001531                0.00130803               -0.00231600
               7.99487824                1.00689698               14.01481245                0.99999998               -0.03272865               -0.03271466                0.10906387                0.00001193                0.00114028               -0.00007029
               8.99454582                1.00756131               14.01546828                1.00000000               -0.03374135               -0.03374176                0.11247865                0.00002981                0.00077866                0.00054526
               9.99420341                1.00820985               14.01611520                0.99897997               -0.03424118               -0.03480321                0.11590418                0.00079629                0.00035212                0.00590514
               0.00216971                2.00070398               14.01111596                0.01000000               -0.02362386               -0.01100097                0.07859565               -0.04575350                0.00137740                0.03083435
               1.00193347                2.00015063               14.01104084                0.01000000               -0.08383158                0.02418901                0.07891760               -0.02843402                0.01912945                0.02503863
               2.00049308                2.00063678               14.01131847                0.01000001               -0.13921692                0.06438841                0.08015473                0.00855471                0.02124098                0.02138365
               2.99914913                2.00145007               14.01141163                0.01000000               -0.12930954                0.02370178                0.08898532                0.06443701                0.00563235                0.02128636
               3.99790689                2.00246084               14.01169311                0.01000000               -0.11929848               -0.00166115                0.09360915                0.10633658                0.00651548                0.02313614
               4.99676316                2.00359016               14.01208189                0.01000001               -0.11041948               -0.04249201                0.09867764                0.15091237               -0.00108473                0.01722119
               5.99569850                2.00472647               14.01255764                0.01223828               -0.11229020               -0.05516158                0.10093948                0.13937667                0.00943945               -0.00430051
               6.99451736                2.00590783               14.01325844                0.01000001               -0.07436113               -0.05916407                0.10047686                0.09718960               -0.00116255                0.00783601
               7.99421128                2.00657746               14.01389991                0.01924885               -0.03111538               -0.04190637                0.10389579                0.01757892               -0.00558424                0.00086186
               8.99389505                2.00723151               14.01451560                0.99999999               -0.03217310               -0.03218709                0.10734982                0.00005056               -0.00409007               -0.00162940
               9.99356781                2.00786937               14.01518949                1.00000000               -0.03272386               -0.03329823                0.11081759                0.00080258               -0.00126616                0.00600924
               0.00180890                3.00072004               14.01171097                0.01000001               -0.09300546                0.05391835                0.09726888               -0.01097819                0.00524134                0.07101325
               1.00087884                3.00087156               14.01163814                0.01000001               -0.08974083                0.05862139                0.09632993               -0.03343234                0.01477172                0.06355913
               2.00001408                3.00112247               14.01156228                0.01000000               -0.08919724                0.02676042                0.08348999                0.02158499               -0.00170271                0.03604717
               2.99909490                3.00157463               14.01156417                0.01000000               -0.09357365               -0.00055244                0.09099594                0.07903191               -0.00088139                0.04035400
               3.99814261                3.00231724               14.01183228                0.01307967               -0.08911904               -0.02819863                0.09710806                0.11718480               -0.00098405                0.04084191
               4.99731252                3.00302927               14.01201442                0.01000000               -0.10806776               -0.04819368                0.10096352                0.16828750                0.00415436                0.02088855
               5.99598125                3.00441771               14.01213359                0.01000001               -0.10096570               -0.06212718                0.10095479                0.18083612               -0.00861795                0.04320567
               6.99529320                3.00503346               14.01257362                0.01000000               -0.10375564               -0.09103080                0.10371518                0.18622184               -0.00374894                0.04645485
               7.99390614                3.00605885               14.01300573                0.01451469               -0.10191375               -0.08212717                0.09992291                0.18640623               -0.01605155                0.03902647
               8.99325493                3.00691757               14.01352741                0.01000000               -0.04811993               -0.10248570                0.10220590                0.16796789               -0.01100260                0.03180619
               9.99294374                3.00754389               14.01424149                0.17157010               -0.03111869               -0.16486724                0.10565471                0.18180578               -0.00159150                0.02969659
               0.00164711                4.00178235               14.01260705                0.01000000               -0.07847171                0.10982893                0.09168571               -0.00047833               -0.02102986                0.07753214
               1.00086239                4.00132306               14.01234321                0.01000000               -0.07127019                0.03687938                0.09076648                0.02653458               -0.02419006                0.07083131
               2.00022171                4.00117199               14.01195694                0.01000000               -0.06636949               -0.00541884                0.09013571                0.06907396               -0.02231301                0.05274123
               2.99953500                4.00143902               14.01191029                0.01308068               -0.07128816               -0.02555138                0.09542111                0.10564001               -0.01205935                0.04670019
               3.99879594                4.00189686               14.01194829                0.01000000               -0.07532809               -0.05141311                0.09645126                0.15217160               -0.01011606                0.03499071
               4.99802844                4.00262629               14.01203615                0.01000001               -0.07424572               -0.05385424                0.09672792                0.17823036               -0.00373625                0.03908121
               5.99731103                4.00348393               14.01223123                0.01000000               -0.07138930               -0.09355056                0.10147760                0.20580736                0.01271652                0.08253142
               6.99660066                4.00408721               14.01273054                0.01467519               -0.06278662               -0.09858983                0.09577841                0.21666627                0.00739938                0.07532580
               7.99605530                4.00493492               14.01295161                0.01255720               -0.04156405               -0.11861307                0.09990157                0.24621884               -0.01069171                0.07627797
               8.99576938                4.00518179               14.01324673                0.01000000               -0.00520050               -0.15792149                0.10854414                0.19436706                0.00232692                0.08409672
               9.99595129                4.00457202               14.01379224                0.01312772                0.01819116               -0.24117545                0.11257155                0.17280939                0.02177714                0.06321823
               0.00271790                5.00291662               14.01348761                0.01000000               -0.06980125                0.07650587                0.06986180                0.01231733               -0.01901576                0.10846168
               1.00201989                5.00160914               14.01304619                0.01000000               -0.07191549                0.02935401                0.08083787                0.07234599               -0.04520604                0.09476746
               2.00127959                5.00101409               14.01241192                0.01000001               -0.07685343               -0.02081285                0.09742947                0.11746089               -0.04692983                0.04735572
               3.00048282                5.00106360               14.01203346                0.01000000               -0.06404083               -0.06189332                0.09315896                0.16694919               -0.03399061                0.04623442
               3.99999878                5.00128898               14.01201984                0.01000001               -0.05963823               -0.05857577                0.09582218                0.18375140                0.00014611                0.02853446
               4.99929006                5.00195219               14.01214993                0.01000000               -0.06811522               -0.06397418                0.10235397                0.19241775                0.03367975                0.06208109
               5.99863647                5.00254670               14.01281844                0.01550094               -0.05572597               -0.08142760                0.08825267                0.18681457                0.03467299                0.06994821
               6.99817554                5.00306167               14.01293578                0.01359231               -0.04502700               -0.08915676                0.08971719                0.19636784                0.00905331                0.05393217
               7.99773593                5.00368659               14.01299355                0.01000000               -0.03351894               -0.12411510                0.10193229                0.17958846                0.02254213                0.10350981
               8.99750516                5.00375914               14.01359801                0.01000000               -0.00582343               -0.15757123                0.11415272                0.10725666                0.05082200                0.16071344
               9.99761946                5.00272038               14.01423626                0.01000000                0.01143046               -0.15480621                0.11773908                0.04177457                0.05647097                0.14058765
               0.00450840                6.00331247               14.01475845                0.96694388               -0.02965661                0.00459507                0.10060384                0.01921973               -0.00407538                0.08559726
               1.00421184                6.00191014               14.01414508                0.01000000               -0.06959678                0.00035619                0.09732297                0.05153309               -0.04604719                0.06074443
               2.00311647                6.00075573               14.01268290                0.01224324               -0.08063662               -0.03942786                0.09716855                0.11640807               -0.06603845                0.04637688
               3.00259911                6.00020116               14.01215895                0.01000001               -0.07670397               -0.06068786                0.09534323                0.18253555               -0.00581898                0.02308543
               4.00158239                6.00072535               14.01203100                0.01000000               -0.09900155               -0.05205964                0.09871350                0.20426194                0.03742340                0.02842025
               5.00061907                6.00134680               14.01260667                0.01550271               -0.08222740               -0.05250064                0.08733816                0.18892357                0.04874190                0.04582429
               5.99993784                6.00185538               14.01286973                0.01403629               -0.06154759               -0.06242650                0.07450828                0.17633680                0.02799894                0.03129893
               6.99938812                6.00230408               14.01309782                0.01000000               -0.04941225               -0.07690020                0.08510795                0.14016963                0.04398643                0.08026678
               7.99894960                6.00245261               14.01383832                0.01000000               -0.02537009               -0.14188888                0.11723703                0.07090288                0.10976722                0.21010193
               8.99888072                6.00203037               14.01534087                0.01076163               -0.00426508               -0.16987066                0.12778972                0.03685803                0.09749718                0.23684705
               9.99886429                6.00147590               14.01574758                0.01000002               -0.00164267               -0.11328109                0.13561923                0.02370421                0.04636145                0.21380844
               0.00590695                7.00300852               14.01458987                1.00000000               -0.02996613               -0.03056022                0.10157777                0.00010322               -0.00306539                0.01776047
               1.00560729                7.00161627               14.01387367                1.00000000               -0.02951048               -0.02955833                0.09837900               -0.00010249               -0.00671926               -0.00334520
               2.00531674                7.00022554               14.01307973                0.01000001               -0.07216840               -0.04085223                0.09538749                0.09086247               -0.01754857                0.01855645
               3.00416392                6.99984984               14.01214545                0.01000000               -0.11891825               -0.04960222                0.09712673                0.14763114                0.00167652                0.00768614
               4.00293837                7.00024778               14.01211015                0.01468047               -0.11127083               -0.04924835                0.09334450                0.20389334                0.04418119                0.00800149
               5.00193850                7.00090217               14.01237907                0.01359903               -0.08662187               -0.04405813                0.08553714                0.19416026                0.04510418                0.00777523
               6.00120594                7.00129817               14.01276428                0.01000000               -0.07784041               -0.04925919                0.08337695                0.14703132                0.08626759                0.03346656
               7.00038169                7.00152366               14.01378666                0.01000000               -0.08891186               -0.07700713                0.10808602                0.03835945                0.19053482                0.16217041
               7.99942770                7.00084881               14.01641990                0.01163990               -0.05813293               -0.12266131                0.12846192               -0.03213302                0.19223293                0.23100691
               8.99921904                7.00036172               14.01754268                0.01000000               -0.01126068               -0.17015629                0.13630348               -0.03766199                0.08311460                0.30941276
               9.99920249                7.00045476               14.01791114                0.01000000               -0.00165500               -0.12757791                0.13311254               -0.02477449                0.05040447                0.35577900
               0.00729497                8.00270126               14.01449697                0.99999999               -0.03021992               -0.03084801                0.10254794                0.00005146               -0.00106157                0.02256727
               1.00699277                8.00131897               14.01368704                1.00000000               -0.02974139               -0.02983468                0.09927475               -0.00009412               -0.00051231                0.00241441
               2.00670014                7.99993869               14.01288676                0.01116444               -0.07316446               -0.02879737                0.09602012                0.03232257               -0.00142613               -0.01474653
               3.00552948                7.99920911               14.01205930                0.01452359               -0.10461069               -0.07845334                0.11359206                0.17129493                0.01179302               -0.01143233
               4.00460793                7.99974038               14.01181037                0.01256948               -0.10387936               -0.03256059                0.08832716                0.21413561                0.05867795               -0.01875681
               5.00345189                8.00046564               14.01201611                0.01000000               -0.11754749               -0.03324341                0.09425123                0.18644622                0.10973349                0.00498045
               6.00225698                8.00087019               14.01302221                0.01000000               -0.14236127               -0.02140647                0.11134563                0.09091623                0.21524475                0.08742558
               7.00060467                8.00076393               14.01573100                0.01169316               -0.13940522               -0.04466952                0.12303404               -0.01136269                0.26100989                0.15070674
               7.99946887                7.99999939               14.01784523                0.01000002               -0.10415655               -0.06343049                0.13731237               -0.11161096                0.27280612                0.15401791
               8.99852154                7.99862724               14.02087469                0.01412230               -0.06430682               -0.14385342                0.16091707               -0.16450151                0.23383297                0.38304028
               9.99818274                7.99892434               14.02223051                0.01000000               -0.03388003               -0.15796740                0.17067249               -0.10744805                0.15300004                0.35218343
               0.00867255                9.00239156               14.01442313                0.99994471               -0.03045729               -0.03103915                0.10324128                0.00007093                0.00213788                0.01871696
               1.00836798                9.00101957               14.01353098                0.99999999               -0.02997501               -0.03001029                0.09992570               -0.00004502                0.00111211                0.00253387
               2.00807305                8.99964959               14.01261887                0.99932601               -0.02899267               -0.02900654                0.09656554               -0.00009209               -0.00478826               -0.01087537
               3.00778812                8.99828078               14.01161180                0.01000002               -0.10542448               -0.06042293                0.09311542                0.17838304                0.04062911               -0.02576392
               4.00596456                8.99959657               14.01161333                0.01000000               -0.16252543                0.00485170                0.09840343                0.18048488                0.12758104               -0.01726709
               5.00453762                9.00023730               14.01202388                0.01000000               -0.16192968                0.00105223                0.09950233                0.11120545                0.19069429                0.02784297
               6.00272597                9.00087004               14.01396361                0.01089624               -0.17561856                0.00503813                0.11909076                0.05170479                0.25580114                0.08060033
               7.00102524                9.00063027               14.01622683                0.01000002               -0.16968983               -0.00430648                0.12587731               -0.01092602                0.28387184                0.04727157
               7.99933217                8.99958020               14.01893169                0.01000001               -0.20105964               -0.01312483                0.14420546               -0.13736220                0.45015585                0.12092590
               8.99700405                8.99748466               14.02469110                0.99999998               -0.14364226               -0.08437420                0.18294829               -0.18115502                0.29699799                0.20275776
               9.99645933                8.99729541               14.02449643                0.99979875               -0.05447262               -0.10817970                0.17987501               -0.09564151               -0.00058520                0.12394103
               0.01004036               10.00208048               14.01425434                1.00000000               -0.03065168               -0.03110807                0.10387724                0.00060959                0.01235016                0.01392840
               1.00973384               10.00071877               14.01334908                0.99890924               -0.03016295               -0.03008061                0.10057438                0.00049009                0.01540130                0.00108768
               2.00943710                9.99935856               14.01250708                0.99999998               -0.02918401               -0.02910325                0.09726335                0.00049899                0.01537499               -0.00333629
               3.00915016                9.99800066               14.01160652                0.01000000               -0.15879990               -0.02801223                0.09392850                0.16014637                0.05916520               -0.00401110
               4.00626110                9.99983741               14.01164788                0.01347433               -0.23738122                0.02408427                0.09605524                0.15395524                0.15322205               -0.00886336
               5.00440253               10.00048668               14.01219738                0.01000000               -0.16814961                0.02493795                0.10118113                0.04316888                0.19143647                0.04762686
               6.00289811               10.00097095               14.01398372                0.01000001               -0.13632746                0.01009139                0.12484209                0.02676992                0.23599445                0.03936777
               7.00167599               10.00067780               14.01601847                0.01062299               -0.15154304                0.00475316                0.11892910                0.00337092                0.33036156                0.01601449
               7.99986725                9.99973689               14.01968821                0.01000000               -0.22463770                0.01566875                0.15183675               -0.13339473                0.45530588                0.10936706
               8.99718323                9.99693976               14.02446650                0.99981001               -0.16094236               -0.05448974                0.17997826               -0.13088922                0.24946709                0.00081920
               9.99664840                9.99676075               14.02427182                0.99769615               -0.05348326               -0.05346620                0.17690402                0.00100628                0.00069752               -0.00069784
               0.00107211                0.00116376               15.01181408                1.00000000               -0.02386408               -0.02372767                0.07938819               -0.00004562               -0.00318758                0.00297163
               1.00083347                0.00057129               15.01177733                1.00000000               -0.02390522               -0.02381180                0.07965713                0.00003989               -0.00356977               -0.00103890
               2.00059400               -0.00002300               15.01173483                0.01053080               -0.02265625               -0.02389732                0.07992661                0.07151822                0.02097548               -0.00150286
               3.00038034                0.00081035               15.01219053                0.01000000               -0.07019177                0.03204277                0.08360289                0.03434171                0.05933096                0.00236992
               3.99919017                0.00231530               15.01297525                0.01000001               -0.13179652                0.02055317                0.09370148                0.04069020                0.07925220               -0.00309286
               4.99774441                0.00395497               15.01385169                0.01000000               -0.17944156                0.01937039                0.10432581                0.08852881                0.11456287               -0.01010255
               5.99560134                0.00669352               15.01541681                0.63707184               -0.12353227               -0.03143019                0.10724708                0.09935598                0.05163363               -0.00104032
               6.99527376                0.00743957               15.01615729                0.99934413               -0.03326571               -0.03247942                0.11077753                0.00053683                0.00894967               -0.00182454
               7.99493602                0.00817046               15.01686867                0.99999999               -0.03426506               -0.03347456                0.11405012                0.00052141                0.00795484               -0.00021072
               8.99458846                0.00888629               15.01758840                1.00000000               -0.03523810               -0.03445956                0.11730503                0.00051381                0.00668193                0.00086151
               9.99423126                0.00958747               15.01827288                1.00000000               -0.03572045               -0.03547624                0.12055693                0.00126725                0.00501138                0.00467796
               0.00166412                1.00092649               15.01185404                0.99980859               -0.02368780               -0.02364390                0.07882422               -0.00008710                0.00098828                0.00323152
               1.00142725                1.00033317               15.01181841                0.01000000               -0.02372342               -0.02372998                0.07909413               -0.00000270                0.00253381               -0.00264400
               2.00118966                0.99973803               15.01181355                0.01000000               -0.09363189                0.03030199                0.07936723                0.03395298                0.02420755                0.00657072
               2.99955461                1.00113078               15.01221079                0.01000001               -0.15824497                0.03710366                0.08528663                0.07103612                0.03678012                0.01220965
               3.99802476                1.00252083               15.01276739                0.01000000               -0.15570094                0.01800860                0.09092831                0.07358084                0.04117269                0.00291925
               4.99644059                1.00414868               15.01343476                0.01000000               -0.15860802                0.00076682                0.09962147                0.12081806                0.05589129               -0.00029825
               5.99485260                1.00637922               15.01452314                0.01000000               -0.09499628               -0.06465143                0.10243664                0.12817145                0.02155167               -0.00385091
               6.99454066                1.00711478               15.01521660                1.00000000               -0.03173583               -0.03174827                0.10589673                0.00001516                0.00140263               -0.00234299
               7.99421788                1.00783571               15.01590381                0.99939211               -0.03277837               -0.03276757                0.10923187                0.00003398                0.00113124               -0.00009941
               8.99388510                1.00854169               15.01659297                1.00000000               -0.03375660               -0.03375314                0.11252674                0.00003350                0.00076312                0.00055978
               9.99354275                1.00923271               15.01727344                0.99965762               -0.03423492               -0.03477678                0.11580307                0.00073689                0.00032369                0.00598053
               0.00225699                2.00069089               15.01190021                0.01871618               -0.02351233               -0.01221116                0.07826321               -0.04581785                0.00137872                0.04923906
               1.00202187                2.00009669               15.01182804                0.01000000               -0.08907679                0.02713823                0.07852933               -0.00896450                0.01639578                0.04169165
               2.00047546                2.00058304               15.01205401                0.01000001               -0.15018062                0.07070311                0.08304884                0.01913000                0.02276817                0.02538743
               2.99901826                2.00155242               15.01231185                0.01000000               -0.14157881                0.02978964                0.08749435                0.07436715                0.01340299                0.02642115
               3.99764388                2.00267547               15.01262783                0.01000000               -0.13579358                0.00251999                0.09229677                0.11519856                0.00834594                0.02299604
               4.99630239                2.00397031               15.01306467                0.01000001               -0.12226095               -0.04415132                0.09733542                0.17323149                0.00201391                0.02019414
               5.99519866                2.00540049               15.01357514                0.01194760               -0.12424071               -0.06699778                0.10243725                0.17932581                0.00700518                0.00291920
               6.99381757                2.00680461               15.01426627                0.01000003               -0.08444369               -0.06559885                0.10104307                0.11914347               -0.00334317                0.01233040
               7.99350979                2.00751511               15.01494118                0.01773156               -0.03127168               -0.04464779                0.10441115                0.02299440               -0.00557284                0.00150768
               8.99319214                2.00821122               15.01559091                0.99999999               -0.03229142               -0.03230218                0.10775278                0.00007085               -0.00405123               -0.00161455
               9.99286396                2.00889194               15.01629891                0.99682921               -0.03281780               -0.03337706                0.11105844                0.00075767               -0.00123299                0.00602546
               0.00193616                3.00068226               15.01285938                0.01335614               -0.05803563                0.04175998                0.06640326               -0.00924828               -0.00291960                0.05858281
               1.00135580                3.00087594               15.01275452                0.01000001               -0.09098160                0.06287495                0.07192540               -0.02845476                0.00532773                0.05809599
               2.00011652                3.00115209               15.01236792                0.01000000               -0.12031407                0.03590702                0.08911459                0.03021030               -0.00942492                0.04681533
               2.99894952                3.00172657               15.01249139                0.01000000               -0.11028431                0.00498033                0.09091617                0.09154700                0.00103973                0.04045128
               3.99791084                3.00257123               15.01270632                0.01273142               -0.08846590               -0.02818029                0.08746592                0.12713800               -0.00228860                0.03577504
               4.99718020                3.00326565               15.01294060                0.01000000               -0.11530124               -0.05168517                0.09299650                0.20057513               -0.00333644                0.02833724
               5.99560481                3.00503926               15.01316443                0.01000000               -0.11856424               -0.06852872                0.10217537                0.22004658               -0.00839658                0.04811559
               6.99480892                3.00580280               15.01362147                0.01000000               -0.11668313               -0.10213430                0.10468504                0.21729256               -0.00867591                0.05355018
               7.99327115                3.00694276               15.01401046                0.01402096               -0.11496152               -0.08882188                0.10425349                0.21022002               -0.01801931                0.04261642
               8.99250969                3.00789565               15.01455329                0.01000000               -0.05373375               -0.10854155                0.10293007                0.18696983               -0.01164330                0.03807504
               9.99219648                3.00856517               15.01530101                0.18098262               -0.03132095               -0.18295275                0.10624702                0.20281912               -0.00159755                0.03761588
               0.00168468                4.00152609               15.01345500                0.01000000               -0.07017334                0.11508764                0.06613096                0.03103867               -0.02065323                0.05244682
               1.00098295                4.00135419               15.01319777                0.01000000               -0.07278251                0.04327569                0.07904819                0.01910410               -0.02377236                0.05746633
               2.00022903                4.00130118               15.01286436                0.01000000               -0.07764467               -0.00193156                0.09054243                0.07331135               -0.02304528                0.06196289
               2.99943006                4.00165203               15.01277469                0.01273243               -0.07907364               -0.01868022                0.08677423                0.11180590               -0.01491960                0.03995723
               3.99864756                4.00211187               15.01276537                0.01000000               -0.07920979               -0.05355936                0.08367978                0.16632507               -0.00970416                0.03381650
               4.99784586                4.00293661               15.01290043                0.01000001               -0.07925577               -0.04803153                0.08776475                0.19898673                0.00142166                0.04562309
               5.99706244                4.00402992               15.01323325                0.01000000               -0.07929658               -0.10112231                0.09884089                0.23789713                0.01205474                0.08280275
               6.99625993                4.00476192               15.01373184                0.01395027               -0.07205496               -0.10565497                0.10035587                0.24329107               -0.00274875                0.08450031
               7.99562134                4.00573867               15.01398631                0.01197674               -0.04754011               -0.13068656                0.10250150                0.27697249               -0.01941527                0.08922471
               8.99530913                4.00604039               15.01434818                0.01000000               -0.00200209               -0.17682050                0.10998292                0.21664151               -0.00283769                0.09959046
               9.99558130                4.00523288               15.01496080                0.01293497                0.02721768               -0.27006625                0.12018628                0.18544683                0.01799513                0.07498974
               0.00290072                5.00298402               15.01440624                0.01000005               -0.09379347                0.10439198                0.09025697                0.04637903               -0.02572416                0.12931731
               1.00196279                5.00174145               15.01394606                0.01000000               -0.08079038                0.03731873                0.08928000                0.09760171               -0.04750359                0.10529874
               2.00128491                5.00111346               15.01336592                0.01000001               -0.07939176               -0.02169110                0.09305406                0.14212472               -0.04784996                0.04865445
               3.00037495                5.00135296               15.01288025                0.01000000               -0.06660759               -0.06546967                0.08727624                0.19156654               -0.02669231                0.03906943
               3.99995276                5.00150005               15.01287178                0.01000001               -0.05665325               -0.05906860                0.08629813                0.20443196                0.00898218                0.03369422
               4.99924189                5.00230502               15.01311509                0.01000000               -0.07076600               -0.06454018                0.09368882                0.22155331                0.03326448                0.06269711
               5.99853744                5.00301682               15.01366270                0.01459766               -0.06379510               -0.09000607                0.08907256                0.21588486                0.02373823                0.07354329
               6.99796598                5.00368970               15.01386294                0.01277985               -0.05026555               -0.10204827                0.09657439                0.22086112               -0.00288714                0.07852984
               7.99753213                5.00432903               15.01407763                0.01000000               -0.03088391               -0.14120898                0.10955273                0.19719992                0.01911871                0.12234347
               8.99734831                5.00435924               15.01477443                0.01000000               -0.00058469               -0.17943694                0.11584542                0.11973262                0.04532024                0.18167358
               9.99752044                5.00316384               15.01543881                0.01000000                0.01721309               -0.17234176                0.11690385                0.04662273                0.05018222                0.16005432
               0.00509739                6.00361393               15.01575623                0.96069416               -0.02918543                0.01646889                0.09915860                0.03407361               -0.00400315                0.08939918
               1.00480554                6.00210056               15.01511150                0.01000000               -0.08186911                0.00334291                0.09617624                0.08010330               -0.04464200                0.06400366
               2.00346001                6.00086736               15.01364794                0.01195248               -0.09653704               -0.04040472                0.09648113                0.14892533               -0.06243627                0.04288169
               3.00287480                6.00034264               15.01313006                0.01000000               -0.08379350               -0.07069960                0.09666670                0.22018332               -0.00259209                0.02237022
               4.00178414                6.00093050               15.01299886                0.01000000               -0.10573223               -0.05607730                0.09558347                0.23708867                0.03839536                0.02868371
               5.00076016                6.00164580               15.01344532                0.01459944               -0.08943417               -0.06167348                0.08865194                0.21982603                0.05107862                0.03599868
               5.99999546                6.00222980               15.01369546                0.01313036               -0.06976075               -0.07177270                0.08945373                0.19703623                0.03402690                0.03896760
               6.99936494                6.00272096               15.01400452                0.01000000               -0.05498254               -0.09311388                0.09904594                0.15868988                0.06231579                0.10020654
               7.99889581                6.00291449               15.01501521                0.01000000               -0.02479888               -0.15639347                0.12074943                0.08434968                0.12355775                0.23335160
               8.99886896                6.00245165               15.01661643                0.01106477                0.00043690               -0.18204489                0.12673864                0.04146029                0.10026734                0.25425548
               9.99890455                6.00178605               15.01708051                0.01000001                0.00355840               -0.11943358                0.13137230                0.02368078                0.04937382                0.22452301
               0.00660891                7.00331339               15.01560095                0.99999999               -0.02974963               -0.03035887                0.10079990                0.00015921               -0.00289770                0.01815795
               1.00631142                7.00180831               15.01485478                1.00000000               -0.02937821               -0.02949043                0.09797685               -0.00022487               -0.00651741               -0.00292439
               2.00602135                7.00030537               15.01403379                0.01000000               -0.07979679               -0.04248561                0.09552128                0.10933061               -0.01538562                0.01745998
               3.00471548                6.99993897               15.01311027                0.01000000               -0.13149915               -0.04729373                0.09577902                0.17175959                0.00858927                0.00213849
               4.00339137                7.00037850               15.01309425                0.01395548               -0.11881876               -0.06202122                0.09930898                0.23059089                0.06060444               -0.00589392
               5.00233911                7.00107155               15.01326840                0.01278632               -0.09941769               -0.05338945                0.09424218                0.22439829                0.06954946               -0.00346896
               6.00140301                7.00158136               15.01364851                0.01000000               -0.09420102               -0.05543656                0.09712742                0.16996982                0.10658409                0.05173012
               7.00045509                7.00182743               15.01491476                0.01000000               -0.09572930               -0.08240958                0.11768763                0.05491755                0.21324742                0.18346584
               7.99948843                7.00120116               15.01770925                0.01165243               -0.05745646               -0.13042547                0.12988643               -0.01817396                0.20532279                0.24933994
               8.99930596                7.00071834               15.01887330                0.01000000               -0.00815790               -0.17730407                0.13306247               -0.03069719                0.08373218                0.33168064
               9.99932527                7.00077517               15.01918707                0.01000000                0.00193118               -0.13091598                0.12767185               -0.02121584                0.04428680                0.37625953
               0.00811075                8.00300675               15.01552126                0.99999999               -0.03016772               -0.03084624                0.10236445                0.00008588               -0.00104796                0.02269171
               1.00780907                8.00151076               15.01468006                1.00000000               -0.02973944               -0.02990765                0.09937664               -0.00014937               -0.00053586                0.00246360
               2.00751596                8.00001765               15.01384876                0.01000000               -0.07861080               -0.02893767                0.09642372                0.04328684                0.00635042               -0.01496578
               3.00623686                7.99939676               15.01314674                0.01402973               -0.11262895               -0.08469863                0.11038235                0.18353046                0.05159046               -0.05110271
               4.00526338                7.99969007               15.01273175                0.01198875               -0.10957991               -0.05664673                0.09564623                0.25963304                0.07242800               -0.02727440
               5.00404526                8.00057801               15.01302454                0.01000000               -0.13122003               -0.03529668                0.10409205                0.22642015                0.13525293                0.00003589
               6.00263898                8.00112106               15.01414178                0.01000000               -0.16008812               -0.02013529                0.11666856                0.11563327                0.23915505                0.10280354
               7.00084350                8.00107276               15.01697230                0.01170385               -0.14987832               -0.04293662                0.12578536                0.00654941                0.27979426                0.16156022
               7.99964141                8.00030598               15.01921204                0.01000002               -0.10812456               -0.06596695                0.13772471               -0.10206480                0.29383615                0.16696737
               8.99868100                7.99890557               15.02246739                0.01418305               -0.06374243               -0.14935774                0.15876769               -0.16185936                0.25255550                0.41184768
               9.99836657                7.99916773               15.02391560                0.01000000               -0.03144385               -0.16230867                0.16717135               -0.10687339                0.16449323                0.38098785
               0.00960261                9.00269647               15.01545531                1.00000000               -0.03050842               -0.03110813                0.10328852                0.00011384                0.00215186                0.01858100
               1.00929753                9.00121016               15.01453181                0.99999999               -0.03007662               -0.03015423                0.10028652               -0.00006276                0.00107444                0.00239264
               2.00900108                8.99972661               15.01358816                1.00000000               -0.02919313               -0.02922793                0.09723016               -0.00012359               -0.00488286               -0.01104526
               3.00871367                8.99824500               15.01254859                0.01511429               -0.07991543               -0.07175781                0.09405249                0.17352664                0.04344001               -0.03385139
               4.00740277                8.99924557               15.01257598                0.01000000               -0.16385756               -0.01462650                0.09067049                0.24614704                0.15903453               -0.04088736
               5.00543652                9.00036562               15.01307239                0.01000000               -0.20909228                0.01140147                0.11249062                0.15815484                0.21813734                0.02601627
               6.00322093                9.00117866               15.01517099                0.01120132               -0.20176794                0.01127165                0.12209092                0.06693209                0.27195406                0.08615088
               7.00140116                9.00096869               15.01746844                0.01000002               -0.18033022               -0.00138287                0.12551433               -0.00060601                0.29898814                0.04687921
               7.99961432                8.99988182               15.02037070                0.01000001               -0.20970659               -0.01120038                0.14461422               -0.13376835                0.48143984                0.13176140
               8.99720703                8.99773118               15.02651711                0.99999998               -0.14754147               -0.08590886                0.18225511               -0.18161856                0.31771674                0.21572926
               9.99666349                8.99752900               15.02629505                0.99945098               -0.05435315               -0.10872517                0.17984942               -0.09527593               -0.00058721                0.13092030
               0.01108565               10.00238458               15.01529391                1.00000000               -0.03079785               -0.03118848                0.10418699                0.00061263                0.01240829                0.01372735
               1.01077768               10.00090767               15.01435776                0.99962407               -0.03035045               -0.03024847                0.10121042                0.00043976                0.01543406                0.00094192
               2.01047864                9.99943309               15.01348525                0.99882513               -0.02946199               -0.02935226                0.09821799                0.00045297                0.01542451               -0.00338917
               3.01018844                9.99796160               15.01255330                0.01000001               -0.12064698               -0.02833958                0.09518321                0.14569945                0.05736932               -0.00400339
               4.00806571                9.99939754               15.01252556                0.01331632               -0.24565859                0.01519758                0.08075959                0.20851520                0.17922598               -0.03939846
               5.00527526               10.00080604               15.01325519                0.01000000               -0.23455788                0.04404262                0.11058714                0.08132261                0.21698218                0.04757809
               6.00337455               10.00134650               15.01522643                0.01000001               -0.15735249                0.01678408                0.12404994                0.02731522                0.24597676                0.04432877
               7.00212821               10.00104511               15.01718083                0.01121303               -0.15854959                0.00764147                0.11804889                0.00947952                0.34405249                0.00977136
               8.00020356               10.00008197               15.02119597                0.01000001               -0.23633799                0.02001555                0.15030520               -0.13396233                0.48858051                0.11871855
               8.99740145                9.99718740               15.02626641                0.99946596               -0.16690672               -0.05437895                0.18000477               -0.13499467                0.26544379                0.00081916
               9.99686542                9.99699322               15.02604435                0.99781991               -0.05360326               -0.05357753                0.17759914                0.00077551                0.00069888               -0.00069832
               0.00107563                0.00115635               16.01260963                1.00000000               -0.02395822               -0.02377824                0.07972121               -0.00010544               -0.00318948                0.00297291
               1.00083604                0.00052263               16.01257526                1.00000000               -0.02399139               -0.02384409                0.07992939                0.00002861               -0.00357140               -0.00103954
               2.00059580               -0.00011396               16.01253514                0.01003285               -0.02645558               -0.02391068                0.08013729                0.08033774                0.02395808               -0.00150353
               3.00030693                0.00085258               16.01305293                0.01000000               -0.07649849                0.03708930                0.08783826                0.04093571                0.06147598                0.00457479
               3.99906583                0.00249468               16.01389180                0.01000001               -0.14493649                0.02615897                0.09110321                0.04474206                0.07702934               -0.00015408
               4.99740820                0.00436819               16.01495101                0.01000000               -0.20587666                0.02919711                0.11196591                0.10668354                0.09493937               -0.00258868
               5.99494830                0.00760078               16.01648987                0.62721585               -0.13936819               -0.03151829                0.10735125                0.12212025                0.04877530               -0.00104298
               6.99462084                0.00838604               16.01726489                0.99925696               -0.03323529               -0.03251330                0.11072687                0.00051779                0.00901658               -0.00191120
               7.99428359                0.00915726               16.01800823                0.99999999               -0.03420392               -0.03347792                0.11388651                0.00050997                0.00791147               -0.00018241
               8.99393676                0.00991443               16.01876014                1.00000000               -0.03516635               -0.03444314                0.11709194                0.00049953                0.00665492                0.00093746
               9.99358026                0.01065786               16.01947695                0.99999999               -0.03564976               -0.03544283                0.12030286                0.00121135                0.00496845                0.00472963
               0.00170829                1.00091857               16.01264232                0.99968493               -0.02368077               -0.02364675                0.07883095               -0.00013822                0.00098961                0.00323343
               1.00147148                1.00028419               16.01260908                0.01186992               -0.02370460               -0.02371356                0.07903982               -0.00000462                0.00253612               -0.00264568
               2.00123420                0.99964694               16.01260663                0.01000000               -0.10297560                0.03520584                0.07924991                0.04040603                0.02681116                0.01354928
               2.99941197                1.00122347               16.01305829                0.01000001               -0.17393783                0.04226546                0.08520716                0.08228859                0.03650281                0.01673458
               3.99775544                1.00275627               16.01365922                0.01000000               -0.17449933                0.02435767                0.08855020                0.08459221                0.03562705                0.01201403
               4.99592199                1.00466016               16.01443841                0.01000000               -0.17974362                0.00600008                0.10047702                0.14886311                0.04225459                0.00890082
               5.99416057                1.00728560               16.01554977                0.01000001               -0.10371041               -0.07286081                0.10285191                0.15447295                0.02109585               -0.00128638
               6.99384778                1.00806091               16.01627682                1.00000000               -0.03180386               -0.03182377                0.10613879                0.00002480                0.00146028               -0.00241240
               7.99352449                1.00882248               16.01699709                0.99999995               -0.03281620               -0.03281478                0.10937515                0.00003418                0.00114912               -0.00007597
               8.99319145                1.00957000               16.01771881                1.00000000               -0.03377722               -0.03377661                0.11260365                0.00002489                0.00073707                0.00061078
               9.99284895                1.01030343               16.01843126                0.99999998               -0.03425038               -0.03477777                0.11581327                0.00068743                0.00025692                0.00601342
               0.00234162                2.00068342               16.01268123                0.01413829               -0.02340348               -0.02908367                0.07794143               -0.05090830                0.00137963                0.01953520
               1.00210759                2.00004836               16.01261143                0.01000000               -0.09384927                0.01897782                0.07814767               -0.00439420                0.02338013                0.01898969
               2.00046463                2.00059016               16.01297945                0.01000001               -0.16321057                0.08007467                0.08467623                0.02520178                0.02351342                0.03883848
               2.99884337                2.00169789               16.01316151                0.01000000               -0.15718252                0.03486691                0.08658851                0.08784955                0.00691721                0.03449850
               3.99732098                2.00298183               16.01353904                0.01000000               -0.14936201                0.00694646                0.09043681                0.13412408                0.00710403                0.03113237
               4.99585613                2.00448819               16.01402860                0.01000001               -0.13419891               -0.04499545                0.09535732                0.20137136                0.00363631                0.02820154
               5.99463701                2.00614356               16.01460639                0.01174932               -0.13858402               -0.07818419                0.10281638                0.21166297                0.00336794                0.00854030
               6.99308445                2.00774957               16.01527930                0.01000000               -0.09309120               -0.07110099                0.10157113                0.13916359               -0.00584959                0.01628055
               7.99277518                2.00850096               16.01598813                0.01696525               -0.03140749               -0.04782136                0.10485634                0.02893863               -0.00550465                0.00553317
               8.99245630                2.00923890               16.01667065                0.99999999               -0.03240145               -0.03241042                0.10812327                0.00006983               -0.00405607               -0.00161431
               9.99212715                2.00996231               16.01741066                0.99892667               -0.03291509               -0.03345607                0.11133646                0.00070946               -0.00128005                0.00604369
               0.00196024                3.00033690               16.01303904                0.01222685               -0.04833821                0.03005065                0.04418403                0.00303000                0.00241067                0.06261382
               1.00147686                3.00066375               16.01307664                0.01000001               -0.09357676                0.06162444                0.05981928               -0.01092286               -0.00399794                0.06789052
               2.00008871                3.00124843               16.01334457                0.01000000               -0.13497824                0.04115458                0.09280737                0.04881567               -0.00246675                0.04941801
               2.99877729                3.00192081               16.01338249                0.01000000               -0.12205414                0.00757091                0.08892081                0.10694940               -0.00931635                0.04566238
               3.99764762                3.00289519               16.01358159                0.01248927               -0.09948072               -0.02870466                0.08899030                0.14972881               -0.00487539                0.03959769
               4.99678768                3.00376025               16.01387435                0.01000000               -0.12575835               -0.05619657                0.09382228                0.22797930               -0.00992193                0.03966292
               5.99513246                3.00572191               16.01417710                0.01000000               -0.12570137               -0.07509276                0.10051380                0.24811731               -0.01008777                0.05153444
               6.99427365                3.00663889               16.01466732                0.01000000               -0.12592607               -0.11069134                0.10424469                0.24261511               -0.01098185                0.05840182
               7.99261393                3.00786605               16.01509080                0.01365118               -0.12710725               -0.09243605                0.10730332                0.22791881               -0.02163230                0.04717588
               8.99173151                3.00892179               16.01558602                0.01000002               -0.05988004               -0.11432201                0.10362026                0.20250444               -0.01562715                0.04366299
               9.99141633                3.00963431               16.01636643                0.19048036               -0.03151734               -0.20141397                0.10683067                0.21919118               -0.00156351                0.04842322
               0.00174852                4.00128443               16.01392967                0.01000000               -0.07709238                0.14324237                0.05895505                0.05781931                0.00004746                0.12006544
               1.00097760                4.00128085               16.01392417                0.01000000               -0.07823185                0.05688202                0.07537598                0.03810516               -0.01356466                0.09074700
               2.00018388                4.00141325               16.01376779                0.01000000               -0.08209996               -0.00224139                0.08906125                0.09340769               -0.02246435                0.05660442
               2.99933560                4.00184931               16.01364578                0.01249025               -0.08538814               -0.02155976                0.08847886                0.13301552               -0.01860227                0.03963562
               3.99847612                4.00240774               16.01362188                0.01000000               -0.08732971               -0.05829120                0.08807373                0.19054580               -0.01107192                0.03933324
               4.99758900                4.00336426               16.01379145                0.01000000               -0.08777022               -0.05495072                0.09151651                0.23053580                0.00219558                0.05314372
               5.99672071                4.00464171               16.01420805                0.01000000               -0.08981919               -0.10832776                0.09824518                0.27012045                0.01124788                0.08450887
               6.99579262                4.00553574               16.01473766                0.01339504               -0.08350296               -0.11396564                0.10240341                0.27198751               -0.00962639                0.08983077
               7.99505066                4.00665224               16.01500164                0.01151904               -0.05272427               -0.13807440                0.10258529                0.30048050               -0.02856875                0.09579617
               8.99473813                4.00695246               16.01544639                0.01000000                0.00176444               -0.18987195                0.10741903                0.23003333               -0.02338172                0.14335997
               9.99508594                4.00593403               16.01619597                0.01278460                0.03478115               -0.29162773                0.11159512                0.19205707               -0.00845853                0.13811502
               0.00312379                5.00320174               16.01529275                0.01000000               -0.10136487                0.13106548                0.08599591                0.05842786               -0.02289836                0.16746010
               1.00211014                5.00180139               16.01483179                0.01000000               -0.08676953                0.05003209                0.08767832                0.12257735               -0.03423081                0.11635924
               2.00138840                5.00120360               16.01427300                0.01000001               -0.08335109               -0.02338787                0.09049531                0.16767656               -0.04061522                0.05084507
               3.00044312                5.00148962               16.01377899                0.01000000               -0.07224067               -0.07153823                0.09088027                0.21932563               -0.02030810                0.03739570
               3.99994359                5.00172937               16.01374580                0.01000000               -0.06393479               -0.06655943                0.08998101                0.23652712                0.01183269                0.03999231
               4.99916442                5.00266124               16.01402370                0.01000000               -0.07901003               -0.07253998                0.09316780                0.25905202                0.03452461                0.06719376
               5.99836338                5.00355536               16.01459990                0.01389172               -0.07307766               -0.09963915                0.09735904                0.25183991                0.02358866                0.07816522
               6.99770287                5.00435958               16.01486727                0.01212945               -0.05782801               -0.11396751                0.10385644                0.25356362                0.00052783                0.08683139
               7.99720682                5.00510456               16.01518460                0.01000000               -0.03262408               -0.15821085                0.11287306                0.22614832                0.01432438                0.14535800
               8.99705039                5.00512436               16.01591492                0.01000000                0.00437613               -0.19679274                0.11550418                0.13899139                0.03340620                0.21332780
               9.99729435                5.00380176               16.01657434                0.01000000                0.02439591               -0.18579639                0.11561309                0.05962345                0.04401923                0.18657638
               0.00571779                6.00390574               16.01674162                0.94832163               -0.02905046                0.02024508                0.09862588                0.04845232               -0.00384391                0.09430966
               1.00542728                6.00228149               16.01606861                0.01000000               -0.09343033                0.00939196                0.09594416                0.09868550               -0.04306713                0.06759747
               2.00384918                6.00094549               16.01461253                0.01175414               -0.11154728               -0.04148443                0.09614204                0.17510952               -0.05741003                0.04405836
               3.00319634                6.00041854               16.01409229                0.01000000               -0.09070716               -0.08068383                0.09573613                0.24815896                0.00045854                0.02229009
               4.00203504                6.00107655               16.01394267                0.01000000               -0.11261418               -0.06661731                0.09594885                0.27718328                0.04009721                0.03358409
               5.00094406                6.00191346               16.01437971                0.01389342               -0.09879329               -0.07038319                0.09692946                0.25915966                0.05356412                0.04061515
               6.00005917                6.00264893               16.01465881                0.01240223               -0.08146850               -0.08344564                0.10175205                0.23354039                0.04094442                0.04962374
               6.99931469                6.00325639               16.01507874                0.01000000               -0.06251641               -0.10671871                0.11244340                0.18610622                0.07431782                0.12015702
               7.99880884                6.00348802               16.01625331                0.01000000               -0.02469592               -0.17328929                0.12675914                0.10645031                0.13061567                0.25364811
               8.99882077                6.00301661               16.01787564                0.01121434                0.00573833               -0.19899885                0.12703384                0.05477745                0.10090154                0.27650264
               9.99892361                6.00221810               16.01837503                0.01000001                0.01028448               -0.13284494                0.12919953                0.02846550                0.05177651                0.24261443
               0.00734133                7.00360664               16.01660587                0.99999999               -0.02972376               -0.03025034                0.10058446                0.00018946               -0.00263647                0.01880673
               1.00704410                7.00198923               16.01583321                1.00000000               -0.02938996               -0.02951357                0.09799702               -0.00027340               -0.00622911               -0.00225712
               2.00675353                7.00037391               16.01499015                0.01000000               -0.08844262               -0.04302437                0.09582417                0.11990016               -0.01415168                0.01633235
               3.00527524                6.99987594               16.01406103                0.01000000               -0.13806013               -0.08349005                0.10058850                0.22525412                0.01456279                0.00679882
               4.00399233                7.00039702               16.01409633                0.01340024               -0.12500029               -0.06816897                0.10023884                0.27606415                0.06827310               -0.00577561
               5.00277524                7.00125358               16.01426391                0.01213539               -0.11505346               -0.06255464                0.10365718                0.26461397                0.07469545                0.00611573
               6.00169126                7.00188644               16.01470683                0.01000000               -0.10946712               -0.06225742                0.11112793                0.20023866                0.12263123                0.06872972
               7.00058590                7.00222520               16.01614041                0.01000000               -0.10578239               -0.09074675                0.12743178                0.07839698                0.22970992                0.20194719
               7.99957562                7.00163878               16.01901762                0.01163123               -0.05850167               -0.14053672                0.13237736               -0.00195821                0.21303766                0.26475057
               8.99941586                7.00114438               16.02020393                0.01000000               -0.00574699               -0.18981117                0.13462171               -0.02227972                0.08433672                0.35431840
               9.99946068                7.00114486               16.02046458                0.01000000                0.00448131               -0.13909916                0.13020246               -0.01732381                0.04097819                0.39929516
               0.00895642                8.00330073               16.01654426                0.99999998               -0.03018667               -0.03080560                0.10229980                0.00011182               -0.00103098                0.02288259
               1.00865455                8.00169122               16.01567458                1.00000000               -0.02979724               -0.02997501                0.09958073               -0.00016011               -0.00057883                0.00256138
               2.00836047                8.00008501               16.01481523                0.02140703               -0.04881201               -0.02908551                0.09689563                0.01313012                0.01537294               -0.01527214
               3.00767831                7.99874874               16.01426695                0.01365977               -0.10908918               -0.08393772                0.08182955                0.20110119                0.06725096               -0.06145022
               4.00617869                7.99971317               16.01372330                0.01153067               -0.14656972               -0.07060078                0.10568000                0.32713727                0.08077781               -0.03051691
               5.00474691                8.00066237               16.01409795                0.01000000               -0.15431848               -0.03633017                0.11016429                0.26103595                0.14978829                0.01401130
               6.00309232                8.00140378               16.01535558                0.01000000               -0.18083107               -0.01890187                0.12485087                0.14284124                0.25238965                0.11680814
               7.00113029                8.00144146               16.01824670                0.01168049               -0.16209052               -0.04329381                0.12930295                0.02464587                0.29206772                0.17001328
               7.99985051                8.00067729               16.02059972                0.01000002               -0.11306006               -0.07036359                0.14030596               -0.09421960                0.31225411                0.18036327
               8.99886909                7.99922038               16.02405004                0.01420632               -0.06371648               -0.15720814                0.15854507               -0.16115021                0.26879411                0.43969933
               9.99857618                7.99943611               16.02557394                0.01000000               -0.02929142               -0.16798972                0.16538947               -0.10687607                0.17472285                0.40958454
               0.01056260                9.00299053               16.01648890                1.00000000               -0.03059771               -0.03114463                0.10344577                0.00013929                0.00215139                0.01843915
               1.01025662                9.00138973               16.01553671                0.99999999               -0.03019926               -0.03027567                0.10068758               -0.00008497                0.00099985                0.00224128
               2.00995861                8.99979220               16.01456347                1.00000000               -0.02937576               -0.02942037                0.09784710               -0.00014819               -0.00507105               -0.01129001
               3.00966911                8.99819719               16.01349285                0.01474292               -0.06685809               -0.04187894                0.09487785                0.13858643                0.04007480               -0.04329846
               4.00862145                8.99898501               16.01342674                0.01000000               -0.16818787               -0.02814452                0.09005524                0.26474117                0.14552482               -0.03397380
               5.00630535                9.00052697               16.01427369                0.01000000               -0.24262251                0.02051324                0.11956900                0.19088948                0.22743578                0.03522029
               6.00376900                9.00150841               16.01640543                0.01135007               -0.22500238                0.01714336                0.12438924                0.08160247                0.27724320                0.09142446
               7.00180530                9.00135933               16.01873712                0.01000002               -0.19283521                0.00034974                0.12881391                0.00901517                0.31164496                0.04845499
               7.99991230                9.00023151               16.02182398                0.01000001               -0.21856341               -0.01082867                0.14665556               -0.13281754                0.51027202                0.14216720
               8.99743403                8.99800022               16.02833620                0.99999998               -0.15103023               -0.08814271                0.18156654               -0.18359037                0.33704308                0.22849809
               9.99689169                8.99778506               16.02809342                0.99923976               -0.05423405               -0.10939675                0.17982398               -0.09499924               -0.00058885                0.13886590
               0.01216082               10.00267784               16.01633808                0.99999999               -0.03096352               -0.03126928                0.10458633                0.00060827                0.01239754                0.01360058
               1.01185118               10.00108571               16.01537329                0.99999998               -0.03053845               -0.03040203                0.10182370                0.00039385                0.01540833                0.00082507
               2.01155005                9.99949660               16.01447144                1.00000000               -0.02969750               -0.02956034                0.09900459                0.00041629                0.01539072               -0.00350699
               3.01125723                9.99791116               16.01351019                0.01000001               -0.12031609               -0.02860220                0.09620061                0.14149639                0.04786795               -0.00400792
               4.00914372                9.99915028               16.01326307                0.01320256               -0.26079624                0.01652685                0.08017590                0.21030085                0.14148957               -0.02580797
               5.00604131               10.00107263               16.01440912                0.01000000               -0.26258568                0.05456621                0.11272490                0.10341401                0.22987706                0.04232653
               6.00389201               10.00174664               16.01646472                0.01000001               -0.17269033                0.02382365                0.12340694                0.03109186                0.24924683                0.04770428
               7.00258750               10.00144845               16.01837945                0.01161371               -0.16693709                0.00891232                0.12259042                0.01392338                0.35712024                0.00722371
               8.00055327               10.00046072               16.02269431                0.01364067               -0.24718863                0.02292107                0.15034754               -0.13544887                0.52012392                0.12681735
               8.99764373                9.99745753               16.02806660                0.99925841               -0.17233857               -0.05426862                0.18003188               -0.13965746                0.28157261                0.00081945
               9.99710650                9.99724818               16.02782381                0.99797523               -0.05372284               -0.05368834                0.17828929                0.00054558                0.00069973               -0.00069930
               0.00107705                0.00115785               17.01340851                1.00000000               -0.02405263               -0.02382886                0.08005469               -0.00016564               -0.00319074                0.00297407
               1.00083653                0.00048286               17.01337592                1.00000000               -0.02407769               -0.02387634                0.08020185                0.00001759               -0.00357306               -0.00103988
               2.00059550               -0.00019605               17.01333757                0.01034135               -0.02916593               -0.02392431                0.08034865                0.08853141                0.02846456               -0.00150442
               3.00025321                0.00089113               17.01394730                0.01000000               -0.08814127                0.04657528                0.08741478                0.04655781                0.06407045                0.00081322
               3.99883267                0.00277737               17.01479731                0.01000001               -0.16040433                0.03364990                0.09005824                0.05431249                0.07705064                0.00178387
               4.99704512                0.00492839               17.01609101                0.01000001               -0.22848552                0.03207101                0.11301665                0.12377618                0.07596838                0.00773390
               5.99426296                0.00855287               17.01756383                0.61754149               -0.15546897               -0.03158914                0.10741911                0.13976957                0.04391945               -0.00105176
               6.99393574                0.00937749               17.01837183                0.99915212               -0.03319794               -0.03253719                0.11065344                0.00049261                0.00903372               -0.00198849
               7.99359900                0.01018910               17.01914640                0.99999999               -0.03414488               -0.03348052                0.11373997                0.00049635                0.00787708               -0.00020329
               8.99325284                0.01098769               17.01993024                1.00000000               -0.03509993               -0.03442980                0.11691457                0.00049956                0.00664939                0.00092929
               9.99289700                0.01177344               17.02067893                0.99999999               -0.03558387               -0.03541796                0.12008993                0.00117405                0.00495851                0.00475603
               0.00175038                1.00091956               17.01343066                0.99956299               -0.02367327               -0.02364910                0.07883676               -0.00018958                0.00099073                0.00323480
               1.00151365                1.00024410               17.01339921                0.01158475               -0.02368540               -0.02369685                0.07898468               -0.00000661                0.00253815               -0.00264719
               2.00127668                0.99956471               17.01339855                0.01000000               -0.11407880                0.04089605                0.07913364                0.04564648                0.02996057                0.01288211
               2.99923208                1.00135688               17.01391493                0.01000001               -0.19597542                0.05135282                0.08684670                0.09464821                0.03600304                0.01938973
               3.99735717                1.00311387               17.01453840                0.01000000               -0.19184714                0.02991903                0.08879146                0.09892080                0.02851697                0.02071886
               4.99539513                1.00524910               17.01544430                0.01000000               -0.19605298                0.00850058                0.10261546                0.16928776                0.02292493                0.02113004
               5.99343611                1.00823698               17.01658017                0.01000001               -0.11362901               -0.08044495                0.10319378                0.17776890                0.02071268                0.00063541
               6.99312255                1.00905212               17.01733938                1.00000000               -0.03186197               -0.03188879                0.10634322                0.00002055                0.00145069               -0.00246929
               7.99279887                1.00985429               17.01809131                1.00000000               -0.03284434               -0.03285170                0.10948799                0.00003051                0.00113947               -0.00009970
               8.99246567                1.01064339               17.01884505                1.00000000               -0.03379398               -0.03379767                0.11267192                0.00003085                0.00075356                0.00061951
               9.99212299                1.01141926               17.01958971                1.00000000               -0.03426765               -0.03479001                0.11586854                0.00065436                0.00028073                0.00603816
               0.00242419                2.00068487               17.01345903                0.01040597               -0.02329396               -0.01167319                0.07761946               -0.05965558                0.00137998                0.01637479
               1.00219125                2.00000892               17.01339099                0.01000000               -0.10142740                0.03384525                0.07776499               -0.03031711                0.02271873                0.02424986
               2.00039564                2.00062187               17.01374753                0.01000001               -0.17971191                0.08937049                0.07969875                0.01969672                0.02007160                0.04928776
               2.99859701                2.00191819               17.01404362                0.01000000               -0.17383839                0.03993329                0.08774134                0.10239874                0.00668052                0.04047680
               3.99691887                2.00337575               17.01443656                0.01000000               -0.16446214                0.00832413                0.09106208                0.15722566                0.00275222                0.04121407
               4.99530777                2.00509840               17.01497182                0.01000001               -0.14517745               -0.04765183                0.09460877                0.22796717                0.00555421                0.03413488
               5.99401532                2.00694397               17.01563147                0.01161544               -0.14944653               -0.08843403                0.10181624                0.24076461                0.00205944                0.01119233
               6.99231884                2.00873971               17.01629769                0.01000000               -0.10034896               -0.07698200                0.10205343                0.15705620               -0.00779497                0.01949072
               7.99200834                2.00953206               17.01703831                0.01642812               -0.03151741               -0.04907591                0.10522686                0.03464812               -0.00547559                0.00848756
               8.99168849                2.01031173               17.01775337                0.99999999               -0.03250002               -0.03251076                0.10846164                0.00007141               -0.00399784               -0.00156648
               9.99135834                2.01107764               17.01852564                1.00000000               -0.03301449               -0.03354681                0.11166033                0.00066063               -0.00123976                0.00604379
               0.00190916                3.00068610               17.01374307                0.01182480               -0.09388539                0.04944084                0.09724759               -0.01288744                0.00601176                0.10237456
               1.00097031                3.00092100               17.01395090                0.01000001               -0.10739076                0.07025302                0.09782775               -0.03258451               -0.01914922                0.09195422
               1.99976135                3.00135212               17.01422407                0.01000000               -0.12220674                0.04414873                0.08399208                0.04485233               -0.01353951                0.05737010
               2.99852617                3.00215555               17.01426981                0.01000000               -0.12199394                0.00650272                0.08818271                0.12675697               -0.01369096                0.04959674
               3.99732147                3.00328035               17.01448613                0.01232202               -0.10699575               -0.03207126                0.09142480                0.17510469               -0.00606574                0.04452153
               4.99638626                3.00429606               17.01481705                0.01000000               -0.13556891               -0.06241360                0.09504981                0.25918920               -0.00675441                0.04320191
               5.99461009                3.00646829               17.01517470                0.01000000               -0.13553373               -0.08233344                0.10006908                0.27711393               -0.00857727                0.05513938
               6.99367558                3.00751248               17.01570636                0.01000000               -0.13451379               -0.11905610                0.10396696                0.26797255               -0.01169585                0.06334645
               7.99191981                3.00887277               17.01615653                0.01337168               -0.13770344               -0.09856369                0.10548832                0.24067969               -0.02463910                0.05199658
               8.99092151                3.00999317               17.01662569                0.01435455               -0.06577145               -0.08665219                0.10429289                0.19171133               -0.01850650                0.04641518
               9.99060438                3.01074833               17.01743763                0.20011287               -0.03171296               -0.16451871                0.10743024                0.20324683               -0.00156653                0.04685960
               0.00169663                4.00167368               17.01463411                0.01000000               -0.08230896                0.14175865                0.08273653                0.04680554                0.00164245                0.16190272
               1.00087354                4.00141398               17.01470529                0.01000000               -0.08192456                0.05015995                0.08430551                0.05793868               -0.00820362                0.10646133
               2.00005814                4.00150484               17.01464558                0.01000000               -0.08348118               -0.00332477                0.08767250                0.11991634               -0.01988414                0.05893723
               2.99920392                4.00204824               17.01454427                0.01232300               -0.08888431               -0.02505911                0.09008040                0.15996459               -0.01944960                0.04257631
               3.99828045                4.00273432               17.01452685                0.01000000               -0.09501548               -0.06506222                0.09194887                0.22125600               -0.01073392                0.04318012
               4.99730361                4.00385013               17.01473076                0.01000000               -0.09696319               -0.06177171                0.09533578                0.26275027                0.00477101                0.05800624
               5.99634119                4.00529730               17.01519815                0.01000000               -0.10148982               -0.11694682                0.10042573                0.30320119                0.01422057                0.08899002
               6.99527381                4.00635859               17.01577991                0.01297473               -0.09999723               -0.12136108                0.10578552                0.29898701               -0.00981563                0.09521482
               7.99434124                4.00756079               17.01603802                0.01115854               -0.08133245               -0.14441276                0.10804943                0.35356258               -0.03430940                0.10308304
               8.99364716                4.00857869               17.01649656                0.01000000               -0.02141350               -0.18983175                0.10078138                0.29658300               -0.04624463                0.17513891
               9.99391297                4.00778727               17.01719270                0.01267472                0.02658124               -0.30160071                0.09455458                0.24473758               -0.03918797                0.17076683
               0.00336467                5.00352127               17.01612616                0.01000001               -0.10667524                0.12566582                0.08806960                0.07378877               -0.01854513                0.19096567
               1.00229792                5.00192420               17.01569962                0.01000000               -0.09196295                0.05185573                0.08869964                0.14820504               -0.02774592                0.13085283
               2.00152541                5.00128562               17.01517583                0.01000001               -0.09009673               -0.02367342                0.09069263                0.19800794               -0.03549320                0.05607689
               3.00049598                5.00165437               17.01469786                0.01000000               -0.07903571               -0.07709223                0.09243067                0.25216995               -0.01960367                0.04284978
               3.99994470                5.00197911               17.01467140                0.01000000               -0.07088494               -0.07413364                0.09390781                0.27122365                0.01402650                0.04612056
               4.99907829                5.00306063               17.01497844                0.01000000               -0.08895243               -0.08161167                0.09773791                0.29809717                0.03815942                0.07434470
               5.99816565                5.00412936               17.01560988                0.01335051               -0.08432265               -0.10909791                0.10373498                0.28993822                0.02828569                0.08554385
               6.99739183                5.00508526               17.01594007                0.01161555               -0.06973413               -0.12538197                0.11013652                0.29190744                0.00530331                0.09804448
               7.99677097                5.00598452               17.01633509                0.01000000               -0.03825699               -0.17031779                0.11678920                0.27406260                0.01476836                0.16496984
               8.99662669                5.00619654               17.01708451                0.01000000                0.01555051               -0.24429949                0.12279968                0.19249543                0.03014765                0.23779647
               9.99708198                5.00471631               17.01775107                0.01000000                0.04552846               -0.25195866                0.12073045                0.10339440                0.04312189                0.21061878
               0.00636654                6.00418700               17.01772874                0.93265761               -0.02932526                0.01828093                0.09913038                0.06325151               -0.00377084                0.10189518
               1.00607329                6.00245110               17.01703039                0.01000000               -0.10392066                0.01164983                0.09670648                0.11745039               -0.04209511                0.07212275
               2.00428813                6.00103138               17.01557078                0.01162020               -0.12597300               -0.04281555                0.09564190                0.20201919               -0.05365667                0.04828156
               3.00355383                6.00050640               17.01504479                0.01000000               -0.09947334               -0.08770389                0.09630382                0.28124234                0.00430020                0.03191443
               4.00229866                6.00125165               17.01491784                0.01000000               -0.12192666               -0.07483737                0.09845522                0.31603709                0.04320758                0.04156693
               5.00111530                6.00221790               17.01538391                0.01335219               -0.10916682               -0.07925015                0.10293080                0.30039625                0.05711890                0.05092883
               6.00011533                6.00311534               17.01573050                0.01182416               -0.09292487               -0.09350843                0.11013537                0.27232721                0.04887097                0.06198475
               6.99925680                6.00385095               17.01625339                0.01000000               -0.07020560               -0.11934282                0.12052556                0.21928722                0.08569132                0.13782074
               7.99871121                6.00415443               17.01755039                0.01000000               -0.02457626               -0.19173831                0.13201256                0.13782222                0.13640919                0.26949058
               8.99876527                6.00369270               17.01915711                0.01126596                0.01150493               -0.22831143                0.12968405                0.07563530                0.10109050                0.29316309
               9.99894131                6.00274809               17.01966450                0.01000001                0.01760384               -0.15770743                0.12981773                0.03261689                0.05345191                0.25596500
               0.00810151                7.00388689               17.01761264                0.99999999               -0.02989547               -0.03028169                0.10094594                0.00017871               -0.00254132                0.01937282
               1.00780255                7.00215720               17.01681472                1.00000000               -0.02955047               -0.02963097                0.09846087               -0.00021717               -0.00605061               -0.00174845
               2.00751050                7.00042931               17.01595028                0.01000000               -0.09509971               -0.04462449                0.09630563                0.13430058               -0.00774187                0.01569214
               3.00590056                6.99990029               17.01512204                0.01000000               -0.14782778               -0.08852322                0.10156483                0.25865133                0.02018924               -0.00393751
               4.00455394                7.00048236               17.01509903                0.01297984               -0.13390183               -0.07511648                0.10199439                0.31623045                0.06454921                0.00887593
               5.00322252                7.00147563               17.01534155                0.01162096               -0.12874015               -0.06847182                0.10931493                0.30351407                0.08150838                0.01745109
               6.00197914                7.00225919               17.01587106                0.01000000               -0.12420175               -0.06783572                0.11941085                0.23227349                0.13450804                0.08561689
               7.00073849                7.00269840               17.01746339                0.01000000               -0.11467362               -0.09873159                0.13455649                0.10372325                0.24017057                0.21533127
               7.99968567                7.00214975               17.02035680                0.01158734               -0.05963746               -0.15237683                0.13526169                0.01519274                0.21724541                0.27667074
               8.99954574                7.00163031               17.02156573                0.01000002               -0.00310704               -0.20627093                0.13799741               -0.01350930                0.08590932                0.37401480
               9.99962353                7.00156216               17.02179112                0.00999999                0.00777884               -0.15087590                0.13530632               -0.01321854                0.04024530                0.42048702
               0.00982950                8.00358137               17.01756726                0.99945584               -0.03029729               -0.03077272                0.10243089                0.00013692               -0.00099083                0.02302596
               1.00952653                8.00185848               17.01667167                1.00000000               -0.02992256               -0.03004644                0.09992017               -0.00010370               -0.00058160                0.00263162
               2.00923105                8.00013889               17.01578668                0.01847133               -0.04263590               -0.02923519                0.09742027                0.01552410               -0.00613951               -0.01553504
               3.00867381                7.99873593               17.01478333                0.01338013               -0.10915566               -0.08822507                0.07144747                0.21808832                0.03751988               -0.02798074
               4.00704793                7.99974932               17.01484535                0.01116984               -0.16325309               -0.07280227                0.10758445                0.35455056                0.10019047               -0.03033211
               5.00540875                8.00084846               17.01522782                0.01000000               -0.17549559               -0.03583881                0.11491607                0.28966663                0.15326278                0.02788510
               6.00353802                8.00175863               17.01663880                0.01000000               -0.19840216               -0.01805923                0.12942614                0.16755428                0.26017796                0.12826993
               7.00144070                8.00187632               17.01955836                0.01163434               -0.17274314               -0.04466761                0.13245994                0.04126456                0.30044846                0.17528123
               8.00008316                8.00110690               17.02201816                0.01000002               -0.11790137               -0.07595877                0.14321760               -0.08870130                0.32808159                0.19238970
               8.99908268                7.99956728               17.02563829                0.01420376               -0.06349631               -0.16728584                0.15929185               -0.16218061                0.28264690                0.46477384
               9.99881323                7.99973058               17.02722339                0.01000000               -0.02694418               -0.17528584                0.16489685               -0.10798237                0.18342664                0.43533116
               0.01155002                9.00327143               17.01752423                1.00000000               -0.03070623               -0.03115624                0.10367508                0.00016775                0.00214234                0.01837739
               1.01124296                9.00155627               17.01654556                0.99999999               -0.03032479               -0.03037298                0.10109906               -0.00004350                0.00094923                0.00212788
               2.01094352                8.99984461               17.01554510                1.00000000               -0.02955341               -0.02959347                0.09846898               -0.00009842               -0.00522084               -0.01151097
               3.01065189                8.99813579               17.01444615                0.01444512               -0.07055495               -0.04445851                0.09579256                0.14310275                0.04113428               -0.02216050
               4.00953243                8.99902631               17.01437708                0.01000000               -0.18226707               -0.02703010                0.09703678                0.27858452                0.14268465               -0.03127636
               5.00700655                9.00075885               17.01546377                0.01000000               -0.26150310                0.02666252                0.11790138                0.20670549                0.23220021                0.04087683
               6.00430236                9.00189801               17.01765878                0.01139918               -0.23955203                0.02116881                0.12517148                0.09486676                0.28147038                0.09463539
               7.00221551                9.00180505               17.02004471                0.01000002               -0.20408413                0.00143026                0.13226373                0.01664466                0.32312521                0.05079745
               8.00022068                9.00063058               17.02330381                0.01000001               -0.22685320               -0.01146228                0.14924205               -0.13423639                0.53627829                0.15109205
               8.99767844                8.99828459               17.03014844                0.99999998               -0.15416974               -0.09121399                0.18088273               -0.18766956                0.35436833                0.24028744
               9.99713729                8.99805645               17.02989153                0.99914258               -0.05411578               -0.11060563                0.17979833               -0.09522643               -0.00059057                0.14688612
               0.01326318               10.00295824               17.01738563                0.99999999               -0.03107000               -0.03131922                0.10484111                0.00059417                0.01236805                0.01355452
               1.01295248               10.00125102               17.01639423                1.00000000               -0.03068129               -0.03052493                0.10230083                0.00039139                0.01539723                0.00075018
               2.01264956                9.99954702               17.01546534                0.99999999               -0.02991643               -0.02975884                0.09973131                0.00039061                0.01540132               -0.00361281
               3.01235416                9.99784676               17.01447731                0.01197136               -0.13264980               -0.02890258                0.09716210                0.15331170                0.04419077               -0.00402950
               4.00999656                9.99920872               17.01412908                0.01312971               -0.28414964                0.01824066                0.09216933                0.22316110                0.13680657               -0.01527452
               5.00667116               10.00138171               17.01550969                0.01000000               -0.28037010                0.06228599                0.10972255                0.11512564                0.24063600                0.03862853
               6.00438916               10.00218200               17.01769457                0.01000001               -0.18150689                0.02839973                0.12239473                0.03484048                0.25539463                0.04957776
               7.00304102               10.00190493               17.01963263                0.01188332               -0.17351365                0.00998782                0.12753238                0.01733413                0.37033534                0.00693996
               8.00091889               10.00087765               17.02420292                0.01282800               -0.25688062                0.02470745                0.15170028               -0.13827562                0.54890003                0.13330683
               8.99790341                9.99774300               17.02986705                0.99916480               -0.17769455               -0.05415919                0.18005924               -0.14546241                0.29687110                0.00081962
               9.99736500                9.99751846               17.02961014                0.99815326               -0.05384163               -0.05379830                0.17897481                0.00031735                0.00070067               -0.00070015
               0.00107699                0.00117154               18.01421072                1.00000000               -0.02414725               -0.02387954                0.08038814               -0.00022610               -0.00319231                0.00297502
               1.00083552                0.00045526               18.01417930                1.00000000               -0.02416419               -0.02390845                0.08047459                0.00000664               -0.00357467               -0.00104026
               2.00059371               -0.00026600               18.01414212                0.01000000               -0.03534588               -0.02393814                0.08056064                0.09631447                0.03087317               -0.00150521
               3.00012860                0.00093359               18.01480122                0.01000000               -0.10652870                0.05813653                0.09049310                0.05206768                0.08068980                0.00050492
               3.99846313                0.00304818               18.01569296                0.01000001               -0.19837777                0.04832069                0.09443487                0.07746326                0.09073374                0.00016942
               4.99616105                0.00581629               18.01721134                0.01324578               -0.24586383                0.03856639                0.09968822                0.14271014                0.06620763                0.00743715
               5.99354586                0.00954706               18.01863826                0.60818504               -0.14710487               -0.03163909                0.10743428                0.14313311                0.04003871               -0.00105243
               6.99321895                0.01041118               18.01947796                0.99903567               -0.03315689               -0.03255138                0.11055922                0.00048552                0.00898471               -0.00207660
               7.99288272                0.01126336               18.02028303                0.99999999               -0.03408682               -0.03347915                0.11357953                0.00050123                0.00782425               -0.00021698
               8.99253721                0.01210341               18.02109843                1.00000000               -0.03503334               -0.03441488                0.11671909                0.00049506                0.00665794                0.00092965
               9.99218205                0.01293143               18.02187875                1.00000000               -0.03551595               -0.03539407                0.11987888                0.00112089                0.00497205                0.00476872
               0.00179101                1.00093274               18.01421905                0.99944100               -0.02366542               -0.02365157                0.07884206               -0.00024114                0.00099240                0.00323619
               1.00155436                1.00021617               18.01418878                0.01138177               -0.02366603               -0.02367985                0.07892925               -0.00000918                0.00254028               -0.00264869
               2.00131769                0.99949462               18.01418931                0.01000000               -0.12810843                0.05081981                0.07901775                0.04592554                0.03438139                0.01532709
               2.99899219                1.00151495               18.01479522                0.01000001               -0.22606366                0.06094804                0.08746940                0.10980615                0.04701064                0.01750307
               3.99679642                1.00353139               18.01543505                0.01000000               -0.23267399                0.04050992                0.09581119                0.13358477                0.03490277                0.02481482
               4.99433871                1.00620195               18.01649072                0.01000000               -0.20583365               -0.00090757                0.09913423                0.21552776                0.01406594                0.02210800
               5.99267974                1.00923067               18.01761365                0.01000001               -0.09865262               -0.08870923                0.10346163                0.18450891                0.01843937                0.00159405
               6.99236565                1.01008567               18.01840368                1.00000000               -0.03190633               -0.03193908                0.10650254                0.00003303                0.00139332               -0.00254033
               7.99204162                1.01092857               18.01918685                1.00000000               -0.03287626               -0.03289337                0.10960838                0.00004331                0.00113132               -0.00011025
               8.99170813                1.01175927               18.01997225                1.00000000               -0.03381865               -0.03382435                0.11276190                0.00003629                0.00077253                0.00063848
               9.99136524                1.01257749               18.02074863                1.00000000               -0.03428860               -0.03480867                0.11592500                0.00061145                0.00030221                0.00605823
               0.00250530                2.00069850               18.01423361                0.01000000               -0.02318437                0.01382870                0.07729676               -0.07799477                0.00138019                0.04038412
               1.00227346                1.99998166               18.01416673                0.01000000               -0.11459316                0.04861800                0.07738112               -0.04447984                0.02516948                0.04026797
               2.00021344                2.00075039               18.01457343                0.01000001               -0.19927539                0.10015825                0.08288723                0.01761031                0.02300782                0.05233100
               2.99828795                2.00215255               18.01491634                0.01000000               -0.18828062                0.04485730                0.08757083                0.11786089                0.00952374                0.04023205
               3.99644783                2.00385838               18.01536029                0.01000000               -0.17578177                0.00819761                0.09309537                0.19141203                0.00484423                0.04568189
               4.99477232                2.00579814               18.01592078                0.01000001               -0.15477537               -0.06683029                0.09807709                0.27699027                0.01023956                0.03352985
               5.99335232                2.00777288               18.01664271                0.01152637               -0.16253033               -0.09863299                0.10036750                0.26830588                0.00330505                0.01322589
               6.99152171                2.00977240               18.01732037                0.01000000               -0.10711661               -0.08310335                0.10247029                0.17624375               -0.00879869                0.02240167
               7.99120999                2.01060550               18.01809267                0.01571947               -0.03163456               -0.05111501                0.10562450                0.04073667               -0.00543240                0.01001480
               8.99088902                2.01142693               18.01883989                0.99999999               -0.03260805               -0.03261776                0.10883638                0.00009543               -0.00394390               -0.00151714
               9.99055783                2.01223526               18.01964387                1.00000000               -0.03311915               -0.03365289                0.11200625                0.00062764               -0.00121070                0.00606336
               0.00166480                3.00120931               18.01498399                0.01196695               -0.10519325                0.07204432                0.11504076               -0.04539323               -0.01204716                0.10609798
               1.00061287                3.00118853               18.01503320                0.01000001               -0.10828964                0.08398470                0.10045924               -0.05914736               -0.01981903                0.09391506
               1.99949901                3.00149778               18.01502442                0.01000000               -0.11857256                0.04449228                0.08141272                0.04786724               -0.01427481                0.06262624
               2.99824142                3.00241210               18.01514614                0.01000000               -0.12599714                0.00601190                0.08773573                0.14874724               -0.00702620                0.05219163
               3.99697907                3.00369534               18.01541009                0.01220711               -0.11387025               -0.03861569                0.09332372                0.20401830               -0.00262310                0.04673127
               4.99596401                3.00486535               18.01577535                0.01000000               -0.14537341               -0.07175730                0.09629755                0.29017371               -0.00368988                0.04637460
               5.99407160                3.00725801               18.01617848                0.01000001               -0.14530504               -0.08932757                0.10071462                0.30809551               -0.00577482                0.05938356
               6.99305791                3.00842360               18.01674666                0.01000000               -0.14348876               -0.12830354                0.10414356                0.29414937               -0.01035371                0.06974926
               7.99120182                3.00990627               18.01720056                0.01315894               -0.14888185               -0.10350805                0.10500792                0.25605693               -0.02531872                0.05672976
               8.99008028                3.01110691               18.01767187                0.01410840               -0.07203461               -0.07152526                0.10495042                0.18838480               -0.01994679                0.04446547
               9.98976113                3.01190444               18.01851503                0.21019587               -0.03191451               -0.15996696                0.10808217                0.19735580               -0.00156702                0.03974510
               0.00163900                4.00213939               18.01558440                0.01000000               -0.08369559                0.13585520                0.09938393                0.04925423               -0.00017081                0.14385987
               1.00080205                4.00166135               18.01561028                0.01000000               -0.08458906                0.04524067                0.09206916                0.06967671               -0.00597249                0.10166564
               1.99994722                4.00164024               18.01552124                0.01000000               -0.08683544               -0.00489204                0.08784733                0.13963600               -0.01530818                0.06796626
               2.99906534                4.00227279               18.01544739                0.01220809               -0.09361379               -0.02830019                0.09085802                0.18799411               -0.01548303                0.04740068
               3.99807495                4.00308607               18.01546086                0.01000000               -0.10261095               -0.07172762                0.09411704                0.25273343               -0.00763502                0.04667343
               4.99701312                4.00436299               18.01569816                0.01000000               -0.10594839               -0.06851804                0.09766040                0.29626871                0.00888211                0.06236952
               5.99595598                4.00598633               18.01621656                0.01000000               -0.11283398               -0.12620626                0.10275067                0.33696060                0.01979608                0.09503514
               6.99475644                4.00720633               18.01685337                0.01265905               -0.11540797               -0.12883078                0.10846496                0.32874120               -0.00265401                0.10163551
               7.99364782                4.00853534               18.01716263                0.01087529               -0.10489427               -0.15073441                0.11207853                0.39730118               -0.03382626                0.11525649
               8.99265855                4.00999642               18.01746202                0.01000000               -0.03689618               -0.19435871                0.10179292                0.33288361               -0.03468925                0.15842621
               9.99290989                4.00903592               18.01808706                0.01260076                0.02513409               -0.31810503                0.09259950                0.25707669               -0.01801658                0.13156083
               0.00360596                5.00392642               18.01705414                0.01000001               -0.11004037                0.11588853                0.09823745                0.08669713               -0.01809126                0.19429391
               1.00250555                5.00209335               18.01660578                0.01000000               -0.09628299                0.04737459                0.09337036                0.17074105               -0.02677003                0.13706562
               2.00168030                5.00139994               18.01608685                0.01000001               -0.09750409               -0.02517827                0.09147578                0.22835876               -0.03185815                0.06250270
               3.00055547                5.00184609               18.01562760                0.01000000               -0.08683852               -0.08200680                0.09357347                0.28653961               -0.01630100                0.04899870
               3.99994353                5.00226079               18.01562396                0.01000000               -0.07831739               -0.08029063                0.09604136                0.30670071                0.01791973                0.05196359
               4.99898913                5.00349499               18.01597846                0.01000000               -0.09880281               -0.08970264                0.10120469                0.33668793                0.04395934                0.08176205
               5.99796747                5.00473389               18.01667460                0.01294145               -0.09526984               -0.11794445                0.10789858                0.32815649                0.03561816                0.09381481
               6.99708373                5.00584699               18.01707000                0.01121192               -0.08048593               -0.13584218                0.11411059                0.33049368                0.01337259                0.10904945
               7.99635775                5.00689159               18.01752039                0.01000000               -0.04231827               -0.18396050                0.11980215                0.31791233                0.02826671                0.17598731
               8.99623736                5.00721974               18.01837091                0.01000000                0.02329563               -0.27988868                0.12725641                0.23603318                0.03912763                0.24421792
               9.99682367                5.00554233               18.01898895                0.01000000                0.05863031               -0.28692861                0.12148895                0.13565825                0.03804573                0.21919168
               0.00703909                6.00445716               18.01872423                0.91718641               -0.02957434                0.01145852                0.09978030                0.07918786               -0.00379970                0.10499927
               1.00674335                6.00260885               18.01800274                0.01000000               -0.11387200                0.01098118                0.09758203                0.13797030               -0.04180928                0.07505179
               2.00476165                6.00113667               18.01652536                0.01153103               -0.14040321               -0.04640410                0.09583856                0.23174401               -0.05071089                0.05235805
               3.00393528                6.00063265               18.01601837                0.01000001               -0.11007909               -0.08937228                0.09698169                0.31591911                0.00856655                0.03734787
               4.00256007                6.00148025               18.01591177                0.01000000               -0.13307521               -0.08068751                0.10009991                0.35282871                0.04742776                0.05027777
               5.00127378                6.00256894               18.01643833                0.01294314               -0.11964795               -0.08681515                0.10655827                0.33957155                0.06318204                0.06060473
               6.00016711                6.00362744               18.01686152                0.01137018               -0.10325804               -0.10217051                0.11427435                0.31063259                0.05821304                0.07385653
               6.99920862                6.00448949               18.01748925                0.01000000               -0.07668972               -0.13100600                0.12480636                0.25242652                0.09820329                0.15311464
               7.99863331                6.00485613               18.01889356                0.01000000               -0.02400744               -0.20935825                0.13480257                0.16847975                0.14338155                0.28015417
               8.99872847                6.00439865               18.02046932                0.01125793                0.01722745               -0.25381219                0.13185041                0.09517946                0.10224163                0.29889816
               9.99897786                6.00329735               18.02097138                0.01000001                0.02493953               -0.17733127                0.13075749                0.03942701                0.05515893                0.26251497
               0.00888635                7.00415559               18.01862479                0.99999999               -0.03008973               -0.03037496                0.10144969                0.00017202               -0.00262162                0.01976011
               1.00858545                7.00231297               18.01780242                1.00000000               -0.02974845               -0.02979174                0.09908559               -0.00017902               -0.00599851               -0.00148977
               2.00829138                7.00047186               18.01691626                0.01000000               -0.10275865               -0.04785972                0.09697534                0.15550270               -0.00630939                0.01552786
               3.00653028                7.00005865               18.01609232                0.01000000               -0.16137818               -0.08838124                0.09801508                0.28049680                0.02391055                0.00007282
               4.00506381                7.00064704               18.01613622                0.01266399               -0.14484522               -0.08258909                0.10408680                0.34389842                0.06721490                0.01734056
               5.00363337                7.00175868               18.01645021                0.01121679               -0.14021178               -0.07355453                0.11132762                0.33941885                0.08831082                0.02823245
               6.00225958                7.00269048               18.01709504                0.01000000               -0.13648995               -0.07229884                0.12323429                0.26332077                0.14709848                0.09941648
               7.00090357                7.00322687               18.01883154                0.01000000               -0.12206956               -0.10618634                0.13728893                0.12826119                0.24882479                0.22490327
               7.99981819                7.00270442               18.02172286                0.01152996               -0.06019208               -0.16390267                0.13717573                0.03077599                0.22108887                0.28491057
               8.99969973                7.00214349               18.02296387                0.01000002               -0.00016901               -0.22327480                0.14092109               -0.00601875                0.08909006                0.38969967
               9.99981481                7.00199571               18.02317071                0.01025510                0.01150753               -0.16275122                0.13975780               -0.00994597                0.04127244                0.43808514
               0.01072777                8.00384966               18.01859288                0.99999999               -0.03042710               -0.03079429                0.10267501                0.00015680               -0.00102746                0.02313821
               1.01042350                8.00201301               18.01767298                0.99889332               -0.03008709               -0.03016244                0.10038480               -0.00004487               -0.00063243                0.00266155
               2.01012602                8.00017948               18.01676363                0.01592315               -0.05267293               -0.02942690                0.09809925                0.02571233               -0.00819888               -0.01576749
               3.00937004                7.99886502               18.01569590                0.01316720               -0.11940121               -0.09993287                0.09812620                0.23892637                0.02373474               -0.01832480
               4.00773800                7.99982847               18.01587499                0.01088614               -0.16756614               -0.07856457                0.10360217                0.38132659                0.10383801               -0.02934668
               5.00601871                8.00109785               18.01639627                0.01000000               -0.18863295               -0.03480219                0.11617474                0.31936390                0.16304512                0.03624047
               6.00396534                8.00218146               18.01794410                0.01000000               -0.21294076               -0.01725679                0.13053903                0.19128980                0.26762389                0.13523678
               7.00175990                8.00236576               18.02089590                0.01157477               -0.18165675               -0.04629322                0.13421694                0.05579052                0.30838937                0.17830534
               8.00033221                8.00157807               18.02346408                0.01000002               -0.12215478               -0.08179162                0.14539505               -0.08583268                0.34260540                0.20256052
               8.99931680                7.99993315               18.02723588                0.01418032               -0.06288482               -0.17831443                0.15998359               -0.16509010                0.29466435                0.48638797
               9.99907451                8.00004232               18.02887187                0.01000000               -0.02422933               -0.18298359                0.16479550               -0.11013838                0.19070915                0.45754015
               0.01256278                9.00353970               18.01856240                1.00000000               -0.03080492               -0.03117701                0.10386547                0.00016226                0.00204909                0.01833551
               1.01225473                9.00170972               18.01755869                0.99999999               -0.03045862               -0.03048249                0.10152697               -0.00002297                0.00084826                0.00206235
               2.01195361                8.99988332               18.01653285                1.00000000               -0.02974618               -0.02978063                0.09914094               -0.00003811               -0.00532177               -0.01163800
               3.01165981                8.99805999               18.01540870                0.01420405               -0.07480448               -0.05483921                0.09669402                0.16498468                0.04368604               -0.02039270
               4.01045752                8.99907575               18.01536748                0.01000000               -0.19960758               -0.02438402                0.10070818                0.30560618                0.15433882               -0.03241792
               5.00766766                9.00106264               18.01663172                0.01000000               -0.28200291                0.03277549                0.11661618                0.22697065                0.24368130                0.04254998
               6.00481746                9.00234534               18.01890886                0.01138759               -0.25224432                0.02425713                0.12485111                0.10749907                0.28931082                0.09532512
               7.00262277                9.00230100               18.02138240                0.01000002               -0.21416618                0.00228265                0.13468920                0.02246011                0.33580512                0.05314744
               8.00053414                9.00106859               18.02480882                0.01000001               -0.23445475               -0.01247232                0.15137799               -0.13795754                0.56010430                0.15827171
               8.99793368                8.99857720               18.03195386                0.99999998               -0.15702225               -0.09482277                0.18020381               -0.19377110                0.36976631                0.25091443
               9.99739369                8.99833604               18.03168939                0.99913731               -0.05399831               -0.11226805                0.17977252               -0.09612538               -0.00059226                0.15458750
               0.01439098               10.00322612               18.01843490                1.00000000               -0.03115564               -0.03135811                0.10502049                0.00054326                0.01239598                0.01345023
               1.01407942               10.00140336               18.01741930                1.00000000               -0.03079910               -0.03063596                0.10267934                0.00035581                0.01543492                0.00070304
               2.01377499                9.99958387               18.01646606                1.00000000               -0.03010575               -0.02994534                0.10034953                0.00038223                0.01543820               -0.00361331
               3.01347730                9.99776824               18.01545343                0.01590009               -0.14637588               -0.02917507                0.09804205                0.16959565                0.04553611               -0.00407028
               4.01084748                9.99934079               18.01510646                0.01309206               -0.30943861                0.02650446                0.09953848                0.23825141                0.14320052               -0.01209060
               5.00728853               10.00175336               18.01660357                0.01000000               -0.29852571                0.06907185                0.11038153                0.12837802                0.25280361                0.03616998
               6.00487696               10.00266661               18.01891261                0.01000001               -0.19013375                0.03212624                0.12201361                0.03885261                0.26571461                0.05093502
               7.00348586               10.00241141               18.02093010                0.01207681               -0.17900542                0.01104109                0.13140896                0.01940955                0.38534886                0.00745462
               8.00129685               10.00132863               18.02572832                0.01209544               -0.26559625                0.02600391                0.15330015               -0.14246430                0.57520278                0.13831455
               8.99817393                9.99803670               18.03166778                0.99916292               -0.18312588               -0.05405067                0.18008685               -0.15255769                0.31101629                0.00081981
               9.99763434                9.99779696               18.03140330                0.99834544               -0.05395961               -0.05390739                0.17965554                0.00009081                0.00070145               -0.00070105
               0.00107605                0.00120069               19.01501627                1.00000000               -0.02424131               -0.02393001                0.08072062               -0.00028612               -0.00319362                0.00297778
               1.00083364                0.00044310               19.01498541                1.00000000               -0.02425084               -0.02394044                0.08074757               -0.00000529               -0.00357612               -0.00104145
               2.00059104               -0.00032054               19.01494878                0.01192746               -0.02587415               -0.02395259                0.08077480                0.10018938                0.03830770               -0.00150637
               3.00031616                0.00091324               19.01575716                0.01000000               -0.11769039                0.06785907                0.08290364                0.04189416                0.09075252               -0.00723211
               3.99823723                0.00329658               19.01668601                0.01000001               -0.24460897                0.06462642                0.10187780                0.09250555                0.10122759                0.00475860
               4.99542398                0.00651837               19.01808477                0.01140678               -0.27200537                0.04634534                0.08530173                0.17161098                0.11894341               -0.01827043
               5.99279712                0.01058104               19.01971252                0.59918951               -0.14766580               -0.03166394                0.10737717                0.15778827                0.04847183               -0.00104676
               6.99247066                0.01148451               19.02058302                0.99892099               -0.03310516               -0.03256089                0.11043441                0.00045969                0.00888541               -0.00216505
               7.99213502                0.01237712               19.02141799                0.99999999               -0.03401890               -0.03346759                0.11341823                0.00049743                0.00775239               -0.00023849
               8.99179028                0.01325864               19.02226462                1.00000000               -0.03496054               -0.03439376                0.11653158                0.00050151                0.00666827                0.00091831
               9.99143581                0.01412905               19.02307651                1.00000000               -0.03544766               -0.03537459                0.11968740                0.00108797                0.00499626                0.00478211
               0.00183078                1.00096139               19.01500750                0.99931856               -0.02365807               -0.02365418                0.07884702               -0.00029367                0.00099272                0.00323907
               1.00159420                1.00020370               19.01497779                0.01127349               -0.02364611               -0.02366215                0.07887269               -0.00001351                0.00254374               -0.00265104
               2.00135786                0.99943994               19.01497890                0.01000000               -0.13338298                0.05769584                0.07890247                0.04516396                0.03833017                0.01829138
               2.99892654                1.00159183               19.01566432                0.01000001               -0.24990713                0.07293322                0.08605370                0.10936851                0.06154402                0.01249497
               3.99635972                1.00394284               19.01645462                0.01000000               -0.27143433                0.05088858                0.09996479                0.15820413                0.05528891                0.01627342
               4.99349786                1.00698183               19.01742698                0.01000000               -0.22338911               -0.00169991                0.09469086                0.25638550                0.06097066                0.00077050
               5.99189194                1.01026440               19.01864941                0.01000001               -0.09603194               -0.09686939                0.10367407                0.20308918                0.02179756                0.00156964
               6.99157722                1.01115890               19.01946943                1.00000000               -0.03195039               -0.03198696                0.10665448                0.00001448                0.00129770               -0.00260352
               7.99125293                1.01204244               19.02028348                0.99999999               -0.03289421               -0.03292392                0.10968382                0.00004799                0.00110695               -0.00014014
               8.99091933                1.01291470               19.02110028                0.99999999               -0.03383280               -0.03384349                0.11281656                0.00004944                0.00080563                0.00064366
               9.99057627                1.01377531               19.02190821                1.00000000               -0.03430609               -0.03482716                0.11601700                0.00057850                0.00034107                0.00609090
               0.00258557                2.00072761               19.01500497                0.01000001               -0.02307447                0.02479388                0.07697646               -0.08882417                0.00138091                0.05566794
               1.00235483                1.99996986               19.01493861                0.01000000               -0.12396945                0.05760245                0.07699465               -0.04774658                0.02814074                0.04887083
               2.00010618                2.00083338               19.01540528                0.01000001               -0.21771004                0.11084465                0.08274995                0.02035453                0.03346252                0.05181216
               2.99800063                2.00237191               19.01579503                0.01000000               -0.20474325                0.05382520                0.08731063                0.12771985                0.01995797                0.03945811
               3.99601132                2.00431435               19.01629847                0.01000000               -0.18852482                0.00857811                0.09365513                0.21962745                0.01733663                0.03536463
               4.99423013                2.00648437               19.01693336                0.01000001               -0.16647427               -0.07678272                0.09980250                0.31877571                0.01061242                0.03089830
               5.99268183                2.00864365               19.01763882                0.01146836               -0.17686116               -0.10911395                0.09970274                0.29958687                0.00428756                0.01686271
               6.99069291                2.01084477               19.01834710                0.01000000               -0.11508265               -0.08922188                0.10290337                0.19721000               -0.00885625                0.02507779
               7.99038018                2.01171864               19.01915080                0.01482151               -0.03172472               -0.05525155                0.10594861                0.04861480               -0.00540240                0.01184240
               8.99005841                2.01258177               19.01993010                0.99999999               -0.03270069               -0.03271724                0.10917466                0.00013214               -0.00386165               -0.00145016
               9.98972616                2.01343251               19.02076576                1.00000000               -0.03322466               -0.03376334                0.11241113                0.00059684               -0.00115577                0.00611237
               0.00156980                3.00145727               19.01604388                0.01252924               -0.10363002                0.08765604                0.09446901               -0.05735842               -0.01396862                0.09983598
               1.00053350                3.00135575               19.01596009                0.01000001               -0.11034479                0.09524265                0.08723155               -0.06690071               -0.00874616                0.09613586
               1.99936291                3.00165683               19.01585232                0.01000000               -0.12667640                0.04841766                0.08394688                0.05606376               -0.00639245                0.06450615
               2.99799997                3.00266834               19.01602452                0.01000000               -0.13615535                0.00714469                0.08881125                0.17057893                0.00264833                0.05349588
               3.99663980                3.00411440               19.01635260                0.01212860               -0.12279527               -0.04302124                0.09428327                0.23217463                0.00263394                0.04707226
               4.99554407                3.00544617               19.01674300                0.01000000               -0.15582598               -0.07949829                0.09706932                0.32315669                0.00032912                0.04567088
               5.99352328                3.00808212               19.01718900                0.01000001               -0.15488208               -0.09708809                0.10117830                0.34141793               -0.00306383                0.06449925
               6.99244643                3.00937446               19.01778923                0.01000000               -0.15175260               -0.13884012                0.10452560                0.32185260               -0.00720558                0.07683613
               7.99048823                3.01093741               19.01825668                0.01299625               -0.16191582               -0.10862737                0.10690871                0.27808937               -0.02298909                0.05908942
               8.98920811                3.01226035               19.01872470                0.01390885               -0.08007501               -0.07667958                0.10564628                0.20665776               -0.02167222                0.04729019
               9.98888673                3.01310004               19.01959927                0.22071949               -0.03213830               -0.17439703                0.10881482                0.21278788               -0.00158103                0.03533644
               0.00164145                4.00248073               19.01662178                0.01000000               -0.08241977                0.14050254                0.09397988                0.05588627               -0.00664163                0.12560225
               1.00081725                4.00187471               19.01654667                0.01000000               -0.08632911                0.04586559                0.08930523                0.07586547               -0.00708092                0.09752373
               1.99991487                4.00180173               19.01640253                0.01000000               -0.09313102               -0.00626424                0.08953058                0.15718072               -0.01008674                0.07321167
               2.99895463                4.00251480               19.01636143                0.01212952               -0.10189474               -0.03024862                0.09214636                0.21425365               -0.00978722                0.05176538
               3.99787697                4.00345392               19.01640919                0.01000000               -0.11145436               -0.07734694                0.09520918                0.28460214               -0.00309385                0.04916735
               4.99672555                4.00489441               19.01668397                0.01000001               -0.11475368               -0.07452330                0.09888702                0.33053680                0.01377828                0.06673761
               5.99558190                4.00670189               19.01725316                0.01000000               -0.12254406               -0.13607102                0.10400473                0.37183779                0.02663744                0.10151312
               6.99427466                4.00806797               19.01794921                0.01242295               -0.12629131               -0.13720451                0.10953486                0.36056366                0.00487703                0.10830629
               7.99305607                4.00954609               19.01827959                0.01065603               -0.11228616               -0.15820407                0.11112017                0.42636846               -0.02845919                0.12418668
               8.99202894                4.01104817               19.01853242                0.01000000               -0.03767602               -0.20933830                0.10815633                0.35655239               -0.02342714                0.15349897
               9.99230255                4.00994457               19.01904469                0.01255966                0.02736126               -0.34421064                0.10140598                0.27564382               -0.00546616                0.12006208
               0.00389956                5.00426732               19.01809091                0.01000001               -0.11697555                0.11178053                0.10845600                0.10517765               -0.01881061                0.20409612
               1.00272981                5.00227306               19.01756703                0.01000000               -0.10165652                0.04403906                0.09981989                0.19414677               -0.02293650                0.13722174
               2.00186643                5.00153155               19.01700534                0.01000001               -0.10484755               -0.02763035                0.09217990                0.25668584               -0.02890037                0.06715469
               3.00063286                5.00206336               19.01656933                0.01000000               -0.09571007               -0.08630829                0.09468127                0.32100190               -0.01221104                0.05346918
               3.99995223                5.00256746               19.01659222                0.01000001               -0.08630097               -0.08544874                0.09724130                0.34213108                0.02319270                0.05685134
               4.99890684                5.00395571               19.01700254                0.01000000               -0.10828776               -0.09680832                0.10285604                0.37484416                0.05120348                0.08852349
               5.99778648                5.00536070               19.01776786                0.01263506               -0.10466723               -0.12649319                0.10961448                0.36607174                0.04399046                0.10157858
               6.99681349                5.00663037               19.01822228                0.01090186               -0.08755443               -0.14581318                0.11512216                0.36633957                0.02294866                0.11875642
               7.99603539                5.00777333               19.01873113                0.01000000               -0.04364044               -0.19955246                0.12084586                0.34929543                0.04077324                0.18614588
               8.99594068                5.00807359               19.01962964                0.01000000                0.02857152               -0.29852370                0.12411296                0.25729184                0.04667327                0.24746671
               9.99660682                5.00621583               19.02018085                0.01000000                0.06661341               -0.30639649                0.11829884                0.15111504                0.03712227                0.22806704
               0.00773353                6.00471634               19.01972435                0.90024410               -0.02975647                0.00730589                0.10034602                0.09362697               -0.00377752                0.10298205
               1.00743597                6.00275549               19.01898203                0.01000000               -0.12376244                0.00920499                0.09837699                0.15970404               -0.04161138                0.07562696
               2.00525828                6.00124913               19.01748755                0.01147299               -0.15486060               -0.05149746                0.09673398                0.26305589               -0.04898477                0.05567129
               3.00433875                6.00078863               19.01698442                0.01000001               -0.12155140               -0.09195740                0.09690688                0.35108886                0.01295987                0.04131748
               4.00282725                6.00174495               19.01691984                0.01000000               -0.14547802               -0.08507543                0.10105122                0.38788636                0.05390335                0.05682794
               5.00142919                6.00295824               19.01751507                0.01263671               -0.12992920               -0.09366864                0.10792039                0.37750763                0.07083531                0.06837760
               6.00022867                6.00417202               19.01801598                0.01102174               -0.11201848               -0.10978812                0.11540052                0.34733811                0.06878105                0.08381885
               6.99918882                6.00515170               19.01874952                0.01000000               -0.08149513               -0.14202808                0.12586819                0.28283468                0.11100870                0.16620722
               7.99859877                6.00555504               19.02024644                0.01000000               -0.02282698               -0.22479438                0.13455921                0.19328604                0.15074453                0.28826339
               8.99873228                6.00507770               19.02179412                0.01121576                0.02208065               -0.27079192                0.13177560                0.11002993                0.10398644                0.30457096
               9.99904038                6.00381664               19.02227965                0.01000001                0.03080956               -0.18962260                0.13025159                0.04531822                0.05654341                0.27155078
               0.00969380                7.00441344               19.01964163                0.99999999               -0.03026945               -0.03049130                0.10194409                0.00013273               -0.00274776                0.02011126
               1.00939110                7.00245716               19.01879643                0.99990003               -0.02996938               -0.03000261                0.09980200               -0.00023448               -0.00601276               -0.00121303
               2.00909441                7.00050160               19.01788978                0.01000000               -0.11161454               -0.05210875                0.09791349                0.17764633               -0.00437695                0.01557165
               3.00715881                7.00022422               19.01708234                0.01000000               -0.17770303               -0.08677864                0.09957329                0.30313777                0.02855770                0.00541867
               4.00554035                7.00086595               19.01718077                0.01242779               -0.15644499               -0.09069099                0.10479221                0.37275913                0.07189482                0.02316088
               5.00402991                7.00208233               19.01756810                0.01090684               -0.15002862               -0.07832403                0.11153125                0.37351624                0.09771020                0.03544457
               6.00253978                7.00316494               19.01833575                0.01000000               -0.14713737               -0.07612380                0.12373619                0.29348394                0.16072468                0.11038644
               7.00108717                7.00378981               19.02020917                0.01000000               -0.12823335               -0.11300644                0.13708937                0.15060983                0.25766585                0.23189639
               7.99997511                7.00327744               19.02310031                0.01146487               -0.06037378               -0.17414486                0.13757567                0.04322322                0.22560745                0.29158599
               8.99987969                7.00265775               19.02438415                0.01000002                0.00300994               -0.23863226                0.14235668               -0.00090946                0.09350444                0.40330082
              10.00003531                7.00242337               19.02458627                0.01051300                0.01556194               -0.17269689                0.14243100               -0.00768526                0.04357495                0.45435129
               0.01164875                8.00410652               19.01962076                1.00000000               -0.03056273               -0.03086593                0.10300485                0.00012368               -0.00096504                0.02317246
               1.01134312                8.00215544               19.01867937                1.00000000               -0.03022976               -0.03029847                0.10086617               -0.00005963               -0.00058034                0.00271252
               2.01104415                8.00020695               19.01774866                0.01321085               -0.06529843               -0.02960889                0.09872673                0.03951454               -0.00386365               -0.01584141
               3.01003715                7.99905306               19.01674585                0.01300438               -0.13099165               -0.11269073                0.10856845                0.26281718                0.02049902               -0.01132276
               4.00842432                7.99993113               19.01691739                0.01066728               -0.17183074               -0.08597375                0.10468723                0.40972657                0.10870095               -0.02881136
               5.00660054                8.00139176               19.01755132                0.01000000               -0.20167238               -0.03398918                0.11514602                0.35136520                0.17537093                0.04217236
               6.00439087                8.00264955               19.01924958                0.01000000               -0.22560116               -0.01644707                0.12978005                0.21489695                0.27775397                0.13911738
               7.00208851                8.00289157               19.02224270                0.01150758               -0.18977896               -0.04780029                0.13464104                0.06835415                0.31734237                0.18008443
               8.00059529                8.00207215               19.02492606                0.01000002               -0.12601739               -0.08728371                0.14645270               -0.08551630                0.35671036                0.21142228
               8.99956816                8.00030506               19.02883796                0.01413920               -0.06199327               -0.18933848                0.16010687               -0.16979689                0.30546341                0.50547472
               9.99935543                8.00036270               19.03051930                0.01000000               -0.02127388               -0.19033021                0.16461075               -0.11328183                0.19694356                0.47718622
               0.01359842                9.00379612               19.01960154                1.00000000               -0.03089446               -0.03121325                0.10408153                0.00018423                0.00211117                0.01837038
               1.01328948                9.00185119               19.01857610                0.99999999               -0.03056690               -0.03057926                0.10188389                0.00000996                0.00086508                0.00200274
               2.01298708                8.99990942               19.01752792                1.00000000               -0.02992476               -0.02993128                0.09972171               -0.00003721               -0.00543197               -0.01180050
               3.01269098                8.99797040               19.01638003                0.01401007               -0.07954508               -0.06885835                0.09766653                0.19121944                0.04728465               -0.02499563
               4.01139618                8.99914648               19.01639125                0.01000000               -0.21760920               -0.02210926                0.10345055                0.33591298                0.16591961               -0.03203073
               5.00833880                9.00140255               19.01779609                0.01000000               -0.30291383                0.03848199                0.11644718                0.25050321                0.25642066                0.04343872
               6.00533790                9.00283600               19.02015580                0.01134154               -0.26535735                0.02718221                0.12468814                0.12086580                0.29998080                0.09470592
               7.00303165                9.00283380               19.02273850                0.01000002               -0.22433004                0.00335219                0.13617699                0.02697794                0.35007849                0.05533847
               8.00085130                9.00153177               19.02633137                0.01000001               -0.24192243               -0.01336033                0.15276775               -0.14364287                0.58259523                0.16408257
               8.99819320                8.99887098               19.03375251                0.99999998               -0.15984590               -0.09867512                0.17953011               -0.20172058                0.38362385                0.26062697
               9.99765439                8.99861677               19.03348698                0.99920343               -0.05388155               -0.11430441                0.17974654               -0.09779327               -0.00059395                0.16197669
               0.01554229               10.00348225               19.01948604                1.00000000               -0.03122735               -0.03138709                0.10514198                0.00054798                0.01238274                0.01351571
               1.01523002               10.00154386               19.01844782                1.00000000               -0.03090492               -0.03073333                0.10305617                0.00035826                0.01544986                0.00063353
               2.01492420                9.99960833               19.01747233                0.99746073               -0.03027712               -0.03010931                0.10096695                0.00031321                0.01551008               -0.00373767
               3.01462448                9.99767589               19.01643815                0.01000000               -0.16068833               -0.02945071                0.09883558                0.18738060                0.04816966               -0.00405658
               4.01171043                9.99948894               19.01611985                0.01308674               -0.33516969                0.03424626                0.10236945                0.25570021                0.15092527               -0.01160479
               5.00792108               10.00216140               19.01771732                0.01000000               -0.31667488                0.07588520                0.11219860                0.14344130                0.26486454                0.03418769
               6.00537693               10.00319319               19.02013485                0.01000001               -0.19943938                0.03571974                0.12276258                0.04376357                0.27812910                0.05201730
               7.00393230               10.00295862               19.02226081                0.01224075               -0.18458366                0.01248139                0.13442252                0.02065219                0.40186038                0.00835834
               8.00168526               10.00180494               19.02726892                0.01170357               -0.27417718                0.02731717                0.15466566               -0.14795775                0.59968473                0.14218280
               8.99844875                9.99833155               19.03346879                0.99923204               -0.18886382               -0.05394265                0.18011470               -0.16086124                0.32408902                0.00081951
               9.99790798                9.99807661               19.03320325                0.99854424               -0.05407714               -0.05401579                0.18033114               -0.00013455                0.00070276               -0.00070165
               0.00107484                0.00124864               20.01582514                1.00000000               -0.02433585               -0.02398129                0.08104702               -0.00035355               -0.00320138                0.00298141
               1.00083149                0.00044967               20.01579425                1.00000000               -0.02433660               -0.02397179                0.08101967               -0.00001650               -0.00357276               -0.00104576
               2.00058811               -0.00035637               20.01575761                0.01000001               -0.03125279               -0.02396786                0.08099698                0.10721384                0.03297778               -0.00150169
               3.00020643                0.00097463               20.01645930                0.01000000               -0.12140170                0.07523460                0.08478103                0.05221730                0.08235951                0.01867226
               3.99816008                0.00360613               20.01773052                0.01000001               -0.23465129                0.06382635                0.09474663                0.08753657                0.11161645                0.00003013
               4.99551340                0.00676646               20.01891738                0.01004476               -0.30715147                0.06023155                0.08878281                0.18730434                0.15285924               -0.02280528
               5.99201705                0.01165236               20.02078580                0.59058658               -0.19111073               -0.03165848                0.10721338                0.19704950                0.05891113               -0.00103023
               6.99169119                0.01259506               20.02168665                0.99882137               -0.03304443               -0.03255367                0.11024163                0.00039766                0.00878977               -0.00222170
               7.99135616                0.01352761               20.02255139                0.99999999               -0.03395662               -0.03346539                0.11328022                0.00044446                0.00768289               -0.00028577
               8.99101206                0.01445046               20.02342906                1.00000000               -0.03489760               -0.03437971                0.11639494                0.00054917                0.00665975                0.00088377
               9.99065821                0.01536368               20.02427250                1.00000000               -0.03538489               -0.03536226                0.11948653                0.00112328                0.00500338                0.00481632
               0.00187028                1.00100882               20.01579599                0.99920031               -0.02364549               -0.02365781                0.07885595               -0.00034814                0.00099911                0.00324935
               1.00163382                1.00020995               20.01576623                0.01123565               -0.02362561               -0.02364426                0.07881409               -0.00001960                0.00254133               -0.00266049
               2.00139777                0.99940395               20.01576736                0.01000000               -0.14432361                0.06347939                0.07878702                0.04775953                0.04151350                0.02104641
               2.99874735                1.00172698               20.01651629                0.01000001               -0.26291183                0.08034352                0.08654131                0.12139655                0.06292113                0.02928265
               3.99613953                1.00424439               20.01743435                0.01000000               -0.26920090                0.05307813                0.09229243                0.15689771                0.06926995                0.00470593
               4.99336333                1.00736877               20.01838454                0.01000000               -0.25331425                0.01668122                0.09427686                0.26110982                0.08731671               -0.00575608
               5.99107325                1.01133577               20.01968713                0.01000001               -0.13028989               -0.10409058                0.10382917                0.24540151                0.02419546                0.00140128
               6.99075754                1.01226952               20.02053677                1.00000000               -0.03201723               -0.03204513                0.10683885               -0.00006984                0.00120979               -0.00262857
               7.99043290                1.01319296               20.02138052                0.99999999               -0.03290111               -0.03292375                0.10972283               -0.00000373                0.00107164               -0.00018545
               8.99009951                1.01410667               20.02222858                0.99999999               -0.03383406               -0.03384769                0.11283152                0.00009337                0.00083747                0.00064217
               9.98975622                1.01501006               20.02306897                1.00000000               -0.03432945               -0.03486198                0.11619878                0.00059858                0.00039573                0.00614899
               0.00266563                2.00077548               20.01577314                0.01109223               -0.02296660                0.02901968                0.07666337               -0.09573313                0.00138111                0.05976271
               1.00243597                1.99997678               20.01570662                0.01000000               -0.13196804                0.06466217                0.07659873               -0.04332930                0.03091185                0.05237018
               2.00002627                2.00091322               20.01622842                0.01000001               -0.23210245                0.11933510                0.08220605                0.02568395                0.04225375                0.05484185
               2.99779392                2.00258150               20.01666255                0.01000000               -0.21850179                0.05943213                0.08629491                0.14006158                0.03044209                0.04290307
               3.99565624                2.00466769               20.01723339                0.01000000               -0.20748477                0.01408377                0.09228802                0.23461584                0.02706770                0.02914010
               4.99364422                2.00710008               20.01791683                0.01000001               -0.18159506               -0.06703107                0.09635799                0.33368588                0.01276574                0.02903178
               5.99202434                2.00957054               20.01863677                0.01143191               -0.19058099               -0.12010609                0.10023863                0.33724562                0.00642107                0.01942368
               6.98983260                2.01195415               20.01937844                0.01000000               -0.12526984               -0.09556540                0.10346988                0.21935856               -0.00866759                0.02770866
               7.98951894                2.01286914               20.02021164                0.01372866               -0.03178892               -0.06168445                0.10617106                0.05965147               -0.00533968                0.01460803
               8.98919682                2.01377351               20.02102338                0.99999999               -0.03277749               -0.03281347                0.10946077                0.00010173               -0.00376182               -0.00137615
               9.98886339                2.01466644               20.02189209                1.00000000               -0.03334358               -0.03389147                0.11293747                0.00050091               -0.00107574                0.00618060
               0.00155302                3.00158922               20.01687337                0.01343383               -0.09235143                0.09144638                0.06228088               -0.05906448               -0.00739454                0.08111294
               1.00062950                3.00150319               20.01677783                0.01000001               -0.11231461                0.10140526                0.07140960               -0.06774241               -0.00760457                0.08982915
               1.99930672                3.00179065               20.01670335                0.01000000               -0.14176968                0.05191192                0.08765807                0.06584444               -0.00258858                0.06929222
               2.99779411                3.00291562               20.01692237                0.01000000               -0.14967287                0.00908922                0.08959614                0.19022156                0.00869769                0.05654237
               3.99631327                3.00452607               20.01729576                0.01207525               -0.13299543               -0.04189518                0.09396832                0.25734107                0.00735233                0.04809070
               4.99513420                3.00602815               20.01771674                0.01000000               -0.16745889               -0.08309390                0.09712610                0.36040332                0.00423005                0.04651230
               5.99296409                3.00893365               20.01820205                0.01000001               -0.16440438               -0.10664062                0.10122062                0.37646044               -0.00008979                0.06955940
               6.99184611                3.01035821               20.01883717                0.01000001               -0.15787574               -0.15073737                0.10516537                0.35102882               -0.00278518                0.08281091
               7.98980657                3.01195927               20.01933874                0.01287179               -0.17709337               -0.11622595                0.10962885                0.30343366               -0.01855468                0.05957013
               8.98830425                3.01345040               20.01978480                0.01374959               -0.09131033               -0.08060223                0.10648480                0.23005202               -0.02439163                0.05068122
               9.98798037                3.01433223               20.02069133                0.23171492               -0.03238773               -0.19054289                0.10958660                0.23381503               -0.00160993                0.03602383
               0.00165640                4.00260441               20.01746400                0.01000000               -0.07767115                0.16582786                0.07763607                0.07627206               -0.00106099                0.13578868
               1.00087968                4.00200489               20.01739639                0.01000000               -0.08628320                0.04496176                0.08368445                0.09249679               -0.00669607                0.10202401
               1.99993073                4.00195146               20.01731185                0.01000000               -0.10083755               -0.00663208                0.09151404                0.17758350               -0.00754500                0.07575696
               2.99886293                4.00276329               20.01729031                0.01207618               -0.11201029               -0.03115682                0.09303708                0.24042967               -0.00673156                0.05488400
               3.99769053                4.00382979               20.01736504                0.01000000               -0.12091122               -0.08194520                0.09563021                0.31679110                0.00081716                0.05155459
               4.99644471                4.00543821               20.01767590                0.01000001               -0.12335194               -0.07969011                0.09915969                0.36556537                0.01875196                0.07093886
               5.99522349                4.00743773               20.01829666                0.01000001               -0.13085760               -0.14655040                0.10425908                0.40823237                0.03305743                0.10769916
               6.99382756                4.00893941               20.01904407                0.01224692               -0.13640303               -0.14682040                0.10925576                0.39200996                0.01063801                0.11406442
               7.99249543                4.01054462               20.01938503                0.01048390               -0.12013255               -0.16558123                0.11077893                0.45906743               -0.02692527                0.12993058
               8.99142491                4.01216146               20.01962514                0.01000000               -0.03597040               -0.22715120                0.10996332                0.38639175               -0.02387306                0.16606633
               9.99177602                4.01085559               20.02011518                0.01255064                0.03511128               -0.37317566                0.10909638                0.29357837               -0.00375312                0.12537384
               0.00427750                5.00490578               20.01922326                0.01151279               -0.11451111                0.11808336                0.09859082                0.08925474               -0.02429241                0.20080013
               1.00313239                5.00240243               20.01860218                0.01000000               -0.10887545                0.04435480                0.09682176                0.20102342               -0.03013304                0.13873120
               2.00209999                5.00165801               20.01793045                0.01000001               -0.12040113               -0.02928987                0.09405431                0.28694434               -0.03135426                0.06964387
               3.00072437                5.00229249               20.01752123                0.01000000               -0.10629110               -0.09086525                0.09512672                0.35642057               -0.00862977                0.05605695
               3.99997417                5.00288717               20.01756879                0.01000001               -0.09434019               -0.09007583                0.09786543                0.37794098                0.02833377                0.06061331
               4.99883756                5.00443435               20.01803558                0.01000001               -0.11733170               -0.10336368                0.10325855                0.41325535                0.05858086                0.09446721
               5.99762754                5.00600264               20.01886689                0.01240697               -0.11290708               -0.13509050                0.10961222                0.40361239                0.05182048                0.10836031
               6.99657942                5.00742180               20.01937244                0.01066321               -0.09308365               -0.15563313                0.11447572                0.40078903                0.03112245                0.12755057
               7.99576586                5.00864765               20.01993730                0.01000000               -0.04291541               -0.21462031                0.11994766                0.37968760                0.04823435                0.19764293
               8.99572111                5.00890737               20.02085317                0.01000000                0.03489135               -0.32129552                0.12205948                0.27855771                0.04993238                0.25839721
               9.99646369                5.00686872               20.02135493                0.01000000                0.07425762               -0.32663238                0.11828782                0.16421675                0.03704648                0.23938116
               0.00844819                6.00496608               20.02073115                0.88250858               -0.03002702               -0.01221838                0.10103334                0.10480517               -0.00376776                0.09656081
               1.00814792                6.00289198               20.01997028                0.01000000               -0.13343131                0.00944701                0.09932473                0.17421176               -0.04150442                0.07300037
               2.00577956                6.00136566               20.01846004                0.01143644               -0.16928628               -0.05679151                0.09740645                0.29359668               -0.04799782                0.05811324
               3.00476219                6.00094598               20.01795650                0.01000001               -0.13360406               -0.09434480                0.09732048                0.38743461                0.01697834                0.04344718
               4.00310748                6.00202827               20.01793280                0.01000001               -0.15839257               -0.08872291                0.10126770                0.42333662                0.06093995                0.06161055
               5.00159434                6.00337093               20.01859674                0.01240849               -0.13995979               -0.10015103                0.10795297                0.41513376                0.07920969                0.07408196
               6.00030828                6.00473592               20.01916953                0.01075467               -0.11980040               -0.11690158                0.11475185                0.38306356                0.07941458                0.09207002
               6.99919833                6.00582674               20.02000661                0.01000000               -0.08523371               -0.15250930                0.12486768                0.31145972                0.12283311                0.17794429
               7.99860361                6.00625221               20.02158474                0.01000000               -0.02116711               -0.23955644                0.13276936                0.21491504                0.15654099                0.29685227
               8.99877499                6.00573555               20.02310484                0.01115641                0.02670259               -0.28708544                0.13046276                0.12167339                0.10509878                0.31387438
               9.99913766                6.00432294               20.02357641                0.01000001                0.03626718               -0.20128160                0.12961373                0.04965692                0.05815584                0.28420757
               0.01052179                7.00466141               20.02066367                0.99999999               -0.03047486               -0.03064349                0.10251120                0.00014876               -0.00283950                0.02045215
               1.01021704                7.00259137               20.01979846                1.00000000               -0.03019329               -0.03021939                0.10055262               -0.00015799               -0.00598439               -0.00103983
               2.00991793                7.00052218               20.01887453                0.01000000               -0.12032987               -0.05705722                0.09880361                0.20084648               -0.00249731                0.01547341
               3.00781045                7.00040559               20.01808379                0.01000001               -0.19509860               -0.08025484                0.09994797                0.32198125                0.03399938                0.01287777
               4.00601595                7.00111271               20.01823206                0.01225175               -0.16889281               -0.09932541                0.10504050                0.40124079                0.07866153                0.02656109
               5.00443259                7.00243133               20.01868084                0.01066813               -0.15914784               -0.08288157                0.11070142                0.40757521                0.10824656                0.04061287
               6.00283300                7.00366461               20.01956977                0.01000000               -0.15701327               -0.07960803                0.12257549                0.32305224                0.17496618                0.11912920
               7.00129232                7.00437162               20.02157333                0.01000000               -0.13388219               -0.11943115                0.13531620                0.17119204                0.26673856                0.23778049
               8.00015535                7.00385652               20.02447437                0.01139623               -0.06042329               -0.18383754                0.13689922                0.05307929                0.23076300                0.29846444
               9.00008386                7.00316566               20.02581101                0.01000002                0.00633531               -0.25306348                0.14259961                0.00222075                0.09854317                0.41725258
              10.00028206                7.00284309               20.02601933                0.01074983                0.01982010               -0.18187987                0.14376862               -0.00660549                0.04651897                0.47125057
               0.01259124                8.00435321               20.02065297                1.00000000               -0.03072590               -0.03097920                0.10336264                0.00014342               -0.00110834                0.02324723
               1.01228398                8.00228760               20.01969030                0.99448448               -0.03044870               -0.03050220                0.10156792               -0.00000414               -0.00074338                0.00264754
               2.01198227                8.00022451               20.01873817                0.01108872               -0.08363466               -0.02992691                0.09976944                0.05882044                0.00356495               -0.01611990
               3.01061129                7.99934089               20.01786727                0.01287982               -0.14378575               -0.12689066                0.11189680                0.28744903                0.02099892               -0.00855074
               4.00910655                8.00004176               20.01796873                0.01049491               -0.17086748               -0.09400173                0.10454671                0.43581532                0.11141000               -0.02832324
               5.00719394                8.00171330               20.01869919                0.01000000               -0.21387555               -0.03329612                0.11421716                0.38504628                0.18922399                0.04683710
               6.00482904                8.00314376               20.02053970                0.01000000               -0.23818385               -0.01552064                0.12820983                0.23832466                0.28943828                0.14174868
               7.00243026                8.00343812               20.02358872                0.01143720               -0.19789468               -0.04909816                0.13430826                0.07940743                0.32753653                0.18177774
               8.00087115                8.00257546               20.02639313                0.01000002               -0.12987134               -0.09245699                0.14666411               -0.08735809                0.37051239                0.21987425
               8.99983284                8.00067428               20.03043802                0.01408343               -0.06102219               -0.20033729                0.15981682               -0.17617203                0.31537980                0.52319176
               9.99965071                8.00068534               20.03216409                0.01000000               -0.01821317               -0.19757320                0.16442350               -0.11735333                0.20255218                0.49540886
               0.01465588                9.00404182               20.02064403                1.00000000               -0.03102304               -0.03128895                0.10431185                0.00014162                0.00191350                0.01837035
               1.01434565                9.00198132               20.01959637                0.99999999               -0.03074198               -0.03075021                0.10246608               -0.00000172                0.00071896                0.00204972
               2.01404104                8.99992364               20.01852728                1.00000000               -0.03017384               -0.03021096                0.10056412               -0.00004772               -0.00538919               -0.01172949
               3.01374218                8.99786778               20.01736203                0.01385659               -0.08405989               -0.08850163                0.09859336                0.22454580                0.05151565               -0.03261991
               4.01235985                8.99923267               20.01743649                0.01000000               -0.23553290               -0.01951378                0.10501951                0.36889454                0.17753053               -0.03176037
               5.00903152                9.00176541               20.01896066                0.01000000               -0.32425871                0.04406750                0.11641292                0.27492054                0.26900236                0.04446555
               6.00587467                9.00335420               20.02140262                0.01127774               -0.27913737                0.03025479                0.12472067                0.13456280                0.31194419                0.09404548
               7.00344877                9.00338965               20.02410593                0.01000002               -0.23513222                0.00479149                0.13712186                0.03059516                0.36530071                0.05769808
               8.00117203                9.00200738               20.02786417                0.01000001               -0.24991150               -0.01391464                0.15359416               -0.15096558                0.60407535                0.16912016
               8.99845054                8.99915892               20.03554446                0.99999998               -0.16295740               -0.10268716                0.17886078               -0.21136026                0.39630981                0.26975268
               9.99791288                8.99889162               20.03528432                0.99932329               -0.05376616               -0.11674723                0.17972059               -0.10029135               -0.00059569                0.16913550
               0.01671507               10.00372743               20.02053774                1.00000000               -0.03129453               -0.03143963                0.10522807                0.00043544                0.01249893                0.01344998
               1.01640213               10.00167259               20.01948043                1.00000000               -0.03101068               -0.03087328                0.10335744                0.00029100                0.01554706                0.00081185
               2.01609486                9.99962029               20.01848540                1.00000000               -0.03044765               -0.03033480                0.10148201                0.00029486                0.01550584               -0.00348480
               3.01579318                9.99757085               20.01743014                0.01005109               -0.17540249               -0.02969226                0.09958289                0.20665970                0.05124594               -0.00419399
               4.01258681                9.99965149               20.01715385                0.01311430               -0.36111751                0.04188167                0.10416679                0.27388640                0.15939146               -0.01180722
               5.00857083               10.00259465               20.01884755                0.01000000               -0.33453792                0.08292422                0.11365374                0.15879919                0.27660834                0.03281925
               6.00589605               10.00374886               20.02136786                0.01000001               -0.20909207                0.03946602                0.12383818                0.04910305                0.29147959                0.05305403
               7.00438898               10.00353395               20.02361855                0.01240281               -0.19067398                0.01442958                0.13686176                0.02143704                0.41899074                0.00965934
               8.00208257               10.00229717               20.02882163                0.01239997               -0.28337984                0.02897923                0.15576941               -0.15461585                0.62260899                0.14533605
               8.99872139                9.99862054               20.03527007                0.99935360               -0.19515527               -0.05383764                0.18014276               -0.17025404                0.33625014                0.00082139
               9.99817947                9.99835040               20.03500992                0.99874312               -0.05419200               -0.05412257                0.18100220               -0.00035559                0.00070106               -0.00070351
               0.00107380                0.00131861               21.01663721                1.00000000               -0.02440859               -0.02402370                0.08138832               -0.00038863               -0.00320786                0.00301043
               1.00082971                0.00047823               21.01660580                1.00000000               -0.02441248               -0.02401080                0.08128042               -0.00003787               -0.00359048               -0.00107403
               2.00058555               -0.00037006               21.01656872                0.01000000               -0.04196339               -0.02398888                0.08120439                0.11997545                0.04215606               -0.00149923
               2.99999044                0.00117269               21.01745278                0.01000000               -0.12870343                0.08015360                0.09307531                0.06573200                0.08803716                0.00907091
               3.99801148                0.00388952               21.01858094                0.01000001               -0.22822808                0.06445703                0.08485012                0.08430146                0.10353088                0.00069889
               4.99542588                0.00712794               21.01986043                0.01000000               -0.34027011                0.07393137                0.09622638                0.19996593                0.13764435               -0.00861417
               5.99120608                0.01275778               21.02185679                0.58238415               -0.22725086               -0.03163219                0.10689425                0.23234789                0.06369377               -0.00105774
               6.99088086                0.01373982               21.02278785                0.99874680               -0.03299066               -0.03252847                0.11000720                0.00048383                0.00873708               -0.00220156
               7.99054626                0.01471314               21.02368359                0.99999999               -0.03392429               -0.03346587                0.11303911                0.00050149                0.00767469               -0.00052928
               8.99020238                0.01567727               21.02459252                1.00000000               -0.03486292               -0.03440480                0.11616151                0.00049011                0.00660645                0.00060405
               9.98984900                0.01663243               21.02546624                1.00000000               -0.03533734               -0.03537397                0.11930069                0.00095633                0.00489845                0.00496192
               0.00191029                1.00107837               21.01658462                0.99906195               -0.02366242               -0.02365625                0.07884549               -0.00040267                0.00096673                0.00327795
               1.00167367                1.00023812               21.01655407                0.01172955               -0.02361109               -0.02362835                0.07875542               -0.00001241                0.00257145               -0.00269485
               2.00143807                0.99939005               21.01655465                0.01000000               -0.15778458                0.06821390                0.07871402                0.05729433                0.04607956                0.02392861
               2.99851797                1.00197423               21.01739514                0.01000001               -0.27805992                0.08255986                0.08748175                0.13790489                0.06834087                0.02526984
               3.99587687                1.00453409               21.01830047                0.01000000               -0.27632819                0.05731113                0.08601755                0.15899697                0.06458231                0.01109817
               4.99299141                1.00786725               21.01931252                0.01000000               -0.28266279                0.03024379                0.09306101                0.27817744                0.07085289                0.00872369
               5.99022361                1.01244145               21.02072599                0.01000001               -0.15416964               -0.11202866                0.10393104                0.28449254                0.02814235                0.00140944
               6.98990802                1.01341454               21.02160621                1.00000000               -0.03205304               -0.03206400                0.10693815                0.00004239                0.00106967               -0.00258216
               7.98958255                1.01437849               21.02247794                0.99190092               -0.03301905               -0.03302781                0.11007335                0.00004325                0.00093043               -0.00043170
               8.98924764                1.01533322               21.02335691                0.99999999               -0.03395721               -0.03396219                0.11321551                0.00002757                0.00096251                0.00048457
               9.98890341                1.01627869               21.02423218                1.00000000               -0.03442276               -0.03493329                0.11633467                0.00045781                0.00068765                0.00626695
               0.00274625                2.00084549               21.01653824                0.01000000               -0.02284628                0.01551516                0.07638241               -0.09884710                0.00140594                0.04353503
               1.00251778                2.00000566               21.01647059                0.01000000               -0.13754608                0.06122205                0.07617986               -0.04867521                0.03382371                0.04581696
               1.99999532                2.00099422               21.01704940                0.01000001               -0.24566389                0.12845997                0.08039331                0.02733788                0.04859517                0.06168684
               2.99760450                2.00282389               21.01752093                0.01000000               -0.23484647                0.05985951                0.08712446                0.15525355                0.03313073                0.04640641
               3.99529839                2.00503574               21.01814423                0.01000000               -0.22612211                0.02052369                0.09041385                0.25122659                0.02863441                0.03644029
               4.99308206                2.00773282               21.01886052                0.01000001               -0.19748753               -0.06249558                0.09399268                0.36062149                0.01784514                0.03468972
               5.99134864                2.01051720               21.01964359                0.01141003               -0.20686913               -0.13140169                0.10066877                0.37715780                0.00839585                0.01996109
               6.98894468                2.01309854               21.02041649                0.01000000               -0.13601007               -0.10247441                0.10386910                0.24406999               -0.00884548                0.03024898
               7.98862844                2.01405259               21.02127422                0.01245046               -0.03209769               -0.07115280                0.10710200                0.07432199               -0.00548741                0.01840561
               8.98830273                2.01499803               21.02211931                0.99999999               -0.03306077               -0.03305026                0.11026040                0.00006126               -0.00346291               -0.00118153
               9.98796723                2.01593376               21.02302451                0.99999999               -0.03354992               -0.03406303                0.11338281                0.00047672               -0.00065607                0.00616002
               0.00161299                3.00138868               21.01728950                0.01000001               -0.10615653                0.10005645                0.06935323               -0.04215083                0.01924955                0.08209114
               1.00055143                3.00146256               21.01738828                0.01000001               -0.12231981                0.10425896                0.07501491               -0.05558626               -0.00097462                0.09306548
               1.99916660                3.00195925               21.01760549                0.01000000               -0.14849516                0.05477781                0.08602780                0.07917876                0.00390636                0.07643115
               2.99758152                3.00317142               21.01781645                0.01000000               -0.15870594                0.00948649                0.08924342                0.20738061                0.00921111                0.06149476
               3.99599248                3.00494456               21.01823197                0.01203925               -0.14295737               -0.04118780                0.09340582                0.28276266                0.01072510                0.05171996
               4.99472238                3.00661734               21.01868552                0.01000000               -0.17957166               -0.08692383                0.09665588                0.39778839                0.00739451                0.05028462
               5.99240104                3.00981342               21.01921341                0.01000001               -0.17341721               -0.11630845                0.10089368                0.41369728                0.00348636                0.07405667
               6.99125403                3.01136505               21.01989254                0.01000001               -0.16157681               -0.16422765                0.10549655                0.37981900                0.00259536                0.08769100
               7.98916951                3.01295543               21.02044926                0.01277692               -0.19431727               -0.12532243                0.11244256                0.33076106               -0.01222537                0.05797841
               8.98736769                3.01467222               21.02085440                0.01362623               -0.10640190               -0.08484480                0.10729404                0.25803007               -0.02811703                0.05429614
               9.98704147                3.01559743               21.02179100                0.24318308               -0.03262169               -0.20726579                0.11041687                0.25653067               -0.00178259                0.03810699
               0.00175546                4.00284661               21.01817451                0.01000000               -0.09199740                0.18137498                0.09540116                0.07656697                0.01770306                0.19705606
               1.00083548                4.00209084               21.01822036                0.01000000               -0.09427076                0.05056153                0.09131309                0.10558461               -0.00360688                0.12590755
               1.99987004                4.00208978               21.01823281                0.01000000               -0.10343371               -0.00915129                0.09019863                0.20382436               -0.00627874                0.07641100
               2.99876681                4.00301362               21.01822217                0.01204020               -0.11811570               -0.03265540                0.09301308                0.26813051               -0.00538422                0.05811687
               3.99750773                4.00421198               21.01832179                0.01000000               -0.12989181               -0.08662934                0.09558276                0.34963949                0.00374333                0.05459436
               4.99616897                4.00599434               21.01866716                0.01000001               -0.13164217               -0.08465628                0.09894734                0.40185147                0.02308116                0.07543239
               5.99487488                4.00819103               21.01933835                0.01000001               -0.13849601               -0.15791935                0.10390124                0.44523159                0.03849028                0.11356899
               6.99339905                4.00981399               21.02013432                0.01211588               -0.14691938               -0.15731029                0.10877555                0.42332976                0.01529023                0.11864865
               7.99193650                4.01154614               21.02049517                0.01034870               -0.12888608               -0.17144762                0.11092502                0.49184892               -0.02671832                0.13411348
               8.99082133                4.01330113               21.02073168                0.01000000               -0.03445389               -0.24551891                0.11125786                0.41981654               -0.02431281                0.17637683
               9.99124742                4.01178845               21.02122662                0.01257353                0.04260882               -0.40276059                0.11214290                0.31387008               -0.00396866                0.13226555
               0.00465588                5.00501618               21.02006272                0.01000000               -0.12359183                0.11802686                0.10151504                0.11698486               -0.01972128                0.22648573
               1.00341996                5.00247379               21.01950346                0.01000000               -0.11677865                0.04641882                0.09969767                0.24007737               -0.02006559                0.15320295
               2.00232030                5.00177623               21.01888643                0.01000001               -0.12990162               -0.03112335                0.09390901                0.32432880               -0.02705214                0.07086651
               3.00082193                5.00251831               21.01847186                0.01000000               -0.11578768               -0.09593035                0.09551938                0.39372546               -0.00709864                0.05810995
               4.00000455                5.00321197               21.01854953                0.01000001               -0.10207850               -0.09490511                0.09802698                0.41519973                0.03304258                0.06374804
               4.99878036                5.00492422               21.01906771                0.01000001               -0.12592615               -0.10998558                0.10303477                0.45253721                0.06514879                0.09975131
               5.99748603                5.00665503               21.01996010                0.01223754               -0.12074166               -0.14402453                0.10890264                0.44134150                0.05848314                0.11435270
               6.99636552                5.00821884               21.02051180                0.01047831               -0.09833411               -0.16521431                0.11331902                0.43513313                0.03745829                0.13570348
               7.99551935                5.00952648               21.02113009                0.01000000               -0.04219060               -0.22955578                0.11868909                0.41189300                0.05354248                0.20877368
               8.99552171                5.00976184               21.02207083                0.01000000                0.04124467               -0.34518886                0.12165218                0.30184990                0.05087753                0.27003555
               9.99634424                5.00754222               21.02254660                0.01000000                0.08225276               -0.34760286                0.11995136                0.17868411                0.03588493                0.25047196
               0.00917992                6.00520715               21.02174502                0.86435308               -0.03029389               -0.00577603                0.10176193                0.11678369               -0.00374396                0.10518315
               1.00887698                6.00301922               21.02096852                0.01000001               -0.14339105                0.01212711                0.10028864                0.19503748               -0.04181754                0.07752092
               2.00631210                6.00146731               21.01943568                0.01141453               -0.18357054               -0.06216432                0.09778193                0.32573169               -0.04733641                0.05945915
               3.00520557                6.00109501               21.01893083                0.01000001               -0.14531396               -0.09736526                0.09762904                0.42529592                0.02066923                0.04445670
               4.00340582                6.00231388               21.01894519                0.01000001               -0.17144559               -0.09253665                0.10116024                0.46057976                0.06789368                0.06473123
               5.00177666                6.00379463               21.01967413                0.01223922               -0.14993652               -0.10660412                0.10745557                0.45367233                0.08746984                0.07822168
               6.00040709                6.00531054               21.02031102                0.01054876               -0.12731931               -0.12388433                0.11349251                0.41878280                0.08929900                0.09915505
               6.99923027                6.00650970               21.02124687                0.01000000               -0.08878637               -0.16277676                0.12308356                0.33981446                0.13338040                0.18885648
               7.99863136                6.00695502               21.02290183                0.01000000               -0.01938407               -0.25440665                0.13075894                0.23604989                0.16104847                0.30614342
               8.99884259                6.00639735               21.02440337                0.01109008                0.03144923               -0.30461080                0.12963779                0.13326271                0.10572781                0.32496067
               9.99926034                6.00483639               21.02487193                0.01000001                0.04177559               -0.21407534                0.12990568                0.05414433                0.05966083                0.29760812
               0.01136742                7.00490066               21.02169186                0.99999999               -0.03068660               -0.03080278                0.10310296                0.00016833               -0.00311856                0.02069995
               1.01106055                7.00271634               21.02080748                1.00000000               -0.03041380               -0.03043662                0.10129763               -0.00008194               -0.00618654               -0.00081777
               2.01075914                7.00053294               21.01986585                0.01000000               -0.12896399               -0.06177525                0.09965894                0.22405307               -0.00144442                0.01596222
               3.00848127                7.00057101               21.01908130                0.01000001               -0.21213041               -0.07456053                0.09924520                0.34246504                0.03914081                0.01685770
               4.00651653                7.00136124               21.01928158                0.01212059               -0.18120651               -0.10768229                0.10469926                0.43179496                0.08758751                0.02682084
               5.00485714                7.00279213               21.01978213                0.01048312               -0.16849617               -0.08729756                0.10959180                0.44267479                0.11933132                0.04431352
               6.00314661                7.00417735               21.02078726                0.01000000               -0.16699044               -0.08294372                0.12094387                0.35270959                0.18912672                0.12668922
               7.00151733                7.00496331               21.02291549                0.01000000               -0.13969585               -0.12575894                0.13317998                0.19082697                0.27578481                0.24355179
               8.00035269                7.00443834               21.02583830                0.01132707               -0.06058662               -0.19375954                0.13592457                0.06156007                0.23619976                0.30612619
               9.00030560                7.00366962               21.02723614                0.01000002                0.00981799               -0.26809573                0.14249139                0.00422895                0.10376554                0.43183360
              10.00054905                7.00326071               21.02746165                0.01098468                0.02434524               -0.19152514                0.14476260               -0.00619233                0.04983187                0.48853925
               0.01355192                8.00459110               21.02168801                1.00000000               -0.03088680               -0.03109464                0.10371957                0.00016887               -0.00091604                0.02322270
               1.01324306                8.00241049               21.02071073                0.99589851               -0.03067189               -0.03071389                0.10227728                0.00003805               -0.00053874                0.00277882
               2.01293849                8.00023180               21.01974405                0.01000000               -0.10082444               -0.03026710                0.10081024                0.07739084                0.01011003               -0.01604939
               3.01122657                7.99960380               21.01898379                0.01278487               -0.15589477               -0.14079411                0.10971315                0.31296241                0.03283889               -0.01722463
               4.00982059                8.00016024               21.01900832                0.01035958               -0.17062602               -0.10175440                0.10311357                0.46382486                0.11760118               -0.02750561
               5.00781405                8.00204868               21.01983566                0.01000000               -0.22652423               -0.03243136                0.11316131                0.41935033                0.20426586                0.05083733
               6.00529011                8.00365167               21.02181378                0.01000000               -0.25141169               -0.01443028                0.12677326                0.26153770                0.30199888                0.14426166
               7.00278581                8.00399452               21.02492886                0.01136604               -0.20669297               -0.05026819                0.13376121                0.08934713                0.33840509                0.18408605
               8.00115625                8.00307983               21.02785935                0.01000002               -0.13405049               -0.09763353                0.14657279               -0.09087461                0.38397499                0.22849352
               9.00010480                8.00103544               21.03203430                0.01402618               -0.06009611               -0.21178232                0.15956380               -0.18401470                0.32460916                0.54006176
               9.99995432                8.00100589               21.03380777                0.01000000               -0.01504784               -0.20535327                0.16447112               -0.12226982                0.20767939                0.51253511
               0.01573201                9.00427876               21.02168778                1.00000000               -0.03114099               -0.03136301                0.10452230                0.00007814                0.00214588                0.01847690
               1.01542060                9.00210206               21.02062542                0.99999999               -0.03091874               -0.03092538                0.10305813               -0.00004600                0.00084951                0.00194442
               2.01511364                8.99992760               21.01953920                1.00000000               -0.03042586               -0.03047045                0.10143404               -0.00004101               -0.00556378               -0.01203596
               3.01481209                8.99775513               21.01835189                0.01373932               -0.08827408               -0.10740082                0.09946907                0.25764683                0.05550226               -0.03931998
               4.01334816                8.99932615               21.01849164                0.01000000               -0.25296863               -0.01710794                0.10560529                0.40243225                0.18869303               -0.03129345
               5.00975271                9.00214351               21.02012435                0.01000000               -0.34583205                0.04976717                0.11633522                0.29938898                0.28163338                0.04598938
               6.00643152                9.00388874               21.02265021                0.01120678               -0.29383016                0.03360578                0.12489437                0.14799271                0.32451787                0.09380837
               7.00387611                9.00395794               21.02548094                0.01000002               -0.24686158                0.00660298                0.13784202                0.03347321                0.38082199                0.06055035
               8.00149429                9.00248567               21.02940325                0.01000002               -0.25884294               -0.01415433                0.15418195               -0.15971521                0.62454285                0.17384490
               8.99869925                8.99943398               21.03732973                0.99999998               -0.16657630               -0.10693420                0.17820142               -0.22256855                0.40803264                0.27840276
               9.99816276                8.99915364               21.03708139                0.99948198               -0.05364931               -0.11972804                0.17969369               -0.10363431               -0.00059661                0.17598825
               0.01790690               10.00396384               21.02159060                1.00000000               -0.03135953               -0.03149269                0.10531705                0.00030244                0.01244046                0.01358398
               1.01759330               10.00179198               21.02051497                1.00000000               -0.03111491               -0.03100796                0.10362968                0.00019760                0.01551385                0.00057642
               2.01728460                9.99962239               21.01950197                1.00000000               -0.03061766               -0.03052030                0.10194167                0.00028634                0.01556160               -0.00382367
               3.01698095                9.99745579               21.01842981                0.01000000               -0.19018717               -0.02993378                0.10029531                0.22667019                0.05469857               -0.00407002
               4.01348085                9.99981808               21.01820319                0.01317465               -0.38708547                0.04919237                0.10553713                0.29268126                0.16848421               -0.01258450
               5.00923924               10.00304402               21.01999040                0.01000000               -0.35226653                0.09005129                0.11480175                0.17393775                0.28812927                0.03189549
               6.00643552               10.00432378               21.02261161                0.01000001               -0.21904465                0.04350433                0.12491599                0.05452885                0.30526790                0.05423432
               7.00485835               10.00412658               21.02499805                0.01263795               -0.19748068                0.01686393                0.13886718                0.02187145                0.43613805                0.01143376
               8.00248591               10.00279675               21.03038431                0.01000002               -0.29364417                0.03110727                0.15673885               -0.16232893                0.64410078                0.14807350
               8.99898546                9.99889675               21.03707164                0.99952485               -0.20218040               -0.05372217                0.18017083               -0.18065011                0.34759583                0.00081091
               9.99844230                9.99861133               21.03682329                0.99893764               -0.05431594               -0.05423182                0.18166478               -0.00058854                0.00071536               -0.00069930
               0.00107350                0.00141404               22.01745290                1.00000000               -0.02453403               -0.02406759                0.08167389               -0.00051896               -0.00326094                0.00291175
               1.00082816                0.00053165               22.01741986                1.00000000               -0.02446248               -0.02403802                0.08155732                0.00009454               -0.00345014               -0.00109501
               2.00058425               -0.00035820               22.01738170                0.01000000               -0.04366039               -0.02399538                0.08140193                0.12638747                0.04505312               -0.00134343
               2.99995496                0.00127133               22.01832080                0.01000000               -0.13806019                0.08928970                0.08594924                0.06830147                0.09915579                0.00399882
               3.99782305                0.00418105               22.01942752                0.01000001               -0.24822560                0.07220134                0.08514592                0.09000821                0.10725467                0.00293618
               4.99499044                0.00768999               22.02084191                0.01000000               -0.37297751                0.08531645                0.09653920                0.22202985                0.13072756               -0.00125117
               5.99036350                0.01389280               22.02292368                0.57457053               -0.24756595               -0.03156366                0.10645004                0.25910617                0.06632267               -0.00103524
               6.99003913                0.01491431               22.02388679                0.99870279               -0.03292609               -0.03250782                0.10973742                0.00056330                0.00862531               -0.00243648
               7.98970498                0.01592834               22.02481218                0.99999999               -0.03387937               -0.03346437                0.11276734                0.00055483                0.00757442               -0.00029197
               8.98936154                0.01693376               22.02575229                1.00000000               -0.03481184               -0.03441953                0.11590222                0.00043272                0.00668696                0.00092954
               9.98900874                0.01793104               22.02665851                1.00000000               -0.03527953               -0.03539083                0.11912688                0.00079721                0.00505138                0.00485043
               0.00195070                1.00117336               22.01737290                0.99898246               -0.02354773               -0.02363670                0.07888328               -0.00043210                0.00102572                0.00341703
               1.00171523                1.00029127               22.01734134                0.01160920               -0.02362074               -0.02363661                0.07869394                0.00008022                0.00234786               -0.00286715
               2.00147829                0.99940185               22.01734164                0.01000000               -0.16734398                0.07271555                0.07866930                0.06182686                0.05036156                0.02534117
               2.99836835                1.00216423               22.01826593                0.01000001               -0.29822434                0.09084998                0.08627643                0.14539795                0.07428857                0.02331584
               3.99551380                1.00490307               22.01915470                0.01000000               -0.30067378                0.06419740                0.08613619                0.17226086                0.06180633                0.01909523
               4.99235487                1.00854316               22.02024576                0.01000000               -0.30856987                0.03654406                0.09343776                0.30927098                0.06575749                0.01773791
               5.98934240                1.01357716               22.02176575                0.01000001               -0.16639432               -0.12052243                0.10394141                0.31594252                0.03171696                0.00115380
               6.98902698                1.01458923               22.02267554                0.99985641               -0.03208014               -0.03207557                0.10699928                0.00012384                0.00103802               -0.00279976
               7.98870080                1.01559370               22.02358199                0.99262563               -0.03312334               -0.03312091                0.11037718                0.00008628                0.00106922               -0.00016742
               8.98836452                1.01658957               22.02449289                0.99999999               -0.03406821               -0.03406824                0.11356656               -0.00004161                0.00084578                0.00069271
               9.98801944                1.01757713               22.02539566                1.00000000               -0.03450803               -0.03501077                0.11648903                0.00031303                0.00038654                0.00618868
               0.00282905                2.00094130               22.01730079                0.01000001               -0.02277687                0.02107059                0.07610561               -0.09875155                0.00149491                0.05555599
               1.00260128                2.00005892               22.01723022                0.01000000               -0.14406076                0.06617311                0.07572100               -0.06331958                0.03552223                0.05350742
               1.99994783                2.00109611               22.01783629                0.01000001               -0.26197902                0.13670079                0.08003847                0.02539052                0.04415556                0.06905138
               2.99736170                2.00308833               22.01840504                0.01000000               -0.25292474                0.06400268                0.08852761                0.16761948                0.03325740                0.04812431
               3.99488934                2.00546500               22.01904166                0.01000000               -0.24299645                0.02399208                0.08976861                0.27387174                0.02695615                0.04501613
               4.99250177                2.00842087               22.01979668                0.01000001               -0.21265304               -0.06579780                0.09386185                0.39815625                0.02058926                0.04111423
               5.99063628                2.01148235               22.02065014                0.01139815               -0.22383542               -0.14285678                0.10034543                0.41681594                0.01018558                0.02056596
               6.98802506                2.01427280               22.02145582                0.01000000               -0.14649537               -0.10975158                0.10422468                0.27093802               -0.00854664                0.03225977
               7.98770637                2.01526593               22.02235368                0.01100903               -0.03238930               -0.08479036                0.10795837                0.09395044               -0.00523908                0.02295829
               8.98737728                2.01625240               22.02322859                0.99999998               -0.03332475               -0.03328086                0.11103806                0.00002717               -0.00373885               -0.00133513
               9.98703987                2.01723082               22.02415975                0.99999999               -0.03374007               -0.03424353                0.11384823                0.00044591               -0.00108122                0.00620859
               0.00174045                3.00159477               22.01826044                0.01000001               -0.14464236                0.14155014                0.09095663               -0.04351927                0.01034301                0.10962901
               1.00029402                3.00161473               22.01827813                0.01000001               -0.13918804                0.11744685                0.08771263               -0.06554716                0.00125406                0.11540469
               1.99895668                3.00213587               22.01842391                0.01000000               -0.14710862                0.05513101                0.08253131                0.08425337                0.00702466                0.08267960
               2.99735185                3.00344428               22.01870724                0.01000000               -0.16489965                0.00909399                0.08907516                0.22758042                0.01324014                0.06492681
               3.99565869                3.00538291               22.01916387                0.01201515               -0.15256005               -0.04304453                0.09317700                0.31069904                0.01260693                0.05658619
               4.99430065                3.00722720               22.01964985                0.01000000               -0.19159466               -0.09281037                0.09633603                0.43625630                0.00970077                0.05507987
               5.99182680                3.01072002               22.02021992                0.01000001               -0.18192409               -0.12599633                0.10039494                0.45284267                0.00623483                0.07820763
               6.99066217                3.01239420               22.02094710                0.01000001               -0.16132936               -0.17898384                0.10478377                0.40646743                0.00780472                0.09236214
               7.98860021                3.01389789               22.02158759                0.01270539               -0.21310017               -0.13599305                0.11421288                0.35935404               -0.00828844                0.05696909
               8.98640016                3.01592395               22.02193068                0.01353580               -0.12643548               -0.08899137                0.10810354                0.29121432               -0.03263672                0.05764820
               9.98607150                3.01689226               22.02289967                0.25509814               -0.03286613               -0.22427640                0.11127519                0.28017582               -0.00159519                0.04071309
               0.00191875                4.00377230               22.01937202                0.01000000               -0.11695043                0.21351040                0.10742616                0.02661217               -0.00838578                0.20125973
               1.00074924                4.00240785               22.01922265                0.01000000               -0.10576988                0.05517987                0.09844115                0.10198915               -0.01625476                0.13762126
               1.99980335                4.00219873               22.01911582                0.01000000               -0.10414888               -0.01316971                0.08914672                0.22481127               -0.00717338                0.08343162
               2.99866626                4.00327021               22.01915058                0.01201605               -0.12414759               -0.03491281                0.09300336                0.29864077               -0.00216001                0.06261598
               3.99732040                4.00460411               22.01927670                0.01000000               -0.13882431               -0.09220908                0.09553061                0.38374702                0.00589732                0.05807641
               4.99588978                4.00656467               22.01965485                0.01000001               -0.13971330               -0.09023969                0.09866526                0.43938186                0.02632689                0.08017555
               5.99452613                4.00896242               22.02037468                0.01000001               -0.14566188               -0.17015016                0.10331352                0.48273845                0.04266466                0.11943712
               6.99297654                4.01069312               22.02121958                0.01201819               -0.15812154               -0.16854386                0.10824991                0.45400393                0.01847620                0.12340479
               7.99136370                4.01254607               22.02160353                0.01024221               -0.13846731               -0.17407181                0.11020719                0.52284604               -0.02681001                0.13723243
               8.99020719                4.01447257               22.02185030                0.01000000               -0.03284656               -0.26437770                0.11224197                0.45606080               -0.02481116                0.18633493
               9.99070677                4.01274530               22.02235804                0.01262752                0.04995746               -0.43297035                0.11391736                0.33518930               -0.00445389                0.13971890
               0.00500159                5.00586498               22.02125356                0.01272033               -0.10942188                0.08341504                0.09701646                0.08571238               -0.02993241                0.22052491
               1.00390738                5.00271833               22.02059613                0.01000000               -0.12055205                0.03652646                0.09798952                0.24395752               -0.02837934                0.14833163
               2.00259055                5.00187247               22.01980863                0.01000001               -0.14940431               -0.03116600                0.09646966                0.35474357               -0.03305693                0.07689824
               3.00091929                5.00274602               22.01943161                0.01000000               -0.12756892               -0.10222662                0.09595461                0.43330260               -0.00471208                0.06089370
               4.00003917                5.00353873               22.01952933                0.01000001               -0.10946574               -0.10066271                0.09816482                0.45390169                0.03658663                0.06684324
               4.99872997                5.00542241               22.02009628                0.01000001               -0.13430312               -0.11718584                0.10274441                0.49332127                0.07067246                0.10478372
               5.99735311                5.00731702               22.02104494                0.01211200               -0.12856866               -0.15352790                0.10820631                0.47981535                0.06371956                0.12006303
               6.99615860                5.00902332               22.02163882                0.01033399               -0.10377142               -0.17464731                0.11216115                0.46990124                0.04235615                0.14362425
               7.99527768                5.01041646               22.02231109                0.01000000               -0.04182264               -0.24395965                0.11759501                0.44587268                0.05784174                0.21970430
               8.99532215                5.01063640               22.02328621                0.01000000                0.04760757               -0.37015596                0.12152525                0.32643258                0.05169054                0.28093753
               9.99622984                5.00823285               22.02375395                0.01000000                0.09076870               -0.36926186                0.12141484                0.19399572                0.03499563                0.26063079
               0.00992630                6.00544061               22.02276639                0.84609362               -0.03053983               -0.03662824                0.10248246                0.13110620               -0.00374148                0.09664783
               1.00962090                6.00313838               22.02197605                0.01000001               -0.15278881                0.00572398                0.10117257                0.20733745               -0.04247298                0.07299576
               2.00687052                6.00157541               22.02041568                0.01140255               -0.19774198               -0.06697076                0.09821786                0.35559811               -0.04860333                0.06264681
               3.00566606                6.00122568               22.01990908                0.01000001               -0.15742378               -0.10281196                0.09831644                0.46368471                0.02329701                0.04401910
               4.00372205                6.00259086               22.01995600                0.01000001               -0.18440767               -0.09763658                0.10121619                0.50114895                0.07403127                0.06689719
               5.00197791                6.00422095               22.02074585                0.01211347               -0.16002623               -0.11331667                0.10706906                0.49422827                0.09503174                0.08144308
               6.00052152                6.00589186               22.02143938                0.01038830               -0.13513895               -0.13106919                0.11245183                0.45541384                0.09798996                0.10566748
               6.99927513                6.00720018               22.02246828                0.01000000               -0.09267208               -0.17313289                0.12144054                0.36866950                0.14268528                0.19945758
               7.99866808                6.00766687               22.02419992                0.01000000               -0.01778396               -0.26974656                0.12914089                0.25751457                0.16505443                0.31588576
               8.99891945                6.00706945               22.02569759                0.01102284                0.03628435               -0.32324938                0.12947723                0.14534302                0.10634714                0.33642064
               9.99939377                6.00536006               22.02617453                0.01000001                0.04743179               -0.22774132                0.13079036                0.05895368                0.06108906                0.31073639
               0.01222817                7.00513241               22.02272573                0.99999999               -0.03088508               -0.03094315                0.10365749                0.00009851               -0.00337731                0.02093092
               1.01191932                7.00283281               22.02182442                1.00000000               -0.03064732               -0.03065732                0.10203187               -0.00015470               -0.00633680               -0.00067278
               2.01161522                7.00053306               22.02086771                0.01000000               -0.13708869               -0.06726176                0.10059204                0.24489311               -0.00146512                0.01664072
               3.00917754                7.00068978               22.02006869                0.01000001               -0.22741696               -0.07499369                0.09897053                0.36953355                0.04318538                0.01609070
               4.00706688                7.00158599               22.02032605                0.01202288               -0.19320048               -0.11546320                0.10438997                0.46754722                0.09818929                0.02431451
               5.00531353                7.00315607               22.02087267                0.01033873               -0.17923587               -0.09165634                0.10896298                0.48027687                0.13032689                0.04721441
               6.00348216                7.00469564               22.02198864                0.01000000               -0.17782749               -0.08629104                0.11967467                0.38294436                0.20265153                0.13377277
               7.00175698                7.00556066               22.02423693                0.01000000               -0.14617318               -0.13228878                0.13144668                0.21017776                0.28456294                0.24975387
               8.00055870                7.00502153               22.02719286                0.01125905               -0.06105802               -0.20432458                0.13528994                0.06939368                0.24181206                0.31454771
               9.00053582                7.00417141               22.02866083                0.01000002                0.01344961               -0.28437587                0.14266801                0.00568237                0.10910135                0.44655578
              10.00082769                7.00367803               22.02891458                0.01123037                0.02918704               -0.20218814                0.14596224               -0.00615906                0.05337694                0.50550567
               0.01452749                8.00482174               22.02272737                1.00000000               -0.03103201               -0.03118241                0.10412040                0.00011638               -0.00088129                0.02321488
               1.01421717                8.00252523               22.02173585                0.99748338               -0.03080396               -0.03084186                0.10272943                0.00001687               -0.00051299                0.00283332
               2.01391141                8.00023018               22.02075437                0.01000000               -0.11066859               -0.03040254                0.10129195                0.08943220                0.01428136               -0.01605734
               3.01200379                7.99972580               22.02006153                0.01271324               -0.16523522               -0.15272160                0.10524594                0.33868293                0.05462074               -0.03638857
               4.01060670                8.00028159               22.02003100                0.01025283               -0.17649960               -0.10870264                0.10241557                0.49781939                0.12804973               -0.02634153
               5.00847380                8.00238782               22.02096242                0.01000000               -0.24154419               -0.03128072                0.11264607                0.45382643                0.22016605                0.05449454
               6.00577582                8.00416604               22.02307517                0.01000000               -0.26605032               -0.01315518                0.12586497                0.28464288                0.31472036                0.14716693
               7.00315280                8.00455440               22.02626395                0.01129626               -0.21653036               -0.05145955                0.13351420                0.09847633                0.34948005                0.18727572
               8.00144521                8.00358038               22.02932459                0.01000002               -0.13880996               -0.10311075                0.14664359               -0.09585379                0.39703413                0.23739767
               9.00037660                8.00138193               22.03362929                0.01396842               -0.05939314               -0.22408900                0.15989368               -0.19334268                0.33328740                0.55603612
              10.00025735                8.00131630               22.03545351                0.01000000               -0.01192476               -0.21410814                0.16510519               -0.12806731                0.21243189                0.52853616
               0.01682351                9.00450877               22.02273448                1.00000000               -0.03122928               -0.03141465                0.10478498                0.00010363                0.00219073                0.01855593
               1.01651122                9.00221597               22.02165753                0.99999999               -0.03101066               -0.03101057                0.10336640                0.00000565                0.00087527                0.00194437
               2.01620330                8.99992500               22.02055596                1.00000000               -0.03057145               -0.03059459                0.10191614               -0.00003866               -0.00561152               -0.01208641
               3.01589979                8.99763535               22.01935141                0.01365543               -0.09210236               -0.11960930                0.10035020                0.28345366                0.05914345               -0.04355177
               4.01436125                8.99941194               22.01954860                0.01000000               -0.26970888               -0.01524456                0.10568998                0.43421565                0.19911932               -0.03059967
               5.01050561                9.00253046               22.02128737                0.01000000               -0.36764023                0.05563222                0.11644916                0.32358887                0.29441713                0.04791875
               6.00700844                9.00443253               22.02390051                0.01113511               -0.30967196                0.03723536                0.12538187                0.16094778                0.33730695                0.09413766
               7.00431217                9.00453147               22.02686278                0.01000002               -0.25971769                0.00870001                0.13863753                0.03565115                0.39621463                0.06396565
               8.00181409                9.00295931               22.03094781                0.01000002               -0.26895591               -0.01419305                0.15485819               -0.16980317                0.64390756                0.17841917
               8.99893305                8.99968963               22.03910849                0.99999998               -0.17082352               -0.11144998                0.17752637               -0.23528594                0.41881955                0.28635750
               9.99839762                8.99939586               22.03887819                0.99966808               -0.05354324               -0.12318420                0.17966869               -0.10772011               -0.00060490                0.18238354
               0.01911515               10.00419345               22.02264408                1.00000000               -0.03141129               -0.03153170                0.10540474                0.00032185                0.01246206                0.01364174
               1.01880104               10.00190502               22.02155302                1.00000000               -0.03119516               -0.03109458                0.10394687                0.00022434                0.01552311                0.00054849
               2.01849125                9.99961829               22.02052423                1.00000000               -0.03075547               -0.03067177                0.10247317                0.00022513                0.01556450               -0.00389743
               3.01818593                9.99733362               22.01943605                0.01000000               -0.20476708               -0.03017359                0.10097539                0.24653507                0.05826218               -0.00405039
               4.01439591                9.99997670               22.01926459                0.01326444               -0.41304720                0.05647592                0.10651227                0.31180854                0.17805832               -0.01338819
               5.00992499               10.00350047               22.02114358                0.01000000               -0.37010744                0.09700075                0.11582658                0.18864024                0.29939626                0.03124178
               6.00699376               10.00491075               22.02386618                0.01000001               -0.22929729                0.04782161                0.12610424                0.05992825                0.31920130                0.05558349
               7.00533904               10.00472840               22.02639589                0.01260531               -0.20513829                0.01969258                0.14068555                0.02197559                0.45298081                0.01364751
               8.00289100               10.00329652               22.03195641                0.01000002               -0.30523585                0.03372086                0.15769822               -0.17108289                0.66422750                0.15045788
               8.99923433                9.99915293               22.03887349                0.99971949               -0.21002599               -0.05366944                0.18019738               -0.19206814                0.35822606                0.00086805
               9.99869048                9.99885261               22.03864322                0.99912397               -0.05438500               -0.05432521                0.18234002               -0.00074668                0.00064291               -0.00072283
               0.00107466                0.00153685               23.01827069                1.00000000               -0.02427524               -0.02380218                0.08167284               -0.00042055               -0.00308891                0.00319942
               1.00083191                0.00061337               23.01823695                1.00000000               -0.02444991               -0.02429488                0.08178609               -0.00068454               -0.00340310               -0.00115679
               2.00058566               -0.00031680               23.01819676                0.01028267               -0.04520863               -0.02409146                0.08176539                0.13095699                0.04693415               -0.00144657
               2.99992774                0.00136242               23.01917177                0.01000000               -0.14750976                0.09938883                0.08598833                0.06682871                0.11642455                0.00115436
               3.99763547                0.00449388               23.02028386                0.01000001               -0.26917357                0.08079644                0.08692351                0.09640847                0.11436295                0.00436358
               4.99454427                0.00829520               23.02179121                0.01000000               -0.40739127                0.09720310                0.09295247                0.24307732                0.14027786               -0.00005445
               5.98948764                0.01505294               23.02398579                0.56717135               -0.26896944               -0.03148722                0.10601457                0.28497325                0.07034299               -0.00102822
               6.98916488                0.01611360               23.02498260                1.00000000               -0.03276966               -0.03240886                0.10921591                0.00050237                0.00860570               -0.00264473
               7.98883225                0.01716767               23.02593894                0.99999999               -0.03375473               -0.03340448                0.11242346                0.00048599                0.00750798               -0.00030513
               8.98848978                0.01821466               23.02691057                1.00000000               -0.03473288               -0.03438806                0.11571833                0.00048225                0.00671152                0.00098798
               9.98813759                0.01925513               23.02784878                1.00000000               -0.03521901               -0.03539050                0.11896183                0.00084718                0.00510197                0.00484702
               0.00199393                1.00129882               23.01816228                0.99863594               -0.02420427               -0.02338876                0.07878936               -0.00070839                0.00119638                0.00360212
               1.00175189                1.00037042               23.01812795                0.01000000               -0.02366110               -0.02371756                0.07870059                0.00021387                0.00294742               -0.00288989
               2.00152071                0.99944228               23.01812803                0.01000000               -0.17806028                0.08048871                0.07887139                0.05519159                0.05421524                0.02794568
               2.99819068                1.00235631               23.01912067                0.01000001               -0.31937733                0.09913239                0.08365660                0.14980519                0.08538622                0.02122603
               3.99513316                1.00530185               23.02002319                0.01000000               -0.32475867                0.07165027                0.08809164                0.18606658                0.06521541                0.02449549
               4.99169551                1.00926724               23.02118127                0.01000000               -0.33524922                0.04279021                0.09261617                0.33886624                0.07256016                0.02075059
               5.98842818                1.01473807               23.02280482                0.01000001               -0.17914871               -0.12892967                0.10384668                0.34639247                0.03514836                0.00039197
               6.98811254                1.01578951               23.02374619                0.99938908               -0.03207982               -0.03207164                0.10697648                0.00004447                0.00095649               -0.00297803
               7.98778658                1.01683363               23.02468548                0.99333289               -0.03308282               -0.03307596                0.11026454               -0.00000467                0.00107319               -0.00016292
               8.98745088                1.01787078               23.02562825                0.99999999               -0.03404935               -0.03405615                0.11352266               -0.00001533                0.00083676                0.00073194
               9.98710560                1.01890122               23.02656196                1.00000000               -0.03452842               -0.03505977                0.11672318                0.00032905                0.00036077                0.00616221
               0.00291730                2.00106907               23.01806035                0.01184253               -0.02245693                0.01056017                0.07577033               -0.10347818                0.00155740                0.06153883
               1.00269273                2.00013902               23.01798501                0.01000000               -0.16068440                0.07039006                0.07547418               -0.05574760                0.03863636                0.06041541
               1.99970361                2.00129297               23.01865017                0.01000001               -0.28142245                0.14455151                0.08583385                0.02816606                0.04206831                0.07780368
               2.99706428                2.00334507               23.01929148                0.01000000               -0.26288666                0.06840563                0.08720742                0.17747981                0.03334769                0.04913100
               3.99444588                2.00592689               23.01993960                0.01000000               -0.25894555                0.02697029                0.08984046                0.29873875                0.02715223                0.05102819
               4.99188537                2.00915101               23.02073775                0.01000001               -0.22763295               -0.07032324                0.09402138                0.43561472                0.02301734                0.04593066
               5.98989322                2.01247435               23.02165050                0.01139269               -0.24075799               -0.15425167                0.09976744                0.45607347                0.01247143                0.02122819
               6.98707021                2.01547217               23.02250099                0.01000000               -0.15711626               -0.11704907                0.10472535                0.29808649               -0.00795520                0.03316767
               7.98675089                2.01650616               23.02343339                0.01018020               -0.03241622               -0.09943323                0.10807513                0.11474748               -0.00518873                0.02752492
               8.98642188                2.01753353               23.02434007                0.99999998               -0.03338044               -0.03336540                0.11127866               -0.00001128               -0.00376040               -0.00135957
               9.98608328                2.01855393               23.02530147                0.99726087               -0.03386008               -0.03439112                0.11443934                0.00033978               -0.00114391                0.00616384
               0.00178447                3.00151003               23.01910863                0.01000001               -0.13714331                0.14048055                0.07334621               -0.02472083                0.00614656                0.10685537
               1.00041303                3.00177822               23.01914253                0.01000001               -0.14532431                0.11931200                0.07916171               -0.05514273                0.01049205                0.12297077
               1.99887798                3.00233331               23.01925611                0.01000000               -0.16533353                0.05403567                0.08630714                0.10206171                0.01334141                0.09020801
               2.99710636                3.00372442               23.01959795                0.01000000               -0.17879911                0.00982474                0.08948015                0.25031949                0.01722948                0.06839845
               3.99530200                3.00584125               23.02009551                0.01199913               -0.16230105               -0.04594148                0.09322812                0.34059342                0.01399377                0.06120604
               4.99386034                3.00786077               23.02061224                0.01000000               -0.20367552               -0.09997915                0.09628267                0.47619709                0.01112436                0.05957469
               5.99122849                3.01165304               23.02122131                0.01000001               -0.19089419               -0.13597946                0.09979617                0.49289944                0.00711633                0.08241459
               6.99004246                3.01344853               23.02198822                0.01000001               -0.16041623               -0.19409001                0.10381748                0.43307228                0.01105466                0.09647981
               7.98802016                3.01484497               23.02273352                0.01265236               -0.23197913               -0.14694324                0.11352077                0.38868114               -0.01435068                0.06409404
               8.98540288                3.01720347               23.02301647                0.01347618               -0.14742845               -0.09306206                0.10893902                0.32585745               -0.03716525                0.06090452
               9.98507160                3.01821340               23.02401651                0.26742125               -0.03312812               -0.24126977                0.11212898                0.30397220               -0.00156247                0.04341269
               0.00188649                4.00387868               23.02032303                0.01000000               -0.11199004                0.22611411                0.09147817                0.04403872               -0.01468164                0.15601587
               1.00076659                4.00252526               23.02018918                0.01000000               -0.10439212                0.04544005                0.09406665                0.11896364               -0.01510436                0.13020875
               1.99979865                4.00237369               23.02001574                0.01000000               -0.11019282               -0.01594931                0.09060540                0.24810044               -0.00968893                0.09729071
               2.99856273                4.00354156               23.02008224                0.01200015               -0.13386240               -0.03733723                0.09357017                0.32674985               -0.00060309                0.06745537
               3.99712140                4.00500806               23.02023241                0.01000000               -0.14826024               -0.09858589                0.09571449                0.41897395                0.00710102                0.06191353
               4.99559753                4.00715143               23.02064047                0.01000001               -0.14789753               -0.09659388                0.09860699                0.47822757                0.02833177                0.08508201
               5.99416345                4.00975476               23.02140462                0.01000001               -0.15288999               -0.18307198                0.10291200                0.52141636                0.04530356                0.12555147
               6.99253973                4.01159037               23.02229932                0.01194554               -0.16969351               -0.18029519                0.10758609                0.48582842                0.01891430                0.13018710
               7.99076958                4.01356729               23.02269931                0.01015941               -0.14845639               -0.17603968                0.10925803                0.55452743               -0.02646171                0.14170120
               8.98957060                4.01567229               23.02297652                0.01000000               -0.03133557               -0.28350865                0.11283321                0.49355125               -0.02514112                0.19540908
               9.99014286                4.01372854               23.02350497                0.01271203                0.05722668               -0.46375286                0.11543702                0.35747829               -0.00540131                0.14766735
               0.00537208                5.00603231               23.02200305                0.01075846               -0.10747813                0.08946306                0.07532860                0.10543532               -0.03524951                0.18716628
               1.00429730                5.00268703               23.02146325                0.01000000               -0.12741988                0.03627953                0.08784727                0.27968262               -0.04596909                0.15252948
               2.00282369                5.00201433               23.02081582                0.01000001               -0.16451570               -0.03562616                0.09896107                0.39495010               -0.03656301                0.08142675
               3.00100699                5.00297768               23.02039095                0.01000000               -0.13760345               -0.11016235                0.09629797                0.47118332               -0.00750936                0.06428844
               4.00007162                5.00386954               23.02051283                0.01000001               -0.11643980               -0.10764776                0.09853141                0.49397477                0.03923670                0.07015818
               4.99867819                5.00592889               23.02112260                0.01000001               -0.14268716               -0.12521653                0.10276595                0.53592259                0.07488974                0.10992236
               5.99721787                5.00799160               23.02212423                0.01201850               -0.13658478               -0.16372864                0.10793786                0.51973701                0.06739745                0.12612073
               6.99594650                5.00984263               23.02275502                0.01022406               -0.10945438               -0.18448102                0.11142133                0.50581400                0.04590242                0.15193385
               7.99502879                5.01132417               23.02348199                0.01000000               -0.04169210               -0.25881641                0.11665540                0.48121155                0.06135681                0.23155345
               8.99511266                5.01153330               23.02450133                0.01000000                0.05399439               -0.39605742                0.12164171                0.35192498                0.05273242                0.29174467
               9.99610867                5.00893834               23.02497490                0.01000000                0.09960191               -0.39190224                0.12279616                0.20977440                0.03436873                0.27026676
               0.01068576                6.00566794               23.02379467                0.82781337               -0.03075418               -0.03370084                0.10311769                0.14481121               -0.00372519                0.11059028
               1.01037822                6.00325085               23.02299197                0.01000001               -0.16393844                0.01280274                0.10194927                0.22438733               -0.04338579                0.08023258
               2.00740699                6.00166116               23.02140004                0.01139710               -0.21235155               -0.07436328                0.09847644                0.38746711               -0.05185547                0.06059029
               3.00613119                6.00133832               23.02089716                0.01000001               -0.16786580               -0.11186509                0.09917534                0.50367967                0.02452413                0.04377796
               4.00404968                6.00285510               23.02096952                0.01000001               -0.19686374               -0.10485024                0.10173535                0.54567487                0.07884617                0.06890266
               5.00219392                6.00464709               23.02181551                0.01202004               -0.17026123               -0.12045207                0.10714889                0.53739868                0.10137196                0.08464280
               6.00064445                6.00648019               23.02256006                0.01026720               -0.14352417               -0.13872917                0.11211225                0.49355805                0.10525712                0.11212211
               6.99932343                6.00790075               23.02367568                0.01000000               -0.09706578               -0.18399538                0.12047040                0.39843246                0.15073609                0.21021018
               7.99870314                6.00839096               23.02548465                0.01000000               -0.01642527               -0.28597694                0.12829592                0.27933189                0.16888665                0.32622805
               8.99899493                6.00775114               23.02699292                0.01095862                0.04125607               -0.34321288                0.12991937                0.15763931                0.10725684                0.34799445
               9.99952826                6.00589049               23.02748773                0.01000001                0.05333327               -0.24232528                0.13206479                0.06395622                0.06262161                0.32348088
               0.01310249                7.00535829               23.02376501                0.99999999               -0.03106624               -0.03106504                0.10416072                0.00005726               -0.00363458                0.02114656
               1.01279183                7.00294308               23.02284812                1.00000000               -0.03084646               -0.03084079                0.10266898               -0.00018325               -0.00647947               -0.00054817
               2.01248556                7.00052706               23.02187770                0.01000000               -0.14525936               -0.07193791                0.10136927                0.26443670               -0.00169253                0.01765212
               3.00988664                7.00074038               23.02106071                0.01000001               -0.24046124               -0.08725019                0.10011009                0.40783156                0.04608958                0.01258384
               4.00767634                7.00177253               23.02136937                0.01195003               -0.20427798               -0.12221227                0.10459921                0.51052456                0.10772007                0.02175190
               5.00580108                7.00351985               23.02196139                0.01022883               -0.19204773               -0.09616116                0.10930998                0.52118865                0.14023335                0.05000927
               6.00383538                7.00521701               23.02318075                0.01000000               -0.18983556               -0.08985210                0.11920820                0.41406995                0.21488333                0.14085317
               7.00200437                7.00616272               23.02554443                0.01000000               -0.15351785               -0.13932782                0.13056493                0.22950897                0.29289527                0.25659330
               8.00076503                7.00560463               23.02854410                0.01119372               -0.06192299               -0.21590618                0.13539610                0.07673834                0.24750068                0.32360074
               9.00076591                7.00466904               23.03008950                0.01000002                0.01720392               -0.30213193                0.14339221                0.00669522                0.11447594                0.46128820
              10.00110911                7.00409184               23.03038089                0.01149583                0.03431931               -0.21387475                0.14750472               -0.00640685                0.05710713                0.52202806
               0.01551733                8.00504664               23.02377042                1.00000000               -0.03115472               -0.03125638                0.10446635                0.00010068               -0.00088089                0.02318697
               1.01520579                8.00263404               23.02276531                0.99907714               -0.03094512               -0.03096547                0.10316697                0.00002783               -0.00051836                0.00286975
               2.01489843                8.00022241               23.02176989                0.01136440               -0.10817166               -0.03055265                0.10183017                0.08906229                0.01551777               -0.01603366
               3.01304235                7.99959331               23.02108871                0.01265999               -0.17088687               -0.16154033                0.10148804                0.36520672                0.07509437               -0.05483225
               4.01148069                8.00041086               23.02105663                0.01016989               -0.19345744               -0.11459803                0.10378253                0.54244034                0.13994386               -0.02541658
               5.00917320                8.00272387               23.02208858                0.01000000               -0.25988546               -0.02995658                0.11309598                0.48801751                0.23499837                0.05799219
               6.00628299                8.00468315               23.02433108                0.01000000               -0.28236060               -0.01182686                0.12577456                0.30785916                0.32692079                0.15057786
               7.00352599                8.00511419               23.02759915                0.01122904               -0.22757002               -0.05287022                0.13391639                0.10692104                0.36039363                0.19132913
               8.00173158                8.00407284               23.03079222                0.01000002               -0.14421834               -0.10911983                0.14721775               -0.10219940                0.40984230                0.24653848
               9.00064163                8.00170851               23.03523217                0.01393819               -0.05885304               -0.23760558                0.16108877               -0.20402450                0.34161296                0.57072857
              10.00055452                8.00161300               23.03710987                0.01000000               -0.00871021               -0.22401159                0.16641895               -0.13444332                0.21679194                0.54303756
               0.01792972                9.00473317               23.02378347                1.00000000               -0.03130953               -0.03145883                0.10500625                0.00010659                0.00220767                0.01862222
               1.01761662                9.00232377               23.02269275                0.99999999               -0.03110941               -0.03110323                0.10368978                0.00003332                0.00089923                0.00196165
               2.01730753                8.99991601               23.02157752                1.00000000               -0.03071498               -0.03072497                0.10240859                0.00001139               -0.00561845               -0.01208569
               3.01700232                8.99750957               23.02035890                0.01360263               -0.09564718               -0.11939047                0.10113331                0.29640197                0.06229149               -0.04483070
               4.01539459                8.99948057               23.02060544                0.01000000               -0.28565892               -0.01462694                0.10575041                0.46324717                0.20896568               -0.03016227
               5.01128915                9.00292072               23.02245333                0.01000000               -0.38961695                0.06162781                0.11701798                0.34761376                0.30712905                0.04978404
               6.00760225                9.00498048               23.02515785                0.01106637               -0.32680232                0.04104781                0.12639691                0.17344255                0.34999494                0.09494835
               7.00475310                9.00510531               23.02825369                0.01000002               -0.27377627                0.01095567                0.13980408                0.03717518                0.41124872                0.06786762
               8.00212672                9.00342224               23.03250042                0.01000002               -0.28039178               -0.01420637                0.15587159               -0.18135566                0.66198868                0.18281573
               8.99914526                8.99991693               23.04088026                0.99999998               -0.17577324               -0.11621978                0.17705745               -0.24945433                0.42896770                0.29293917
               9.99861126                8.99961161               23.04067477                0.99987220               -0.05340059               -0.12730937                0.17965830               -0.11247324               -0.00025925                0.18821905
               0.02033826               10.00441747               23.02369870                1.00000000               -0.03146460               -0.03156999                0.10552271                0.00030415                0.01250528                0.01368930
               1.02002361               10.00201197               23.02259391                1.00000000               -0.03126975               -0.03117999                0.10423363                0.00022054                0.01556347                0.00055594
               2.01971286                9.99960791               23.02155143                1.00000000               -0.03088884               -0.03081040                0.10296605                0.00020961                0.01559097               -0.00391810
               3.01940583                9.99720550               23.02044932                0.01070231               -0.21891862               -0.03040657                0.10167398                0.26587152                0.06174541               -0.00405006
               4.01533449               10.00011832               23.02033343                0.01337984               -0.43901299                0.06377493                0.10711543                0.33153624                0.18791944               -0.01402385
               5.01062557               10.00395643               23.02230693                0.01000000               -0.38836231                0.10357078                0.11694140                0.20293180                0.31075565                0.03070847
               6.00756724               10.00550410               23.02513369                0.01000001               -0.23989178                0.05236246                0.12762465                0.06534316                0.33313051                0.05698106
               7.00582774               10.00533330               23.02781176                0.01258431               -0.21371913                0.02279895                0.14261253                0.02169426                0.46931169                0.01620921
               8.00329286               10.00378871               23.03353828                0.01000002               -0.31822837                0.03664752                0.15884367               -0.18084602                0.68298643                0.15242688
               8.99946317                9.99938411               23.04067559                0.99992675               -0.21885787               -0.05328159                0.18021037               -0.20430449                0.36748101                0.00034120
               9.99891570                9.99906681               23.04047009                0.99929988               -0.05474682               -0.05447961                0.18280774               -0.00128578                0.00030026               -0.00029968
               0.00107921                0.00169484               24.01908636                1.00000000               -0.02451771               -0.02390944                0.08124210               -0.00042433               -0.00292514                0.00347498
               1.00083403                0.00072651               24.01905558                1.00000000               -0.02455428               -0.02410969                0.08185923                0.00021449               -0.00336376               -0.00122943
               2.00058812               -0.00024967               24.01901701                0.01171223               -0.03188393               -0.02429771                0.08243604                0.13168023                0.04925807               -0.00154553
               3.00019635                0.00139661               24.02004057                0.01000002               -0.15486273                0.10724230                0.08259785                0.05042195                0.10921278               -0.00054466
               3.99749087                0.00478966               24.02116599                0.01000001               -0.30511393                0.09475731                0.08699989                0.10227269                0.12333335                0.00451492
               4.99409407                0.00890878               24.02270095                0.01000000               -0.44559464                0.11028464                0.08892778                0.26526336                0.15313393                0.00033878
               5.98857897                0.01623417               24.02504398                0.56022395               -0.29179924               -0.03138812                0.10551068                0.31142030                0.07600271               -0.00110660
               6.98825809                0.01733423               24.02607111                1.00000000               -0.03259027               -0.03229448                0.10866831                0.00048611                0.00850418               -0.00259221
               7.98792717                0.01842916               24.02706065                0.99999999               -0.03360791               -0.03331682                0.11200729                0.00050129                0.00759128               -0.00021888
               8.98758593                0.01951817               24.02806666                1.00000000               -0.03464037               -0.03434676                0.11546534                0.00050633                0.00678382                0.00099289
               9.98723436                0.02060161               24.02903775                0.99983134               -0.03515684               -0.03539319                0.11883800                0.00083022                0.00510451                0.00486474
               0.00204329                1.00145574               24.01894869                0.99760730               -0.02348674               -0.02345537                0.07831220               -0.00044980                0.00138004                0.00377962
               1.00180843                1.00048541               24.01891535                0.01000000               -0.02367100               -0.02369321                0.07886698                0.00008856                0.00355772               -0.00293055
               2.00156987                0.99950736               24.01891906                0.01000000               -0.18137585                0.08868860                0.07959538                0.04391109                0.05584053                0.03479595
               2.99818091                1.00246903               24.01993906                0.01000001               -0.34061828                0.10985323                0.08555912                0.13863687                0.08575237                0.02067350
               3.99475751                1.00573723               24.02091653                0.01000000               -0.35782304                0.08117964                0.08716669                0.20189192                0.07267947                0.02429287
               4.99102445                1.01001162               24.02209808                0.01000000               -0.36385277                0.04998694                0.09037196                0.36701063                0.08120767                0.02454858
               5.98748045                1.01592029               24.02384268                0.01000001               -0.19294977               -0.13718750                0.10364602                0.37715785                0.03940649               -0.00077260
               6.98716545                1.01701128               24.02481507                1.00000000               -0.03201206               -0.03200492                0.10676055                0.00003416                0.00085535               -0.00292521
               7.98684021                1.01809599               24.02578728                0.99402560               -0.03303422               -0.03303894                0.11012068               -0.00001223                0.00109565               -0.00008336
               8.98650477                1.01917470               24.02676334                0.99999999               -0.03404965               -0.03405905                0.11352601               -0.00001330                0.00084295                0.00073698
               9.98615922                1.02024768               24.02773013                1.00000000               -0.03455505               -0.03510269                0.11690038                0.00028985                0.00035085                0.00615946
               0.00301088                2.00122573               24.01881620                0.01040336               -0.02266893                0.00067273                0.07540959               -0.10969462                0.00162802                0.05625734
               1.00278419                2.00025264               24.01873970                0.01000000               -0.17640765                0.06922790                0.07575007               -0.05768343                0.04601165                0.06006108
               1.99948272                2.00152411               24.01955297                0.01000001               -0.30224856                0.15335455                0.08776891                0.02696251                0.05505896                0.08169038
               2.99673922                2.00359367               24.02014919                0.01000000               -0.27483062                0.07762333                0.08572919                0.17826390                0.03589552                0.05345804
               3.99398611                2.00641325               24.02083847                0.01000000               -0.27439957                0.02884983                0.08969003                0.32408046                0.03024378                0.05354625
               4.99125122                2.00990852               24.02167711                0.01000001               -0.24318186               -0.07478215                0.09366425                0.47250294                0.02626353                0.05096389
               5.98912247                2.01349042               24.02264549                0.01139145               -0.25840789               -0.16530477                0.09961389                0.49491555                0.01538962                0.02155117
               6.98608307                2.01669413               24.02355033                0.01000000               -0.16794834               -0.12429104                0.10486342                0.32417785               -0.00690469                0.03355879
               7.98576351                2.01776838               24.02451519                0.01000000               -0.03245436               -0.10910721                0.10823003                0.12937964               -0.00522564                0.03071215
               8.98543398                2.01883698               24.02545416                0.99999998               -0.03346549               -0.03345530                0.11158329                0.00001372               -0.00381405               -0.00138233
               9.98509420                2.01989956               24.02644854                0.99911590               -0.03397825               -0.03453291                0.11494966                0.00030491               -0.00116475                0.00613324
               0.00179558                3.00146920               24.01972736                0.01000001               -0.14391937                0.13862345                0.07536767               -0.01582652                0.01433478                0.13032849
               1.00035638                3.00186997               24.01986136                0.01000001               -0.15137399                0.12193297                0.08175597               -0.04622481                0.01606037                0.13596919
               1.99876810                3.00257445               24.02015005                0.01000000               -0.17496687                0.05303664                0.08784769                0.11926618                0.01886399                0.09173014
               2.99685704                3.00402150               24.02049684                0.01000000               -0.19219116                0.01163194                0.09061989                0.27190518                0.01791144                0.07392512
               3.99492427                3.00631423               24.02102844                0.01198876               -0.17298545               -0.04940963                0.09334721                0.37062794                0.01534451                0.06567399
               4.99339734                3.00851598               24.02157551                0.01000000               -0.21655599               -0.10762826                0.09649090                0.51664735                0.01173248                0.06403842
               5.99059315                3.01261420               24.02221585                0.01000001               -0.20131435               -0.14599450                0.09983174                0.53301771                0.00655196                0.08664410
               6.98937105                3.01452546               24.02302345                0.01000001               -0.16541027               -0.20820344                0.10219800                0.46383610                0.01032503                0.10114944
               7.98728495                3.01591385               24.02385800                0.01261383               -0.24985887               -0.15683817                0.11193618                0.41869454               -0.02328085                0.07419965
               8.98437387                3.01850559               24.02410946                0.01344512               -0.16223874               -0.09705496                0.10962617                0.35539524               -0.04038583                0.06381608
               9.98404017                3.01955702               24.02514224                0.28017170               -0.03336982               -0.25796542                0.11299231                0.32752559               -0.00155369                0.04623963
               0.00189280                4.00399820               24.02120158                0.01000000               -0.11383641                0.23337350                0.08544823                0.04834155               -0.01245143                0.16989200
               1.00075444                4.00269130               24.02110398                0.01000000               -0.10881428                0.05480797                0.08798059                0.12027420               -0.01801389                0.14355128
               1.99971652                4.00258484               24.02092793                0.01000000               -0.11584495               -0.02288683                0.09135917                0.26492528               -0.01319278                0.10278569
               2.99843754                4.00382631               24.02102198                0.01198960               -0.14061669               -0.04023131                0.09395492                0.35276331               -0.00070399                0.07180629
               3.99690419                4.00542506               24.02119099                0.01000000               -0.15766693               -0.10547248                0.09605480                0.45488166                0.00736038                0.06588053
               4.99528420                4.00775595               24.02162699                0.01000001               -0.15654182               -0.10350869                0.09895552                0.51822564                0.02948622                0.09016093
               5.99377335                4.01057053               24.02243292                0.01000001               -0.16120346               -0.19651003                0.10306527                0.56247970                0.04622302                0.13229002
               6.99206013                4.01253006               24.02337130                0.01189072               -0.18080413               -0.19199116                0.10761405                0.52044644                0.01711701                0.13872756
               7.99015727                4.01463162               24.02378869                0.01009488               -0.15807096               -0.18258311                0.10762296                0.59196941               -0.02736070                0.14973621
               8.98889871                4.01689589               24.02410696                0.01000000               -0.03077070               -0.30253481                0.11326397                0.53093200               -0.02611795                0.20430236
               9.98954185                4.01474025               24.02466678                0.01282657                0.06431378               -0.49507981                0.11670575                0.38093125               -0.00667374                0.15582283
               0.00537620                5.00613667               24.02276013                0.01000002               -0.12009737                0.09461284                0.08493235                0.16116498               -0.03489286                0.20301960
               1.00417523                5.00296613               24.02235308                0.01000000               -0.12223028                0.03334312                0.08982422                0.31867085               -0.05025223                0.16799041
               2.00293159                5.00211671               24.02178785                0.01000001               -0.15515665               -0.04297473                0.09499674                0.42312259               -0.03862393                0.08408653
               3.00107209                5.00321687               24.02135757                0.01000000               -0.14196645               -0.11974170                0.09656469                0.51187942               -0.00891217                0.06748163
               4.00009226                5.00420478               24.02149995                0.01000001               -0.12278596               -0.11563466                0.09899967                0.53526829                0.04100250                0.07379140
               4.99861637                5.00644581               24.02215160                0.01000001               -0.15118128               -0.13404670                0.10326919                0.58049114                0.07818245                0.11536834
               5.99706864                5.00868399               24.02320370                0.01194871               -0.14487426               -0.17463770                0.10842157                0.56164884                0.06980452                0.13265039
               6.99571889                5.01068564               24.02386725                0.01013794               -0.11550653               -0.19575442                0.11151784                0.54416604                0.04798609                0.16129291
               7.99475851                5.01226219               24.02464419                0.01000000               -0.04175025               -0.27511488                0.11668502                0.51702881                0.06436378                0.24455932
               8.99488388                5.01245490               24.02571905                0.01000000                0.06057816               -0.42273591                0.12221225                0.37780122                0.05415698                0.30279272
               9.99597007                5.00965542               24.02620988                0.01000000                0.10861888               -0.41582812                0.12422760                0.22578853                0.03396772                0.27955773
               0.01145718                6.00589046               24.02482874                0.80946658               -0.03093702               -0.02785367                0.10363921                0.17742319               -0.00369824                0.12449230
               1.01114781                6.00335817               24.02401503                0.01000001               -0.17644778                0.00411858                0.10262356                0.26683503               -0.04467466                0.08675838
               2.00792823                6.00172535               24.02238521                0.01139575               -0.22803745               -0.08002329                0.09876116                0.42552479               -0.05376397                0.06208687
               3.00658706                6.00143148               24.02189259                0.01000001               -0.17738073               -0.12334790                0.09977745                0.54612903                0.02590381                0.04481894
               4.00438061                6.00311236               24.02199071                0.01000001               -0.20861284               -0.11354313                0.10252838                0.59359430                0.08286394                0.07159896
               5.00241481                6.00507502               24.02288883                0.01195011               -0.18070590               -0.12813081                0.10782352                0.58279308                0.10643862                0.08839607
               6.00076650                6.00707778               24.02368162                0.01017334               -0.15247735               -0.14711571                0.11263765                0.53340506                0.11121828                0.11876373
               6.99936526                6.00861497               24.02487769                0.01000000               -0.10189561               -0.19582838                0.12054904                0.42921003                0.15776414                0.22123985
               7.99872858                6.00912932               24.02676584                0.01000000               -0.01518790               -0.30381092                0.12850588                0.30156631                0.17268129                0.33737412
               8.99906150                6.00844117               24.02829598                0.01089927                0.04639914               -0.36484901                0.13110005                0.16995133                0.10846113                0.35982364
               9.99965657                6.00642369               24.02881582                0.01000001                0.05950635               -0.25794885                0.13383819                0.06910129                0.06423964                0.33603259
               0.01398925                7.00557960               24.02480894                0.99999999               -0.03122072               -0.03117212                0.10458677                0.00003496               -0.00389489                0.02133960
               1.01367704                7.00304850               24.02387780                1.00000000               -0.03102332               -0.03100815                0.10324402               -0.00019180               -0.00661723               -0.00044690
               2.01336878                7.00051625               24.02289510                0.01000000               -0.15346918               -0.07578343                0.10210062                0.28357777               -0.00146171                0.01901739
               3.01060765                7.00074991               24.02207089                0.01000001               -0.25240844               -0.10502515                0.10175811                0.45247702                0.04894372                0.01081025
               4.00832061                7.00193391               24.02241803                0.01189529               -0.21504165               -0.12875825                0.10540266                0.55791844                0.11403692                0.02185057
               5.00630682                7.00388319               24.02305887                0.01014238               -0.20619110               -0.10096500                0.11041309                0.56461427                0.14852093                0.05311401
               6.00419679                7.00574168               24.02437281                0.01000000               -0.20276387               -0.09386375                0.11964663                0.44615273                0.22565204                0.14810132
               7.00225154                7.00676907               24.02684823                0.01000000               -0.16165747               -0.14716234                0.13077050                0.24892780                0.30082561                0.26405114
               8.00096364                7.00618597               24.02990079                0.01113192               -0.06314984               -0.22872460                0.13645900                0.08346473                0.25326650                0.33315433
               9.00098855                7.00515792               24.03152868                0.01000002                0.02117110               -0.32177083                0.14486841                0.00700879                0.11982993                0.47609628
              10.00138706                7.00449645               24.03186467                0.01178808                0.03985134               -0.22702576                0.14953990               -0.00708597                0.06095215                0.53815628
               0.01652007                8.00526701               24.02481669                1.00000000               -0.03127466               -0.03133331                0.10477202                0.00009231               -0.00091431                0.02313489
               1.01620733                8.00273800               24.02379919                0.99999992               -0.03108509               -0.03109449                0.10361858                0.00003877               -0.00056602                0.00287673
               2.01589837                8.00020968               24.02279098                0.01262973               -0.09941948               -0.03072492                0.10242909                0.08244859                0.01515514               -0.01602153
               3.01421894                7.99933097               24.02209129                0.01262142               -0.17463336               -0.16858936                0.09990815                0.39187877                0.08195872               -0.05957211
               4.01240570                8.00053720               24.02210665                0.01010560               -0.21598048               -0.12010075                0.10612941                0.59251299                0.14937945               -0.02569194
               5.00989933                8.00305572               24.02322434                0.01000000               -0.28010159               -0.02876991                0.11432134                0.52261302                0.24733758                0.06148354
               6.00680367                8.00520050               24.02559066                0.01000000               -0.29998999               -0.01063984                0.12654351                0.33136047                0.33831559                0.15444774
               7.00389953                8.00567172               24.02894228                0.01116563               -0.23973199               -0.05464288                0.13517843                0.11486816                0.37108558                0.19613373
               8.00200903                8.00455483               24.03226894                0.01000002               -0.15041630               -0.11582016                0.14856053               -0.11011589                0.42254068                0.25584095
               9.00089120                8.00200575               24.03685107                0.01393143               -0.05856239               -0.25264617                0.16295655               -0.21610758                0.34966704                0.58427596
              10.00083778                8.00188317               24.03878189                0.01000000               -0.00534172               -0.23482110                0.16815105               -0.14144022                0.22047134                0.55597684
               0.01904911                9.00495293               24.02483460                1.00000000               -0.03139630               -0.03151134                0.10521820                0.00010671                0.00218815                0.01867990
               1.01873515                9.00242661               24.02373133                0.99999999               -0.03121673               -0.03120875                0.10405125                0.00005346                0.00090192                0.00200220
               2.01842478                8.99990175               24.02260414                0.99999997               -0.03087222               -0.03087833                0.10294821                0.00004007               -0.00557903               -0.01202177
               3.01811771                8.99737813               24.02137408                0.01357863               -0.09893269               -0.11296013                0.10191773                0.30250282                0.06505726               -0.04447681
               4.01644613                8.99953190               24.02166360                0.01000000               -0.30109647               -0.01484831                0.10608727                0.49103258                0.21865861               -0.03053226
               5.01209578                9.00330779               24.02362773                0.01000000               -0.41190672                0.06758641                0.11809906                0.37187473                0.31966962                0.05122816
               6.00820799                9.00552888               24.02642844                0.01100271               -0.34505993                0.04490891                0.12808524                0.18581438                0.36253119                0.09612439
               7.00519458                9.00567621               24.02965886                0.01000002               -0.28903488                0.01323570                0.14161756                0.03809238                0.42587996                0.07212505
               8.00242729                9.00386957               24.03406524                0.01000002               -0.29282618               -0.01427486                0.15738751               -0.19466798                0.67891247                0.18714923
               8.99933806                9.00010499               24.04264964                0.99999998               -0.18119390               -0.12183296                0.17704900               -0.26543068                0.43826537                0.29848077
               9.99880342                8.99980003               24.04247136                0.99999996               -0.05346400               -0.13136022                0.17967122               -0.11701224                0.00008636                0.19315259
               0.02157484               10.00463679               24.02475453                1.00000000               -0.03152678               -0.03161413                0.10565046                0.00027706                0.01256470                0.01373367
               1.02125958               10.00211383               24.02363769                1.00000000               -0.03135935               -0.03127825                0.10454143                0.00020867                0.01563145                0.00060700
               2.02094766                9.99959211               24.02258356                1.00000000               -0.03103675               -0.03096382                0.10347524                0.00018497                0.01564552               -0.00387266
               3.02063884                9.99707177               24.02146953                0.01108393               -0.23254847               -0.03063543                0.10237794                0.28451966                0.06503471               -0.00407583
               4.01629669               10.00024023               24.02140690                0.01351909               -0.46495020                0.07083334                0.10759111                0.35183997                0.19802143               -0.01438632
               5.01133984               10.00440745               24.02348241                0.01000000               -0.40725735                0.10996527                0.11836559                0.21732845                0.32270908                0.03020637
               6.00815154               10.00609868               24.02641868                0.01000001               -0.25095727                0.05697976                0.12972007                0.07080456                0.34711402                0.05832234
               7.00632069               10.00593644               24.02924814                0.01263192               -0.22323241                0.02602255                0.14494578                0.02114398                0.48509720                0.01897996
               8.00368689               10.00426933               24.03513328                0.01000002               -0.33342814                0.03997673                0.16043466               -0.19240740                0.70038375                0.15411814
               8.99965213                9.99956909               24.04247770                0.99999996               -0.22897091               -0.05359010                0.18019911               -0.21926094                0.37595966               -0.00018573
               9.99910747                9.99925597               24.04229937                0.99946392               -0.05446553               -0.05440587                0.18282166               -0.00090660               -0.00004241                0.00012349
               0.00107772                0.00188169               25.01989553                1.00000000               -0.02437285               -0.02371085                0.08051212               -0.00019459               -0.00299014                0.00337178
               1.00083399                0.00086925               25.01987413                1.00000000               -0.02459394               -0.02415510                0.08187292                0.00019252               -0.00323403               -0.00125876
               2.00058584               -0.00015182               25.01984548                0.01000001               -0.04354882               -0.02459324                0.08326570                0.13706243                0.04657686               -0.00138788
               2.99996301                0.00155455               25.02082372                0.01068492               -0.15720427                0.11066124                0.09130208                0.05627133                0.10555967                0.01298331
               3.99744175                0.00508310               25.02202386                0.01000001               -0.31170261                0.10321226                0.07649325                0.09625613                0.15728507                0.00286230
               4.99372896                0.00950772               25.02356977                0.01000000               -0.49021038                0.12743322                0.09267226                0.28397031                0.17498585                0.00216791
               5.98763754                0.01743340               25.02609600                0.55374781               -0.32053336               -0.03122965                0.10486666                0.33948442                0.08341609               -0.00111406
               6.98731829                0.01857384               25.02715596                1.00000000               -0.03245081               -0.03220531                0.10822511                0.00050640                0.00843146               -0.00268975
               7.98698853                0.01971002               25.02817909                0.99999998               -0.03349665               -0.03326017                0.11165707                0.00053365                0.00759787               -0.00022056
               8.98664836                0.02084114               25.02921987                1.00000000               -0.03455115               -0.03431283                0.11519502                0.00053518                0.00682425                0.00100591
               9.98629751                0.02196766               25.03022554                0.99983310               -0.03508539               -0.03540370                0.11871698                0.00080612                0.00513222                0.00487238
               0.00208821                1.00164458               25.01972853                0.99637276               -0.02355419               -0.02330697                0.07774359               -0.00043120                0.00145518                0.00391950
               1.00185267                1.00062770               25.01970529                0.01000000               -0.02372002               -0.02375080                0.07912926               -0.00000656                0.00334718               -0.00312061
               2.00161381                0.99960224               25.01971994                0.01000000               -0.19722026                0.09238086                0.08056768                0.04214637                0.05998301                0.03888131
               2.99790826                1.00266116               25.02083185                0.01000001               -0.35930411                0.11509512                0.08592126                0.15233250                0.08185583                0.02264768
               3.99442773                1.00611522               25.02176653                0.01000000               -0.37573755                0.09014059                0.07895015                0.21009849                0.08936272                0.02139489
               4.99039351                1.01078205               25.02298871                0.01000000               -0.39642002                0.05925722                0.09061097                0.39402706                0.09664143                0.03217748
               5.98649933                1.01712110               25.02487774                0.01000001               -0.21042345               -0.14505940                0.10328036                0.40799922                0.04476704               -0.00177380
               6.98618504                1.01825179               25.02588140                0.99959878               -0.03195559               -0.03194441                0.10655596                0.00002252                0.00071953               -0.00301407
               7.98586022                1.01937742               25.02688789                0.99472129               -0.03300752               -0.03301741                0.11003571                0.00001191                0.00112272               -0.00009190
               8.98552489                1.02049801               25.02789877                0.99999999               -0.03405846               -0.03406838                0.11356015                0.00000474                0.00086687                0.00074278
               9.98517905                1.02161362               25.02889997                1.00000000               -0.03458462               -0.03515902                0.11707712                0.00024792                0.00035096                0.00616334
               0.00310286                2.00141555               25.01956854                0.01209849               -0.02266657                0.00433171                0.07506612               -0.11638428                0.00172711                0.06475741
               1.00287619                2.00039423               25.01950001                0.01000000               -0.18537796                0.07528159                0.07632116               -0.06304368                0.05040607                0.06910212
               1.99939530                2.00169579               25.02040555                0.01000001               -0.31897541                0.15953572                0.08454777                0.02340981                0.06652522                0.08164401
               2.99649668                2.00385645               25.02100607                0.01000000               -0.29362335                0.08344872                0.08636316                0.19340323                0.04314824                0.05339637
               3.99352283                2.00688591               25.02173340                0.01000000               -0.29465320                0.03434997                0.08912118                0.34694537                0.03259427                0.05752068
               4.99060362                2.01069286               25.02261104                0.01000001               -0.25975196               -0.07951972                0.09328478                0.50801855                0.02928441                0.05912019
               5.98832779                2.01453221               25.02364277                0.01139282               -0.27705989               -0.17613046                0.10077095                0.53271711                0.01809549                0.02223681
               6.98506242                2.01793495               25.02459826                0.01000000               -0.17926240               -0.13006228                0.10489828                0.34696113               -0.00605204                0.03243552
               7.98474254                2.01904968               25.02559799                0.01000000               -0.03250842               -0.11609841                0.10840870                0.14165721               -0.00517840                0.03316293
               8.98441225                2.02015977               25.02657174                0.99999998               -0.03356512               -0.03355116                0.11192696                0.00004154               -0.00380559               -0.00139397
               9.98407124                2.02126448               25.02760047                1.00000000               -0.03410117               -0.03468362                0.11544251                0.00026597               -0.00117994                0.00613128
               0.00180316                3.00173121               25.02061598                0.01000001               -0.14916088                0.14141004                0.07643427               -0.02329803                0.01186529                0.13667974
               1.00031155                3.00213333               25.02077765                0.01000001               -0.15916868                0.12551696                0.08275921               -0.05672410                0.01254564                0.14291519
               1.99861979                3.00279296               25.02101307                0.01000000               -0.18626696                0.05479043                0.08863983                0.12091508                0.01473258                0.09430914
               2.99658621                3.00433014               25.02141035                0.01000000               -0.20447812                0.01302531                0.09061926                0.28990857                0.01833384                0.07849351
               3.99453022                3.00680222               25.02196245                0.01198191               -0.18393138               -0.05158797                0.09343109                0.40011414                0.01543090                0.07087717
               4.99290758                3.00919166               25.02254206                0.01000000               -0.23093212               -0.11571553                0.09717748                0.55689846                0.01211211                0.06915462
               5.98991158                3.01359849               25.02321794                0.01000001               -0.21503913               -0.15597498                0.10112745                0.57373441                0.00429715                0.09086520
               6.98860680                3.01565054               25.02403218                0.01000001               -0.17215192               -0.22069145                0.10310074                0.49604180                0.00561017                0.10462724
               7.98646854                3.01705545               25.02497224                0.01258726               -0.26479402               -0.16369252                0.10640935                0.44603006               -0.05333729                0.10081830
               8.98331092                3.01982699               25.02520899                0.01344028               -0.17467947               -0.10055100                0.11028592                0.38111970               -0.04285496                0.06645629
               9.98297495                3.02091995               25.02627635                0.29314649               -0.03359676               -0.27435583                0.11381018                0.35022221               -0.00155016                0.04904390
               0.00183267                4.00424375               25.02203199                0.01000000               -0.11527021                0.23671677                0.08514724                0.05034105               -0.01382303                0.18132346
               1.00067997                4.00290457               25.02194880                0.01000000               -0.11079380                0.05012268                0.08727333                0.12504219               -0.01864883                0.14436996
               1.99961679                4.00279160               25.02184293                0.01000000               -0.11971863               -0.02770909                0.09098127                0.28196596               -0.01052730                0.10517931
               2.99828559                4.00411696               25.02196133                0.01198288               -0.14765993               -0.04367184                0.09414312                0.37964914               -0.00079000                0.07503095
               3.99666359                4.00585415               25.02215350                0.01000000               -0.16701379               -0.11282890                0.09653393                0.49145083                0.00754713                0.07000791
               4.99494532                4.00837855               25.02261958                0.01000001               -0.16599988               -0.11086170                0.09980811                0.55945391                0.03034060                0.09537105
               5.99334359                4.01141271               25.02346592                0.01000001               -0.17095101               -0.21012943                0.10427285                0.60646523                0.04670733                0.13868344
               6.99152630                4.01352112               25.02445160                0.01184983               -0.19284472               -0.20442231                0.10881726                0.56110171                0.01189376                0.15040591
               7.98948670                4.01577582               25.02485177                0.01004428               -0.16780725               -0.19086225                0.10884461                0.63116736               -0.02645661                0.16130007
               8.98817015                4.01814875               25.02524180                0.01000000               -0.02984689               -0.32134269                0.11368156                0.56603657               -0.02646554                0.21221820
               9.98888976                4.01577736               25.02583908                0.01297063                0.07196114               -0.52697482                0.11738058                0.40443215               -0.00812851                0.16437891
               0.00548834                5.00646555               25.02370170                0.01000000               -0.12237957                0.09326173                0.09456861                0.18735042               -0.02704250                0.22717233
               1.00426454                5.00313578               25.02325974                0.01000000               -0.12208103                0.02783668                0.09176733                0.35107587               -0.03422782                0.16981678
               2.00304672                5.00223878               25.02271576                0.01000001               -0.15739484               -0.04979726                0.09365101                0.45791424               -0.03362905                0.08861380
               3.00111664                5.00345670               25.02232225                0.01000000               -0.14745363               -0.12977913                0.09662769                0.55325220               -0.00713905                0.07072673
               4.00009764                5.00454564               25.02249282                0.01000001               -0.12892715               -0.12425728                0.09966598                0.57824264                0.04311832                0.07765414
               4.99853810                5.00697442               25.02318798                0.01000001               -0.15996648               -0.14354062                0.10429866                0.62683595                0.08131475                0.12091662
               5.99689831                5.00939590               25.02429266                0.01189592               -0.15361905               -0.18631805                0.10973441                0.60620171                0.07165046                0.13939510
               6.99546572                5.01156210               25.02498538                0.01006988               -0.12170260               -0.20882798                0.11307150                0.58552532                0.04985854                0.17056542
               7.99446426                5.01323821               25.02581569                0.01000000               -0.04178031               -0.29469853                0.11824142                0.55449049                0.06678800                0.25901312
               8.99463011                5.01340013               25.02694558                0.01000000                0.06710565               -0.45053822                0.12349917                0.40431299                0.05564057                0.31427790
               9.99580637                5.01038045               25.02745945                0.01000000                0.11762610               -0.44105073                0.12576048                0.24221217                0.03352383                0.28890248
               0.01223921                6.00610898               25.02586745                0.79106336               -0.03109546               -0.03342079                0.10405077                0.20515951               -0.00366560                0.12942881
               1.01192825                6.00346130               25.02504444                0.01000001               -0.18925259                0.00071041                0.10322820                0.29977308               -0.04612036                0.09279453
               2.00845416                6.00179566               25.02337526                0.01139690               -0.24422424               -0.08685652                0.09934852                0.46382937               -0.05431301                0.06730619
               3.00704377                6.00152138               25.02289271                0.01000001               -0.18717184               -0.13494083                0.10007840                0.58996436                0.02832016                0.04761534
               4.00471072                6.00336900               25.02302009                0.01000001               -0.22059980               -0.12260224                0.10343639                0.64289109                0.08691081                0.07496635
               5.00263177                6.00550774               25.02397199                0.01189740               -0.19153825               -0.13639024                0.10906580                0.62979848                0.11104650                0.09253622
               6.00087996                6.00768635               25.02481281                0.01009884               -0.16186383               -0.15629487                0.11401678                0.57487897                0.11660119                0.12530240
               6.99939450                6.00934457               25.02608667                0.01000000               -0.10707412               -0.20914707                0.12179948                0.46113460                0.16426765                0.23218064
               7.99873847                6.00988185               25.02805477                0.01000000               -0.01401655               -0.32367957                0.12990193                0.32395325                0.17657956                0.34861269
               8.99911417                6.00913799               25.02961492                0.01084555                0.05174474               -0.38821288                0.13311044                0.18215015                0.10984776                0.37190993
               9.99977337                6.00695635               25.03016450                0.01000001                0.06592016               -0.27457793                0.13619712                0.07432537                0.06590180                0.34874985
               0.01488689                7.00579713               25.02585674                0.99999999               -0.03135562               -0.03126517                0.10493776                0.00002821               -0.00416728                0.02151073
               1.01457333                7.00314999               25.02491300                1.00000000               -0.03118271               -0.03116325                0.10377353               -0.00017804               -0.00677040               -0.00036204
               2.01426323                7.00050164               25.02391971                0.01000000               -0.16153736               -0.08013596                0.10280349                0.30315838               -0.00095279                0.02052345
               3.01134258                7.00075788               25.02309588                0.01000001               -0.26470663               -0.12113434                0.10306306                0.49570173                0.05150683                0.01152029
               4.00896910                7.00209360               25.02347743                0.01185424               -0.22629281               -0.13587783                0.10627233                0.60566247                0.11852393                0.02387211
               5.00681673                7.00424662               25.02416965                0.01007434               -0.22050147               -0.10615272                0.11183020                0.60902940                0.15578949                0.05645601
               6.00455907                7.00627001               25.02557369                0.01000000               -0.21619095               -0.09849429                0.12088599                0.47919708                0.23567207                0.15538357
               7.00249291                7.00737916               25.02815984                0.01000000               -0.17045825               -0.15591651                0.13208440                0.26847669                0.30875733                0.27193031
               8.00114990                7.00676462               25.03127328                0.01107425               -0.06471418               -0.24283270                0.13856182                0.08959272                0.25926244                0.34311664
               9.00119862                7.00563588               25.03298687                0.01000002                0.02531288               -0.34324602                0.14721618                0.00660646                0.12516985                0.49103046
              10.00165616                7.00488889               25.03337169                0.01211244                0.04575385               -0.24152490                0.15219067               -0.00825134                0.06472602                0.55399389
               0.01753406                8.00548368               25.02586586                1.00000000               -0.03138782               -0.03141052                0.10503773                0.00009321               -0.00096194                0.02306491
               1.01722018                8.00283804               25.02483769                1.00000000               -0.03123139               -0.03123407                0.10409596                0.00005288               -0.00062348                0.00287231
               2.01690943                8.00019294               25.02381847                0.01364357               -0.09271643               -0.03093239                0.10312082                0.07753103                0.01402569               -0.01601434
               3.01536585                7.99909869               25.02308687                0.01259486               -0.17870988               -0.17580437                0.10027340                0.41799655                0.08118112               -0.05683576
               4.01333523                8.00065145               25.02317922                0.01005553               -0.23649498               -0.12619601                0.10793286                0.64155045                0.15641501               -0.02622167
               5.01063595                8.00338469               25.02437501                0.01000000               -0.30019366               -0.02797031                0.11555752                0.55829932                0.25819122                0.06478982
               6.00733136                8.00571646               25.02686195                0.01000000               -0.31832666               -0.00975303                0.12813584                0.35521107                0.34944920                0.15877625
               7.00426942                8.00622624               25.03030271                0.01110672               -0.25288769               -0.05686026                0.13744698                0.12248654                0.38184495                0.20157980
               8.00227361                8.00502520               25.03376343                0.01000002               -0.15737009               -0.12318679                0.15083327               -0.11944404                0.43520829                0.26521618
               9.00112202                8.00227307               25.03849130                0.01394044               -0.05856509               -0.26879825                0.16539275               -0.22967583                0.35753174                0.59708155
              10.00110231                8.00212585               25.04047289                0.01000000               -0.00197130               -0.24658610                0.17027965               -0.14905246                0.22352279                0.56775966
               0.02018003                9.00516892               25.02588784                1.00000000               -0.03149018               -0.03157013                0.10542173                0.00009718                0.00215694                0.01873698
               1.01986513                9.00252531               25.02477377                0.99999998               -0.03134149               -0.03133289                0.10446942                0.00005562                0.00090061                0.00205020
               2.01955320                8.99988300               25.02363649                1.00000000               -0.03105640               -0.03106611                0.10357034                0.00004964               -0.00551959               -0.01193882
               3.01924400                8.99724180               25.02239725                0.01358132               -0.10195462               -0.10828014                0.10273032                0.31020040                0.06762043               -0.04333148
               4.01751411                8.99956968               25.02272718                0.01000000               -0.31631522               -0.01537252                0.10680163                0.51961096                0.22841897               -0.03137740
               5.01291770                9.00368721               25.02481532                0.01000000               -0.43461834                0.07332519                0.11958428                0.39686477                0.33252120                0.05232696
               6.00882174                9.00607495               25.02771955                0.01094507               -0.36418981                0.04868113                0.13057693                0.19835845                0.37531455                0.09771277
               7.00563390                9.00624195               25.03108604                0.01000002               -0.30537755                0.01540507                0.14436407                0.03857966                0.44026249                0.07665130
               8.00271419                9.00430088               25.03564817                0.01000003               -0.30647218               -0.01451010                0.15965682               -0.20923347                0.69472899                0.19151826
               8.99950446                9.00025991               25.04442124                0.99999998               -0.18723217               -0.12743957                0.17724732               -0.28247291                0.44641625                0.30345612
               9.99896955                8.99995717               25.04426819                0.99999996               -0.05349096               -0.13563037                0.17969882               -0.12181415                0.00007796                0.19692729
               0.02282323               10.00485228               25.02581171                1.00000000               -0.03160126               -0.03166453                0.10579609                0.00023032                0.01263127                0.01377900
               1.02250722               10.00221138               25.02468473                1.00000000               -0.03146470               -0.03139274                0.10488230                0.00017573                0.01571008                0.00067438
               2.02219394                9.99957161               25.02362094                1.00000000               -0.03120187               -0.03113828                0.10401724                0.00015875                0.01571135               -0.00379843
               3.02188318                9.99693309               25.02249688                0.04902989               -0.24559506               -0.03087097                0.10312078                0.30253708                0.06811707               -0.00411156
               4.01728204               10.00034400               25.02248525                0.01368202               -0.49076005                0.07743209                0.10829939                0.37269786                0.20862686               -0.01479720
               5.01206798               10.00485119               25.02467424                0.01000000               -0.42691218                0.11639780                0.12028689                0.23233265                0.33574652                0.02978837
               6.00874379               10.00669009               25.02772810                0.01000001               -0.26264514                0.06151405                0.13267747                0.07636220                0.36147118                0.05967110
               7.00681508               10.00653434               25.03071067                0.01271099               -0.23364076                0.02923858                0.14809492                0.02036320                0.50044996                0.02183311
               8.00407098               10.00473500               25.03674697                0.01000002               -0.34994041                0.04341167                0.16270523               -0.20482454                0.71631724                0.15568034
               8.99981627                9.99972428               25.04427957                0.99999996               -0.23997382               -0.05356359                0.18017422               -0.23490668                0.38415128               -0.00012881
               9.99927150                9.99941324               25.04412653                0.99961536               -0.05447688               -0.05439304                0.18262741               -0.00090815               -0.00011490                0.00010000
               0.00106220                0.00209628               26.02069660                1.00000000               -0.02428015               -0.02351578                0.07972486               -0.00005947               -0.00300246                0.00340887
               1.00081940                0.00103902               26.02069304                1.00000000               -0.02460651               -0.02418952                0.08189912                0.00032524               -0.00325688               -0.00128516
               2.00057007               -0.00002633               26.02068232                0.01264588               -0.03451133               -0.02487453                0.08408050                0.13734000                0.05601625               -0.00138946
               3.00012917                0.00164001               26.02186661                0.01189856               -0.13397716                0.10996267                0.09282444                0.03362162                0.14509863               -0.01982618
               3.99789053                0.00536156               26.02269585                0.01000001               -0.33037631                0.10940158                0.08110146                0.07344930                0.18888181                0.00757373
               4.99352164                0.01011424               26.02455440                0.01000003               -0.56147140                0.14996564                0.10760793                0.29678467                0.17862315                0.01143208
               5.98666110                0.01864842               26.02714131                0.54767520               -0.35890059               -0.03103749                0.10413078                0.36796595                0.08458447               -0.00114013
               6.98634363                0.01982955               26.02823561                1.00000000               -0.03229415               -0.03208442                0.10769229                0.00054169                0.00833749               -0.00271380
               7.98601521                0.02100714               26.02929379                0.99999998               -0.03338359               -0.03318829                0.11127898                0.00055626                0.00759831               -0.00020445
               8.98567596                0.02218050               26.03037056                1.00000000               -0.03447684               -0.03428139                0.11494285                0.00055954                0.00685869                0.00100424
               9.98532568                0.02335019               26.03141209                0.99981426               -0.03502833               -0.03541782                0.11860291                0.00078435                0.00515204                0.00488535
               0.00211887                1.00186113               26.02050356                0.99522711               -0.02349106               -0.02314306                0.07723337               -0.00038618                0.00142905                0.00395866
               1.00188396                1.00079712               26.02049794                0.01000000               -0.02379487               -0.02383460                0.07939612               -0.00001496                0.00338426               -0.00315846
               2.00164297                0.99972492               26.02053042                0.01000000               -0.20562600                0.09450967                0.08157541                0.03398090                0.05981474                0.04159630
               2.99777144                1.00273964               26.02165749                0.01000001               -0.36275338                0.12215465                0.06924770                0.14379049                0.12460166               -0.00725367
               3.99438790                1.00645558               26.02249553                0.01000000               -0.39626867                0.10030871                0.08029573                0.20083788                0.10700422                0.03862080
               4.98984607                1.01161390               26.02391030                0.01000000               -0.44524005                0.07116640                0.09632716                0.41441805                0.09724792                0.04526860
               5.98548310                1.01833804               26.02590829                0.01000001               -0.23381877               -0.15267314                0.10280603                0.43654393                0.04833861               -0.00165316
               6.98516969                1.01950871               26.02694618                1.00000000               -0.03188999               -0.03187436                0.10632524                0.00001960                0.00062382               -0.00301062
               7.98484530                1.02067525               26.02798800                0.99540108               -0.03298307               -0.03299225                0.10995104                0.00001089                0.00110811               -0.00007215
               8.98451003                1.02183769               26.02903455                0.99999999               -0.03407371               -0.03408101                0.11360603                0.00000936                0.00087773                0.00074359
               9.98416383                1.02299602               26.03007167                1.00000000               -0.03461996               -0.03521970                0.11726865                0.00020613                0.00036721                0.00617592
               0.00318248                2.00163342               26.02031752                0.01058720               -0.02271769               -0.00608931                0.07474804               -0.12757561                0.00175219                0.06067149
               1.00295530                2.00056233               26.02026612                0.01000000               -0.19376548                0.07411816                0.07687322               -0.07216539                0.05316982                0.06898859
               1.99930717                2.00186386               26.02124392                0.01000001               -0.33404903                0.16491644                0.08175959                0.01539299                0.07070801                0.08564353
               2.99627432                2.00408311               26.02187645                0.01000000               -0.31370731                0.09482301                0.08530070                0.20033878                0.03621819                0.05408811
               3.99303302                2.00736774               26.02262090                0.01000000               -0.31733893                0.04280467                0.08858549                0.35838681                0.02836871                0.07441216
               4.98992754                2.01153757               26.02354280                0.01000001               -0.27679279               -0.08616823                0.09477600                0.53826185                0.03185561                0.06851895
               5.98749717                2.01559495               26.02466091                0.01139534               -0.29603655               -0.18648456                0.10329039                0.56801861                0.01914762                0.02287322
               6.98400681                2.01919207               26.02564829                0.01000000               -0.19053573               -0.13720254                0.10497004                0.36557997               -0.00626462                0.03335617
               7.98368645                2.02034729               26.02668336                0.01292686               -0.03257126               -0.09994100                0.10861287                0.12514504               -0.00520367                0.03034631
               8.98335539                2.02149888               26.02769270                0.99999998               -0.03366547               -0.03365155                0.11227592                0.00005703               -0.00380860               -0.00139026
               9.98301314                2.02264580               26.02875739                1.00000000               -0.03422433               -0.03483664                0.11594234                0.00022259               -0.00116938                0.00614238
               0.00170955                3.00173934               26.02125605                0.01000001               -0.14993350                0.14527654                0.07886095               -0.01597225                0.01099626                0.16103878
               1.00021021                3.00227949               26.02151655                0.01000001               -0.16397482                0.12671434                0.08382445               -0.05504310                0.00870906                0.15205799
               1.99843005                3.00302325               26.02192285                0.01000000               -0.19679386                0.05609380                0.08833156                0.12714392                0.01513023                0.09872894
               2.99627434                3.00463610               26.02230922                0.01000000               -0.21644380                0.01659606                0.08933386                0.30626342                0.01536994                0.08415020
               3.99410118                3.00731167               26.02289706                0.01197767               -0.19451246               -0.05364476                0.09375209                0.43091469                0.01479885                0.07728459
               4.99238409                3.00989054               26.02351906                0.01000000               -0.24560971               -0.12600597                0.09843438                0.59738643                0.01256041                0.07501406
               5.98918898                3.01460835               26.02423839                0.01000001               -0.23275677               -0.16627343                0.10302940                0.61262124                0.00454797                0.09416502
               6.98772895                3.01676466               26.02508547                0.01000001               -0.20737967               -0.23035447                0.10834142                0.54867163                0.00019096                0.10721435
               7.98504139                3.01867643               26.02598619                0.01257028               -0.27581448               -0.16665577                0.10514653                0.47757405               -0.06888028                0.11502194
               8.98221266                3.02116466               26.02631518                0.01345995               -0.15834722               -0.10476094                0.11094771                0.38247755               -0.04004695                0.06882600
               9.98187444                3.02229928               26.02741845                0.30673494               -0.03382181               -0.29005368                0.11461249                0.37204143               -0.00155680                0.05145468
               0.00178274                4.00453895               26.02290453                0.01000003               -0.12122099                0.25526596                0.08703265                0.05625218               -0.01312611                0.20570115
               1.00057053                4.00309661               26.02284945                0.01000000               -0.11446527                0.04936649                0.08977884                0.13565919               -0.01715372                0.15471607
               1.99949343                4.00298574               26.02274755                0.01000000               -0.12296815               -0.03332978                0.09147331                0.30424335               -0.01032646                0.10631758
               2.99811117                4.00441503               26.02290484                0.01197854               -0.15482759               -0.04680340                0.09474021                0.40935077               -0.00005947                0.07944723
               3.99639688                4.00629484               26.02312167                0.01000000               -0.17662865               -0.12101985                0.09739508                0.52950731                0.00810018                0.07460280
               4.99457859                4.00901745               26.02362315                0.01000001               -0.17607061               -0.11894009                0.10108301                0.60166953                0.03188917                0.10023485
               5.99287547                4.01226949               26.02451838                0.01000001               -0.18332163               -0.22416714                0.10635837                0.65413979                0.04839493                0.14401959
               6.99091216                4.01458498               26.02554765                0.01181900               -0.20187678               -0.21513869                0.11064257                0.61043845                0.01076952                0.15737572
               7.98883794                4.01701418               26.02596558                0.01000535               -0.17650359               -0.22184902                0.11450671                0.69556840               -0.02629853                0.17269908
               8.98738209                4.01940366               26.02638060                0.01000000               -0.03266078               -0.33986586                0.11419653                0.59854086               -0.02802753                0.22020727
               9.98818472                4.01684473               26.02701439                0.01314365                0.08026297               -0.55956112                0.11763635                0.43102404               -0.00928814                0.17314726
               0.00571927                5.00684466               26.02465151                0.01000000               -0.12426565                0.08925184                0.09572253                0.20457308               -0.02273966                0.23918120
               1.00447661                5.00326682               26.02418843                0.01000000               -0.12613829                0.02320898                0.09462838                0.38295306               -0.02813286                0.17555463
               2.00319650                5.00235665               26.02366087                0.01000001               -0.16621849               -0.05591099                0.09565354                0.49667429               -0.02952575                0.09314376
               3.00115224                5.00370003               26.02329013                0.01000000               -0.15538033               -0.14024360                0.09762094                0.59660491               -0.00508337                0.07396903
               4.00008890                5.00489128               26.02349327                0.01000001               -0.13547046               -0.13338785                0.10078604                0.62271846                0.04587466                0.08156004
               4.99844283                5.00751173               26.02423757                0.01000001               -0.16923221               -0.15366880                0.10580402                0.67490752                0.08503621                0.12624332
               5.99670425                5.01012501               26.02539838                0.01185615               -0.16249030               -0.19833440                0.11153933                0.65292597                0.07441565                0.14519885
               6.99519303                5.01246188               26.02612868                0.01001529               -0.12850921               -0.22504270                0.11594368                0.63054716                0.05227659                0.17821014
               7.99413407                5.01423945               26.02700902                0.01000000               -0.04200496               -0.31850949                0.12077365                0.58997222                0.06899573                0.27011969
               8.99435293                5.01436734               26.02818903                0.01000000                0.07393636               -0.47827959                0.12534253                0.43176221                0.05638574                0.32597107
               9.99561280                5.01110806               26.02872509                0.01000000                0.12598669               -0.46791398                0.12753011                0.25860830                0.03295710                0.29930501
               0.01302989                6.00632399               26.02690975                0.77267877               -0.03122903               -0.04166282                0.10435943                0.22738581               -0.00363279                0.13414474
               1.01271760                6.00356079               26.02607960                0.01000001               -0.20180907               -0.00094004                0.10376161                0.32727886               -0.04761325                0.09801722
               2.00899370                6.00186752               26.02437218                0.01139961               -0.26044760               -0.09365748                0.10019077                0.50098542               -0.05502056                0.07163807
               3.00750864                6.00161016               26.02389416                0.01000001               -0.19770766               -0.14569385                0.10082605                0.63436985                0.03079598                0.05023554
               4.00503955                6.00362709               26.02405944                0.01000001               -0.23328155               -0.13195286                0.10451087                0.69311693                0.09181127                0.07783029
               5.00284301                6.00594408               26.02507014                0.01185747               -0.20278558               -0.14512229                0.11085865                0.67796151                0.11603122                0.09650404
               6.00098384                6.00830280               26.02596196                0.01004011               -0.17171768               -0.16623968                0.11615257                0.61779154                0.12211051                0.13124225
               6.99940866                6.01008412               26.02731368                0.01000000               -0.11259580               -0.22351284                0.12390434                0.49376298                0.17075201                0.24237005
               7.99873192                6.01064399               26.02936388                0.01000000               -0.01299656               -0.34499077                0.13219662                0.34708667                0.18069045                0.35953159
               8.99914873                6.00983807               26.03095819                0.01079801                0.05717596               -0.41326003                0.13602428                0.19415310                0.11136473                0.38404048
               9.99987544                6.00748645               26.03153976                0.01000001                0.07267152               -0.29200669                0.13912702                0.07979510                0.06744777                0.36176944
               0.01579338                7.00601140               26.02690770                0.99999999               -0.03147151               -0.03133869                0.10521329                0.00002584               -0.00446688                0.02166137
               1.01547866                7.00324802               26.02595327                1.00000000               -0.03132649               -0.03130581                0.10425407               -0.00016251               -0.00695495               -0.00028624
               2.01516685                7.00048351               26.02495117                0.01000000               -0.16992968               -0.08474540                0.10347935                0.32370686               -0.00034844                0.02206893
               3.01208007                7.00078616               26.02413216                0.01000001               -0.27747669               -0.13586370                0.10160848                0.53709392                0.05518120                0.01126145
               4.00961732                7.00225222               26.02454348                0.01182343               -0.23768586               -0.14320369                0.10755477                0.65147224                0.12357087                0.02559237
               5.00732635                7.00460929               26.02529548                0.01002028               -0.23486388               -0.11191150                0.11342728                0.65427049                0.16390092                0.05927945
               6.00492004                7.00680021               26.02679053                0.01000000               -0.22996274               -0.10363191                0.12291397                0.51317253                0.24602080                0.16242254
               7.00272710                7.00799163               26.02948991                0.01000000               -0.17990924               -0.16535007                0.13442293                0.28828552                0.31720598                0.28014899
               8.00132185                7.00733964               26.03267202                0.01102177               -0.06667834               -0.25798608                0.14175762                0.09515990                0.26569383                0.35328280
               9.00139353                7.00610214               26.03447300                0.01000002                0.02950464               -0.36625273                0.15049307                0.00559660                0.13050093                0.50592941
              10.00191195                7.00526793               26.03490849                0.01247147                0.05184144               -0.25722926                0.15555250               -0.00994052                0.06833006                0.56950334
               0.01855718                8.00569722               26.02691745                1.00000000               -0.03149332               -0.03147925                0.10526344                0.00009621               -0.00098329                0.02298064
               1.01824224                8.00293468               26.02588111                1.00000000               -0.03137370               -0.03137252                0.10456439                0.00006204               -0.00065110                0.00288026
               2.01792970                8.00017261               26.02485339                0.01439772               -0.08802175               -0.03114999                0.10383069                0.07411326                0.01316459               -0.01598123
               3.01648181                7.99889288               26.02409676                0.01257771               -0.18419189               -0.18423343                0.10358860                0.44448783                0.07717944               -0.04932876
               4.01424586                8.00076301               26.02426531                0.01001668               -0.25506905               -0.13269490                0.10681523                0.68960448                0.16416426               -0.02859330
               5.01138043                8.00370585               26.02553549                0.01000000               -0.31904565               -0.02770936                0.11689273                0.59473111                0.26991306                0.06830120
               6.00786495                8.00623016               26.02815337                0.01000000               -0.33727410               -0.00916118                0.13054744                0.37973979                0.36161054                0.16357067
               7.00463495                8.00677712               26.03169122                0.01105251               -0.26701706               -0.05951748                0.14093163                0.12991121                0.39304422                0.20769559
               8.00252461                8.00548427               26.03528561                0.01000002               -0.16512866               -0.13116242                0.15422653               -0.12996420                0.44783357                0.27462635
               9.00133237                8.00251302               26.04015892                0.01396458               -0.05897767               -0.28581470                0.16858467               -0.24447906                0.36505183                0.60868345
              10.00134506                8.00234186               26.04218748                0.01000000                0.00126849               -0.25914940                0.17298307               -0.15715950                0.22592269                0.57810721
               0.02132038                9.00538182               26.02694304                1.00000000               -0.03158689               -0.03162936                0.10561912                0.00008679                0.00215957                0.01880509
               1.02100451                9.00262057               26.02582072                0.99999998               -0.03147360               -0.03146417                0.10491047                0.00004969                0.00092146                0.00208778
               2.02069091                8.99986051               26.02467554                1.00000000               -0.03125449               -0.03126820                0.10423441                0.00004805               -0.00547029               -0.01188320
               3.02037942                8.99710149               26.02342868                0.01360900               -0.10472344               -0.10512974                0.10357704                0.31964379                0.07010616               -0.04243751
               4.01859644                8.99959832               26.02379964                0.01000000               -0.33127973               -0.01674338                0.10788421                0.54998055                0.23875962               -0.03309606
               5.01375383                9.00405510               26.02601941                0.01000000               -0.45764406                0.07897577                0.12137965                0.42250844                0.34661153                0.05385460
               6.00944356                9.00661699               26.02903998                0.01089402               -0.38413059                0.05224304                0.13413438                0.21128781                0.38912488                0.09987070
               7.00607122                9.00680128               26.03254614                0.01000002               -0.32284432                0.01733522                0.14848187                0.03876354                0.45466526                0.08145441
               8.00298667                9.00471639               26.03725838                0.01000003               -0.32124309               -0.01494671                0.16309130               -0.22478512                0.70901785                0.19583736
               8.99964636                9.00038585               26.04619458                0.99999998               -0.19378040               -0.13315858                0.17743123               -0.30041119                0.45338709                0.30734482
               9.99911107                9.00008494               26.04606533                1.00000000               -0.05352892               -0.14002822                0.17972846               -0.12678000                0.00007686                0.19963947
               0.02408142               10.00506463               26.02687046                1.00000000               -0.03168671               -0.03171884                0.10596546                0.00017987                0.01268600                0.01384137
               1.02376455               10.00230539               26.02573534                1.00000000               -0.03158373               -0.03151717                0.10526344                0.00013434                0.01577956                0.00071224
               2.02344974                9.99954724               26.02466390                1.00000000               -0.03138406               -0.03132609                0.10460744                0.00012781                0.01577927               -0.00376448
               3.02313687                9.99679029               26.02353194                0.06697398               -0.25789397               -0.03111999                0.10392390                0.31978947                0.07117853               -0.00412719
               4.01829186               10.00042815               26.02357289                0.01386880               -0.51624709                0.08298237                0.10911761                0.39429578                0.21989580               -0.01547801
               5.01281193               10.00528536               26.02588815                0.01000000               -0.44736656                0.12302612                0.12277743                0.24815349                0.35019520                0.02965660
               6.00934453               10.00727502               26.02907223                0.01000001               -0.27505547                0.06580292                0.13689049                0.08202022                0.37682294                0.06124510
               7.00731082               10.00712383               26.03221004                0.01280613               -0.24500952                0.03225475                0.15272313                0.01947553                0.51554764                0.02469663
               8.00444434               10.00518533               26.03838738                0.01000002               -0.36776084                0.04689411                0.16620486               -0.21793236                0.73033577                0.15698528
               8.99995560                9.99984984               26.04608118                1.00000000               -0.25165358               -0.05360000                0.18014765               -0.25127724                0.39101275               -0.00013968
               9.99941127                9.99954130               26.04595192                0.99975429               -0.05443311               -0.05436417                0.18244453               -0.00083447               -0.00010068                0.00010428
               0.00102479                0.00233595               27.02149003                0.99995599               -0.02416600               -0.02331134                0.07895979                0.00010595               -0.00300863                0.00342149
               1.00078313                0.00123375               27.02151212                1.00000000               -0.02461002               -0.02423083                0.08191984                0.00044904               -0.00325593               -0.00128649
               2.00053259                0.00012419               27.02152709                0.01809731                0.00341599               -0.02516265                0.08488645                0.12892279                0.05317218               -0.00139100
               3.00085145                0.00157628               27.02268021                0.01307210               -0.10004950                0.09299690                0.05578831                0.03392392                0.10421680               -0.03278814
               3.99853160                0.00563521               27.02364589                0.01000000               -0.39977414                0.13273805                0.11236038                0.05075305                0.15954970                0.01904115
               4.99285597                0.01102455               27.02572192                0.01104218               -0.64417886                0.16744659                0.12449326                0.31904583                0.11580302                0.03051034
               5.98564802                0.01987663               27.02817862                0.54178976               -0.37617018               -0.03081992                0.10331283                0.38191288                0.07617866               -0.00112985
               6.98533256                0.02109842               27.02930981                1.00000000               -0.03212375               -0.03195236                0.10712247                0.00056895                0.00828794               -0.00277835
               7.98500555                0.02231752               27.03040466                0.99999998               -0.03326652               -0.03311100                0.11088196                0.00058798                0.00757644               -0.00021620
               8.98466723                0.02353324               27.03151873                1.00000000               -0.03440295               -0.03425047                0.11469134                0.00058812                0.00687325                0.00100832
               9.98431749                0.02474620               27.03259760                0.99978012               -0.03497449               -0.03543569                0.11850390                0.00076117                0.00516729                0.00489559
               0.00212804                1.00210283               27.02127319                0.99406701               -0.02345460               -0.02297264                0.07670224               -0.00034334                0.00144479                0.00397744
               1.00189350                1.00099144               27.02129321                0.01000000               -0.02387441               -0.02391810                0.07965813               -0.00001051                0.00339159               -0.00317219
               2.00165056                0.99987257               27.02135145                0.01000000               -0.17291587                0.09460191                0.08262707                0.00906709                0.04546170                0.04156757
               2.99843518                1.00250625               27.02221681                0.01000001               -0.36677806                0.13550977                0.06882024                0.10413248                0.08259649                0.01426855
               3.99431499                1.00696259               27.02337244                0.01000000               -0.47547322                0.11687086                0.09410168                0.20425118                0.09062508                0.04610525
               4.98892572                1.01269902               27.02491526                0.01000000               -0.49423872                0.07149689                0.10762590                0.44752954                0.05368207                0.06044384
               5.98443022                1.01956843               27.02693386                0.01000001               -0.24039512               -0.16085323                0.10228408                0.45185546                0.04743964                0.00005723
               6.98411781                1.02077889               27.02800791                0.99999999               -0.03181021               -0.03178130                0.10603569                0.00000440                0.00056259               -0.00306164
               7.98379402                1.02198641               27.02908691                0.99606199               -0.03295196               -0.03295550                0.10983933                0.00001791                0.00111487               -0.00008303
               8.98345877                1.02319074               27.03017089                0.99999999               -0.03409343               -0.03409540                0.11365974                0.00001286                0.00089264                0.00075001
               9.98311215                1.02439184               27.03124534                1.00000000               -0.03466274               -0.03528252                0.11747313                0.00016004                0.00037513                0.00618801
               0.00324070                2.00187649               27.02106350                0.01000002               -0.02275137                0.01310740                0.07445828               -0.14340831                0.00174884                0.07143748
               1.00301319                2.00075539               27.02103747                0.01000000               -0.20207857                0.07998591                0.07738818               -0.09674156                0.05317873                0.07848028
               1.99919913                2.00201623               27.02204074                0.01000001               -0.35845563                0.16956694                0.08014343                0.00051204                0.06268356                0.09683554
               2.99584407                2.00428647               27.02271208                0.01000000               -0.33876378                0.12392518                0.08080304                0.17203102                0.02925708                0.08105603
               3.99242385                2.00797263               27.02350511                0.01000000               -0.33216781                0.04422750                0.09082355                0.37346956                0.01781643                0.08590461
               4.98920072                2.01245449               27.02450656                0.01000001               -0.29092979               -0.10437140                0.09834975                0.57893389                0.03100009                0.07234811
               5.98660526                2.01665957               27.02570858                0.01139873               -0.31430177               -0.19720539                0.10458911                0.60071040                0.01578804                0.02222582
               6.98291468                2.02046279               27.02669766                0.01000000               -0.20055975               -0.14417097                0.10496473                0.38719224               -0.00802789                0.03714496
               7.98259406                2.02165841               27.02777024                0.01195711               -0.03263129               -0.09563679                0.10879107                0.12278776               -0.00516724                0.03104173
               8.98226206                2.02285134               27.02881726                0.99999997               -0.03377881               -0.03375625                0.11263397                0.00005460               -0.00378547               -0.00138410
               9.98191849                2.02404055               27.02991931                1.00000000               -0.03435701               -0.03499009                0.11645005                0.00017768               -0.00116519                0.00615633
               0.00150208                3.00236498               27.02219320                0.01000000               -0.16831537                0.15429086                0.09647233               -0.05540127                0.00526085                0.18561219
               0.99981893                3.00259116               27.02245414                0.01000001               -0.16861847                0.12858103                0.09341333               -0.08101973               -0.00328707                0.16689083
               1.99812971                3.00326391               27.02277970                0.01000000               -0.19497629                0.05818488                0.08629466                0.12746643                0.00783445                0.10910248
               2.99591940                3.00498475               27.02319702                0.01000000               -0.22566718                0.02192632                0.09013027                0.33247280                0.01440884                0.09507530
               3.99361637                3.00784714               27.02383749                0.01197498               -0.20509738               -0.06113204                0.09511905                0.46551355                0.01599080                0.08510986
               4.99181745                3.01061159               27.02451075                0.01000000               -0.25901210               -0.13948771                0.09980815                0.63814272                0.01318197                0.07842567
               5.98843613                3.01562433               27.02527853                0.01000001               -0.24773161               -0.17632284                0.10390020                0.65328128                0.00783722                0.09528805
               6.98686282                3.01789548               27.02619900                0.01000001               -0.22874497               -0.24186809                0.11029965                0.59145714                0.00503691                0.11159465
               7.98386123                3.02007367               27.02707517                0.01256102               -0.28925489               -0.17257153                0.11047232                0.50769293               -0.03616877                0.09098499
               8.98107772                3.02251561               27.02742794                0.01350296               -0.15619752               -0.10861458                0.11160765                0.39585534               -0.04072913                0.07103559
               9.98073728                3.02369204               27.02856860                0.32078920               -0.03404476               -0.30534384                0.11542341                0.39353882               -0.00155954                0.05341827
               0.00168031                4.00496231               27.02377265                0.01000003               -0.11864437                0.24394834                0.09216500                0.05935126               -0.01308284                0.21441359
               1.00049387                4.00332701               27.02374437                0.01000000               -0.11627209                0.04127803                0.09240388                0.15456048               -0.01474737                0.15965402
               1.99935487                4.00317993               27.02367239                0.01000000               -0.12917872               -0.03934417                0.09386398                0.33113896               -0.00888739                0.11324708
               2.99791029                4.00472500               27.02385614                0.01197554               -0.16237918               -0.05189947                0.09626260                0.44166170                0.00090009                0.08552532
               3.99610728                4.00674999               27.02410140                0.01000000               -0.18619517               -0.13040357                0.09903911                0.56955302                0.00924264                0.07932678
               4.99418639                4.00966474               27.02464124                0.01000001               -0.18601429               -0.12796454                0.10255904                0.64496925                0.03437426                0.10442332
               5.99238700                4.01313311               27.02559309                0.01000001               -0.19459532               -0.23840135                0.10756685                0.70100429                0.05146004                0.14859664
               6.99029448                4.01562543               27.02666445                0.01179581               -0.21296082               -0.22676035                0.11234320                0.65558265                0.01666937                0.15657561
               7.98812778                4.01820698               27.02714190                0.01000000               -0.18668442               -0.24156815                0.11757076                0.74881045               -0.03110795                0.17310062
               8.98656079                4.02067904               27.02752573                0.01000000               -0.03456851               -0.35868258                0.11561011                0.63453687               -0.03048938                0.22995695
               9.98743641                4.01793367               27.02819181                0.01334596                0.08756183               -0.59254303                0.11814261                0.45826934               -0.00999599                0.18181863
               0.00595970                5.00724395               27.02561615                0.01000000               -0.12671857                0.07866887                0.09791132                0.22460552               -0.02292001                0.24968095
               1.00469252                5.00341672               27.02515231                0.01000000               -0.13026010                0.01648981                0.09779733                0.41263855               -0.02782171                0.18389817
               2.00335450                5.00247702               27.02462883                0.01000001               -0.17549712               -0.06209033                0.09817087                0.53571781               -0.02816362                0.09748125
               3.00118258                5.00394676               27.02427467                0.01000000               -0.16434044               -0.15204718                0.09976283                0.64120971               -0.00343577                0.07733823
               4.00006769                5.00523907               27.02450854                0.01000001               -0.14244300               -0.14372920                0.10269412                0.66846080                0.04884531                0.08510830
               4.99833372                5.00805230               27.02530406                0.01000001               -0.17860870               -0.16424102                0.10758548                0.72403582                0.08901538                0.13135694
               5.99649552                5.01085630               27.02652344                0.01182562               -0.17165515               -0.21070313                0.11338728                0.69997991                0.07845927                0.15002923
               6.99490061                5.01336027               27.02730425                0.01000000               -0.13558481               -0.23973504                0.11835739                0.67495712                0.05516678                0.18412241
               7.99378382                5.01524231               27.02823116                0.01000000               -0.04294232               -0.33987438                0.12333325                0.62808424                0.07186621                0.27705729
               8.99404177                5.01534196               27.02945243                0.01000000                0.08047938               -0.50721086                0.12770490                0.46018262                0.05632871                0.33764972
               9.99539341                5.01184118               27.03001005                0.01000000                0.13516440               -0.49626670                0.12956209                0.27605964                0.03292828                0.31098761
               0.01382687                6.00653569               27.02795464                0.75441760               -0.03133059               -0.05106401                0.10455650                0.24944723               -0.00360617                0.13824382
               1.01351356                6.00365681               27.02711968                0.01000001               -0.21438413               -0.00369837                0.10419622                0.35503385               -0.04896868                0.10170928
               2.00953918                6.00193812               27.02537908                0.01140273               -0.27705629               -0.10076052                0.10168002                0.53750614               -0.05638205                0.07451581
               3.00797244                6.00168406               27.02490923                0.01000001               -0.20841114               -0.15831248                0.10300741                0.68043009                0.03312718                0.04960115
               4.00537096                6.00387541               27.02511030                0.01000001               -0.24612796               -0.14197510                0.10639940                0.74526811                0.09660253                0.08008356
               5.00304988                6.00637992               27.02618916                0.01182708               -0.21461665               -0.15427196                0.11306564                0.72788126                0.12169517                0.09989861
               6.00107863                6.00891905               27.02713586                0.01000000               -0.18211296               -0.17646295                0.11881492                0.66201703                0.12768634                0.13691917
               6.99940762                6.01083073               27.02856475                0.01000000               -0.11854281               -0.23778343                0.12637734                0.52726789                0.17756498                0.25162324
               7.99870777                6.01140949               27.03069870                0.01000000               -0.01210216               -0.36668813                0.13498997                0.37004839                0.18544521                0.37003354
               8.99916557                6.01053483               27.03233540                0.01075740                0.06256997               -0.43941155                0.13992973                0.20646306                0.11351554                0.39617639
               9.99995917                6.00800834               27.03294704                0.01000001                0.07935978               -0.31049679                0.14266248                0.08527037                0.06878570                0.37503331
               0.01670641                7.00622267               27.02796101                0.99999999               -0.03156482               -0.03138682                0.10540422                0.00001931               -0.00478192                0.02179965
               1.01639076                7.00334276               27.02699808                1.00000000               -0.03145168               -0.03143071                0.10467002               -0.00016022               -0.00715451               -0.00022675
               2.01607737                7.00046181               27.02598929                0.01000000               -0.17684326               -0.08945929                0.10411288                0.34278217               -0.00221549                0.02345597
               3.01285389                7.00078051               27.02512804                0.01000001               -0.29000894               -0.14342363                0.10113690                0.57314237                0.05728729                0.00601859
               4.01027720                7.00239957               27.02562852                0.01180009               -0.25030993               -0.15259902                0.10963733                0.69975869                0.13439538                0.02208279
               5.00784770                7.00496686               27.02643819                0.01000000               -0.24960746               -0.11765714                0.11592002                0.70118728                0.17230197                0.06190166
               6.00528505                7.00732704               27.02803196                0.01000000               -0.24460816               -0.10903145                0.12573191                0.54834776                0.25676407                0.16922926
               7.00295553                7.00860460               27.03084830                0.01000000               -0.19021766               -0.17534030                0.13755650                0.30859784                0.32644486                0.28899044
               8.00148069                7.00790854               27.03410843                0.01097413               -0.06916774               -0.27390589                0.14609514                0.10019649                0.27277150                0.36368776
               9.00157218                7.00655373               27.03599673                0.01000002                0.03355522               -0.39048359                0.15487808                0.00391512                0.13584766                0.52033129
              10.00215180                7.00563124               27.03648274                0.01286863                0.05796195               -0.27385950                0.15984596               -0.01202561                0.07181226                0.58436686
               0.01958708                8.00590795               27.02797113                1.00000000               -0.03158636               -0.03153262                0.10544829                0.00009705               -0.00100013                0.02289399
               1.01927121                8.00302819               27.02692897                1.00000000               -0.03150021               -0.03149632                0.10498402                0.00006399               -0.00067216                0.00289102
               2.01895707                8.00014894               27.02589508                0.01488219               -0.08868436               -0.03134922                0.10448268                0.07729232                0.01445973               -0.01593841
               3.01749752                7.99881558               27.02515864                0.01256798               -0.18886420               -0.19113268                0.10590521                0.46713124                0.10109922               -0.07994202
               4.01517979                8.00082342               27.02531553                0.01000000               -0.26756868               -0.13996965                0.10614810                0.73162830                0.17694899               -0.02668662
               5.01214615                8.00402677               27.02671286                0.01000000               -0.33859708               -0.02776071                0.11962236                0.63384405                0.28473842                0.07125005
               6.00840785                8.00673842               27.02947290                0.01000000               -0.35740401               -0.00867668                0.13376786                0.40448092                0.37499247                0.16889596
               7.00499807                8.00732392               27.03312135                0.01100358               -0.28226372               -0.06261922                0.14592356                0.13731132                0.40493191                0.21464578
               8.00276257                8.00593137               27.03684796                0.01000002               -0.17384464               -0.13963469                0.15906772               -0.14166795                0.46029053                0.28413622
               9.00152118                8.00272515               27.04186300                0.01401336               -0.05994670               -0.30345917                0.17272292               -0.26035778                0.37193635                0.61826324
              10.00156364                8.00253115               27.04393256                0.01000000                0.00424590               -0.27228602                0.17634839               -0.16551131                0.22736146                0.58636002
               0.02246786                9.00559201               27.02800022                1.00000000               -0.03168105               -0.03168422                0.10581234                0.00008692                0.00216851                0.01887946
               1.02215105                9.00271283               27.02687198                0.99999998               -0.03160176               -0.03159070                0.10533691                0.00004835                0.00094760                0.00212664
               2.02183583                8.99983483               27.02572118                1.00000000               -0.03145114               -0.03146632                0.10488987                0.00004382               -0.00542126               -0.01182842
               3.02152203                8.99695786               27.02446879                0.01365996               -0.10686284               -0.10857818                0.10445298                0.33327936                0.07269177               -0.04368870
               4.01969857                8.99960018               27.02488487                0.01000000               -0.34562252               -0.01677462                0.10851938                0.57988745                0.24817208               -0.03321122
               5.01460958                9.00441165               27.02724291                0.01000000               -0.48105288                0.08400401                0.12365298                0.44898632                0.36286260                0.05614698
               6.01007752                9.00715351               27.03040224                0.01084913               -0.40503850                0.05560415                0.13902810                0.22455410                0.40468924                0.10262763
               7.00650881                9.00735222               27.03405567                0.01000002               -0.34157060                0.01882724                0.15465061                0.03875712                0.46937978                0.08665821
               8.00324610                9.00511585               27.03890999                0.01000003               -0.33717825               -0.01573390                0.16848873               -0.24118452                0.72105689                0.20019530
               8.99976525                9.00048455               27.04796986                0.99999998               -0.20082575               -0.13884346                0.17762699               -0.31897601                0.45846119                0.30959971
               9.99922959                9.00018552               27.04786276                1.00000000               -0.05356578               -0.14444995                0.17975734               -0.13168415                0.00007489                0.20095228
               0.02534718               10.00527427               27.02793102                1.00000000               -0.03178176               -0.03177476                0.10616226                0.00014318                0.01274039                0.01390751
               1.02502937               10.00239638               27.02679000                1.00000000               -0.03171328               -0.03164501                0.10568897                0.00009839                0.01584498                0.00074717
               2.02471292                9.99951961               27.02571309                1.00000000               -0.03158019               -0.03152169                0.10525619                0.00009096                0.01583927               -0.00373660
               3.02439776                9.99664402               27.02457536                0.08548270               -0.26945850               -0.03138378                0.10479287                0.33598921                0.07406066               -0.00413825
               4.01932375               10.00048793               27.02466761                0.01407921               -0.54126074                0.08877553                0.10968035                0.41565920                0.23242852               -0.01684200
               5.01357255               10.00570685               27.02712979                0.01000000               -0.46826944                0.12952070                0.12568617                0.26442525                0.36674692                0.02991391
               6.00995836               10.00785050               27.03046590                0.01000001               -0.28808386                0.06969968                0.14278922                0.08776516                0.39423192                0.06317627
               7.00781087               10.00770047               27.03376514                0.01291775               -0.25759055                0.03482529                0.15997346                0.01851534                0.53078477                0.02748061
               8.00480655               10.00561669               27.04007107                0.01000002               -0.38694421                0.05008414                0.17221782               -0.23156460                0.74150038                0.15797937
               9.00007199                9.99994829               27.04788253                1.00000000               -0.26392714               -0.05362623                0.18012087               -0.26805318                0.39578919               -0.00013833
               9.99952801                9.99964215               27.04777542                0.99988085               -0.05439806               -0.05433747                0.18225125               -0.00077206               -0.00010249                0.00010252
               0.00095785                0.00259838               28.02227580                0.99957904               -0.02406367               -0.02311802                0.07823573                0.00025870               -0.00298917                0.00345568
               1.00071721                0.00145110               28.02233144                1.00000000               -0.02462174               -0.02427725                0.08196854                0.00057017               -0.00324940               -0.00127587
               2.00046542                0.00029714               28.02238005                0.01000001               -0.03112500               -0.02545116                0.08571048                0.13931775                0.02395506               -0.00140315
               3.00009471                0.00191106               28.02298238                0.01421270               -0.12128044                0.10820821                0.06332780                0.03037282               -0.00277837                0.05788054
               3.99803981                0.00628928               28.02494306                0.01000000               -0.43948703                0.12291787                0.10366053                0.06755137                0.07207006               -0.00131718
               4.99130497                0.01233779               28.02704427                0.01223901               -0.67215108                0.17003531                0.11431624                0.34663435                0.03885906                0.03991075
               5.98459679                0.02111534               28.02920757                0.53586196               -0.35108151               -0.03061142                0.10249490                0.37624574                0.05957704               -0.00112003
               6.98428334                0.02237779               28.03037806                1.00000000               -0.03194823               -0.03181600                0.10652380                0.00060336                0.00828253               -0.00281395
               7.98395782                0.02363832               28.03151143                0.99999998               -0.03314247               -0.03303028                0.11046296                0.00060848                0.00755686               -0.00021901
               8.98362049                0.02489636               28.03266438                1.00000000               -0.03432638               -0.03421977                0.11443641                0.00061039                0.00687774                0.00101220
               9.98327129                0.02615261               28.03378216                0.99973135               -0.03492006               -0.03545541                0.11841065                0.00073774                0.00517315                0.00490226
               0.00210773                1.00236720               28.02203761                0.99293059               -0.02341884               -0.02281098                0.07620152               -0.00030506                0.00146151                0.00400162
               1.00187354                1.00120832               28.02209110                0.01000000               -0.02395574               -0.02400442                0.07992644               -0.00000742                0.00340940               -0.00317259
               2.00162861                1.00004263               28.02218296                0.01000000               -0.22355819                0.10375904                0.08366704                0.01028187                0.04308332                0.04135558
               2.99740237                1.00299314               28.02303389                0.01000001               -0.40633268                0.14064755                0.08696542                0.13881000               -0.02489113                0.09598771
               3.99350196                1.00751846               28.02437757                0.01000000               -0.50220429                0.11657505                0.10157083                0.23000323                0.02162797                0.03421617
               4.98735829                1.01403814               28.02606282                0.01000000               -0.50813572                0.05256261                0.11463732                0.51649349               -0.00171670                0.05226070
               5.98333924                1.02080922               28.02795397                0.01000001               -0.21652006               -0.17102684                0.10176597                0.45232670                0.03911619                0.00169992
               6.98302789                1.02205963               28.02906690                0.99999999               -0.03173107               -0.03169603                0.10575918                0.00000198                0.00056058               -0.00308460
               7.98270462                1.02330801               28.03018478                0.99673211               -0.03292182               -0.03292247                0.10973186                0.00001078                0.00111794               -0.00008599
               8.98236945                1.02455416               28.03130774                0.99999999               -0.03411021               -0.03411080                0.11371182                0.00000787                0.00090006                0.00075728
               9.98202242                1.02579806               28.03242113                1.00000000               -0.03470334               -0.03534721                0.11768580                0.00011148                0.00038034                0.00619661
               0.00326951                2.00214216               28.02180669                0.01000000               -0.02278699                0.01876174                0.07417968               -0.15785741                0.00174313                0.08497884
               1.00304164                2.00097101               28.02181389                0.01000000               -0.21916383                0.08510412                0.07788056               -0.10427013                0.05299611                0.08726458
               1.99888623                2.00237232               28.02284679                0.01000001               -0.38232769                0.17655077                0.08704058               -0.00158750                0.04872572                0.11227629
               2.99539509                2.00472401               28.02349251                0.01000000               -0.36456800                0.12002035                0.08880401                0.21753998                0.03313089                0.10609859
               3.99159487                2.00862078               28.02443737                0.01000000               -0.35255043                0.04495628                0.09595881                0.41351685                0.01958014                0.08678648
               4.98834408                2.01338904               28.02550980                0.01000001               -0.29865207               -0.13568857                0.10173213                0.64612105                0.02867856                0.06008988
               5.98562183                2.01769480               28.02675269                0.01140216               -0.32797433               -0.20898089                0.10131357                0.63365274                0.01041681                0.01971763
               6.98178459                2.02174387               28.02774759                0.01000000               -0.20791635               -0.15149384                0.10501379                0.41451133               -0.00967028                0.03970576
               7.98146351                2.02297987               28.02885918                0.01155981               -0.03269918               -0.10917692                0.10899542                0.14273623               -0.00514847                0.03305658
               8.98113061                2.02421414               28.02994538                0.99999996               -0.03388884               -0.03386327                0.11299275                0.00004995               -0.00376979               -0.00137516
               9.98078573                2.02544567               28.03108639                1.00000000               -0.03448792               -0.03514524                0.11696519                0.00012848               -0.00116172                0.00616524
               0.00129289                3.00274244               28.02318549                0.01000000               -0.17349139                0.16310570                0.09617640               -0.06779720                0.00217312                0.17942827
               0.99955798                3.00291041               28.02338481                0.01000001               -0.17245176                0.13102600                0.09281136               -0.09172991               -0.00035432                0.17496597
               1.99784386                3.00357364               28.02364874                0.01000000               -0.20266308                0.05146135                0.09118491                0.14004160                0.00883635                0.12022930
               2.99550472                3.00539355               28.02411183                0.01000000               -0.23682952                0.01619398                0.09492700                0.35745052                0.01643597                0.10765068
               3.99310727                3.00841758               28.02479944                0.01197308               -0.21490137               -0.07052254                0.09847960                0.50662908                0.01905217                0.08923086
               4.99120669                3.01132437               28.02551522                0.01000000               -0.27248979               -0.15382177                0.10077214                0.68211686                0.01348942                0.07788042
               5.98765747                3.01662960               28.02631640                0.01000001               -0.25868213               -0.18491472                0.10121277                0.69825026                0.00769309                0.09611842
               6.98603305                3.01902975               28.02729146                0.01000001               -0.22841988               -0.25663132                0.10632987                0.62035073                0.00918046                0.11511500
               7.98308907                3.02112448               28.02819564                0.01255811               -0.30641983               -0.18298326                0.11480852                0.53690677               -0.02628583                0.08572508
               8.97990465                3.02387690               28.02854733                0.01356729               -0.17635686               -0.11179119                0.11227482                0.42812326               -0.04273090                0.07386226
               9.97956194                3.02509515               28.02972692                0.34934353               -0.03427139               -0.32030106                0.11624100                0.41517159               -0.00156210                0.05521810
               0.00157763                4.00540428               28.02474783                0.01000003               -0.12017958                0.24569242                0.09944668                0.06350820               -0.01454616                0.21230164
               1.00037584                4.00359153               28.02469752                0.01000000               -0.11868554                0.03295361                0.09733998                0.16733983               -0.01730096                0.16306421
               1.99920392                4.00340155               28.02462483                0.01000000               -0.13378384               -0.04870236                0.09721920                0.35616900               -0.00798080                0.12052562
               2.99770016                4.00504789               28.02483009                0.01197404               -0.17036429               -0.05999209                0.09925198                0.47539372                0.00279765                0.09002184
               3.99579664                4.00721033               28.02510245                0.01000000               -0.19628831               -0.14165195                0.10151399                0.60969280                0.01047711                0.08233101
               4.99377439                4.01031261               28.02567433                0.01000001               -0.19575898               -0.13667087                0.10397280                0.68938657                0.03575142                0.10785827
               5.99188146                4.01399651               28.02666971                0.01000001               -0.20388291               -0.25233917                0.10719083                0.74572084                0.05350943                0.15398204
               6.98969674                4.01661124               28.02779451                0.01177817               -0.22634788               -0.23928588                0.11219753                0.69396491                0.01986589                0.16030101
               7.98735450                4.01932020               28.02831700                0.01000000               -0.19871696               -0.24503350                0.11661131                0.78506102               -0.03174923                0.17576240
               8.98572240                4.02197832               28.02869280                0.01000000               -0.03509268               -0.37831153                0.11904047                0.67577022               -0.03250870                0.23941813
               9.98665264                4.01903965               28.02937724                0.01357634                0.09302487               -0.62612832                0.11867175                0.48584138               -0.01249105                0.19020437
               0.00618856                5.00765629               28.02660973                0.01000000               -0.12810532                0.06698655                0.10129620                0.24382198               -0.02344729                0.25318070
               1.00490750                5.00356948               28.02614437                0.01000000               -0.13388424                0.00788377                0.10070813                0.44406295               -0.02775330                0.18816947
               2.00351087                5.00259960               28.02562429                0.01000001               -0.18518465               -0.07020920                0.10096135                0.57484103               -0.02741250                0.10088287
               3.00120381                5.00419371               28.02528538                0.01000000               -0.17372319               -0.16495451                0.10254398                0.68623740               -0.00201238                0.08033803
               4.00003641                5.00558454               28.02554716                0.01000001               -0.14977840               -0.15507747                0.10510005                0.71461403                0.05134226                0.08816935
               4.99820824                5.00859095               28.02638928                0.01000001               -0.18815789               -0.17523438                0.10946628                0.77376206                0.09226223                0.13636201
               5.99627325                5.01158282               28.02766613                0.01180214               -0.18097978               -0.22319225                0.11505063                0.74667994                0.08181007                0.15625428
               6.99458865                5.01424403               28.02849583                0.01000000               -0.14250169               -0.25193508                0.11945417                0.71706861                0.05852694                0.19084923
               7.99342322                5.01622381               28.02947569                0.01000000               -0.04440190               -0.35764064                0.12495483                0.66911550                0.07584895                0.28517865
               8.99370061                5.01631066               28.03074313                0.01000000                0.08664449               -0.53805128                0.13162769                0.48985427                0.05840037                0.34942557
               9.99515611                5.01257259               28.03131633                0.01000000                0.14554971               -0.52626088                0.13221047                0.29495439                0.03382142                0.32318422
               0.01462769                6.00674401               28.02900088                0.73636830               -0.03139049               -0.06126890                0.10461703                0.27227105               -0.00358498                0.14094313
               1.01431378                6.00374920               28.02816352                0.01000001               -0.22755890               -0.00676477                0.10449792                0.38265697               -0.04963826                0.10414929
               2.01007651                6.00199736               28.02640578                0.01140613               -0.29369117               -0.10814906                0.10375155                0.57406528               -0.05650169                0.07650663
               3.00843996                6.00174880               28.02595431                0.01000001               -0.21924200               -0.17682971                0.10558661                0.72470959                0.03525030                0.05014231
               4.00569167                6.00410878               28.02618742                0.01000001               -0.25943022               -0.15479465                0.10942876                0.80088919                0.10005826                0.08293944
               5.00325136                6.00680792               28.02733146                0.01180368               -0.22648492               -0.16336687                0.11534603                0.77922951                0.12623380                0.10381749
               6.00116197                6.00953266               28.02833826                0.01000000               -0.19271171               -0.18675278                0.12158850                0.70682942                0.13275101                0.14294726
               6.99939712                6.01157254               28.02984123                0.01000000               -0.12458974               -0.25145967                0.12875828                0.56128066                0.18488401                0.26080523
               7.99867018                6.01216739               28.03206368                0.01000000               -0.01132111               -0.38798367                0.13832244                0.39251916                0.19238539                0.38057461
               8.99917070                6.01121729               28.03375678                0.01072279                0.06788550               -0.46647468                0.14527756                0.21913030                0.11756956                0.40706006
              10.00002789                6.00851443               28.03439301                0.01000001                0.08571878               -0.33014209                0.14759840                0.09071731                0.07098886                0.38740996
               0.01762359                7.00643091               28.02901578                0.99999999               -0.03163029               -0.03140627                0.10549848                0.00001675               -0.00510513                0.02192875
               1.01730729                7.00343418               28.02804667                1.00000000               -0.03155058               -0.03153023                0.10499942               -0.00016181               -0.00736088               -0.00018127
               2.01699258                7.00043662               28.02703343                0.01000000               -0.18603497               -0.09377031                0.10467250                0.35678250               -0.00295019                0.02414828
               3.01358659                7.00065711               28.02615489                0.01000001               -0.29987517               -0.18977535                0.10843281                0.63477115                0.05913163                0.00519913
               4.01099508                7.00248865               28.02673623                0.01178245               -0.26088184               -0.15679202                0.11126101                0.76027258                0.14095273                0.02081942
               5.00836895                7.00532362               28.02761388                0.01000000               -0.26749297               -0.12408927                0.11967365                0.75127925                0.17878401                0.06472209
               6.00564522                7.00784777               28.02930517                0.01000000               -0.25947101               -0.11474291                0.12895151                0.58427853                0.26593704                0.17606260
               7.00317953                7.00921484               28.03224104                0.01000000               -0.20081843               -0.18549411                0.14107982                0.32888821                0.33617722                0.29845842
               8.00162885                7.00846413               28.03559392                0.01093243               -0.07216779               -0.29009809                0.15132637                0.10424618                0.28088730                0.37442162
               9.00173618                7.00698117               28.03757056                0.01000002                0.03736662               -0.41560700                0.16028935                0.00107077                0.14146396                0.53336771
              10.00237618                7.00596975               28.03810540                0.01330569                0.06400043               -0.29126944                0.16497098               -0.01487872                0.07514837                0.59785337
               0.02062148                8.00611588               28.02902641                1.00000000               -0.03166363               -0.03156963                0.10558158                0.00010328               -0.00101520                0.02280744
               1.02030484                8.00311860               28.02798079                1.00000000               -0.03161237               -0.03160566                0.10535451                0.00006479               -0.00068983                0.00290282
               2.01998923                8.00012196               28.02694305                0.02188008               -0.06107454               -0.03153401                0.10508950                0.04138967                0.01504192               -0.01588833
               3.01908335                7.99795329               28.02621486                0.01256527               -0.18793041               -0.19230576                0.09157498                0.49669814                0.11143280               -0.08732022
               4.01623062                8.00097294               28.02638827                0.01000000               -0.30827617               -0.14533155                0.11357292                0.80817648                0.18591265               -0.02757598
               5.01291783                8.00432613               28.02792794                0.01000000               -0.36371518               -0.02812505                0.12303710                0.66948082                0.29760217                0.07354144
               6.00895632                8.00723780               28.03082873                0.01000000               -0.37796533               -0.00856151                0.13767468                0.43079442                0.38818388                0.17444488
               7.00535852                8.00786266               28.03460969                0.01096025               -0.29837730               -0.06620952                0.15236225                0.14495783                0.41764541                0.22290102
               8.00298877                8.00636543               28.03846696                0.01000002               -0.18360083               -0.14834717                0.16571356               -0.15463641                0.47208185                0.29415614
               9.00168650                8.00290515               28.04361338                0.01408609               -0.06178029               -0.32114308                0.17780045               -0.27748763                0.37746935                0.62509451
              10.00175317                8.00268904               28.04571445                0.01000000                0.00666629               -0.28543107                0.18032017               -0.17408194                0.22726598                0.59179563
               0.02362023                9.00579952               28.02905928                1.00000000               -0.03177184               -0.03173480                0.10599384                0.00009401                0.00217995                0.01895771
               1.02330251                9.00280207               28.02792746                0.99999998               -0.03172757               -0.03171503                0.10575485                0.00004794                0.00097635                0.00216689
               2.02298568                8.99980594               28.02677334                0.99999999               -0.03164691               -0.03166318                0.10554390                0.00004374               -0.00537269               -0.01177399
               3.02266957                8.99681100               28.02551774                0.01373249               -0.10999544               -0.07294494                0.10534256                0.31781478                0.07471575               -0.04422462
               4.02078577                8.99958202               28.02597002                0.01000000               -0.35879333               -0.02235566                0.10852952                0.60527466                0.25877644               -0.03307763
               5.01549370                9.00476111               28.02849247                0.01000000               -0.50305943                0.08918726                0.12621388                0.47626271                0.38055313                0.05708261
               6.01072458                9.00767654               28.03182055                0.01081147               -0.42713210                0.05867085                0.14494094                0.23835200                0.42234718                0.10591290
               7.00695106                9.00789065               28.03563915                0.01000002               -0.36154768                0.01959268                0.16375089                0.03917416                0.48486449                0.09258928
               8.00349362                9.00549719               28.04062815                0.01000003               -0.35441260               -0.01713299                0.17762675               -0.25820766                0.72966686                0.20558912
               8.99986281                9.00055831               28.04974712                0.99999998               -0.20834297               -0.14417009                0.17782962               -0.33777670                0.46039293                0.30975413
               9.99932677                9.00026112               28.04966048                1.00000000               -0.05360447               -0.14855024                0.17978651               -0.13620510                0.00007288                0.20055078
               0.02661825               10.00548119               28.02899370                1.00000000               -0.03188713               -0.03183281                0.10639057                0.00011329                0.01279601                0.01397535
               1.02629938               10.00248430               28.02784912                1.00000000               -0.03185380               -0.03177716                0.10615387                0.00006238                0.01590946                0.00078160
               2.02598117                9.99948869               28.02676902                0.99999999               -0.03179087               -0.03172413                0.10595628                0.00005478                0.01589491               -0.00371088
               3.02566356                9.99649440               28.02562780                0.10462490               -0.27975880               -0.03166031                0.10572772                0.35125566                0.07658016               -0.00414788
               4.02038600               10.00052583               28.02576650                0.01000002               -0.56574988                0.09438059                0.11004480                0.44079726                0.24547757               -0.01744949
               5.01434856               10.00610988               28.02840187                0.01000000               -0.48960887                0.13487630                0.12826909                0.27975573                0.38666715                0.03033333
               6.01059382               10.00841122               28.03192801                0.01000001               -0.30136075                0.07346837                0.15039095                0.09415600                0.41517767                0.06517401
               7.00832135               10.00825451               28.03540951                0.01304662               -0.27184306                0.03638609                0.17185541                0.01760617                0.54714910                0.03036185
               8.00515696               10.00602277               28.04183174                0.01000002               -0.40771574                0.05255790                0.18399791               -0.24530452                0.74798269                0.15849318
               9.00016703               10.00002175               28.04968360                1.00000000               -0.27667620               -0.05365584                0.18009400               -0.28481417                0.39678548               -0.00013931
               9.99962344                9.99971804               28.04959695                0.99999550               -0.05435987               -0.05430878                0.18205089               -0.00070449               -0.00010132                0.00010204
               0.00085373                0.00288144               29.02305474                0.99885499               -0.02398388               -0.02294670                0.07759723                0.00040306               -0.00297169                0.00348956
               1.00061389                0.00168891               29.02315149                1.00000000               -0.02464894               -0.02433692                0.08206648                0.00068772               -0.00324334               -0.00126448
               2.00036075                0.00049031               29.02324130                0.01000000               -0.11905095               -0.02573762                0.08654277                0.16796555                0.02705601               -0.00141547
               2.99823287                0.00263087               29.02394677                0.01000000               -0.22248179                0.12850012                0.10440036                0.06346496                0.05018890                0.02534868
               3.99591111                0.00673986               29.02571910                0.01000000               -0.44321128                0.14127529                0.06991522                0.13849013                0.02208441                0.00060903
               4.98936865                0.01378565               29.02800825                0.01351654               -0.62026726                0.14930435                0.08610777                0.37571151                0.09874506                0.00565837
               5.98350577                0.02236142               29.03022852                0.52992807               -0.30871455               -0.03041178                0.10168822                0.36421016                0.06042315               -0.00111687
               6.98319436                0.02366446               29.03144029                1.00000000               -0.03177039               -0.03167872                0.10591693                0.00063581                0.00830131               -0.00284700
               7.98287036                0.02496642               29.03261392                0.99999998               -0.03301519               -0.03294915                0.11003291                0.00063227                0.00754463               -0.00022057
               8.98253405                0.02626677               29.03380746                1.00000000               -0.03424842               -0.03418832                0.11417867                0.00063163                0.00687969                0.00101564
               9.98218539                0.02756631               29.03496581                1.00000000               -0.03486580               -0.03547551                0.11832067                0.00071148                0.00517288                0.00490091
               0.00205029                1.00265198               29.02279723                0.99180947               -0.02339570               -0.02266296                0.07574410               -0.00027144                0.00147882                0.00402542
               1.00181633                1.00144554               29.02289174                0.01000000               -0.02404301               -0.02409730                0.08021179                0.00000368                0.00342604               -0.00317228
               2.00156943                1.00023294               29.02302479                0.01000000               -0.30367920                0.11528305                0.08469050                0.03022942                0.04506825                0.04696225
               2.99574275                1.00391587               29.02395612                0.01000001               -0.49254040                0.13498201                0.11300766                0.23014588                0.05675700                0.08780064
               3.99171862                1.00815261               29.02540386                0.01000000               -0.52138850                0.12733160                0.09972028                0.31249428                0.02319149                0.04638043
               4.98531498                1.01527870               29.02720800                0.01000000               -0.47550772                0.02091183                0.10230041                0.59975054                0.04543975                0.00532058
               5.98220847                1.02205730               29.02896918                0.01000001               -0.17083826               -0.18349637                0.10126724                0.45695070                0.03060493                0.00033502
               6.98189821                1.02334768               29.03012309                0.99999999               -0.03164685               -0.03160598                0.10547001                0.00000298                0.00057941               -0.00310575
               7.98157553                1.02463693               29.03128155                0.99740786               -0.03288939               -0.03288701                0.10961748                0.00000749                0.00112316               -0.00008523
               8.98124043                1.02592489               29.03244512                0.99999999               -0.03412784               -0.03412641                0.11376348                0.00000120                0.00090440                0.00076657
               9.98089297                1.02721155               29.03359906                1.00000000               -0.03474522               -0.03541189                0.11789961                0.00005860                0.00038097                0.00619471
               0.00326116                2.00242818               29.02254709                0.01000000               -0.02281614                0.01802138                0.07390031               -0.16729106                0.00173728                0.09550576
               1.00303300                2.00120697               29.02259509                0.01000000               -0.23830745                0.08806498                0.07834803               -0.10499755                0.05863278                0.09545327
               1.99849502                2.00279597               29.02378155                0.01000001               -0.40584441                0.18287568                0.09833393                0.00667661                0.06698072                0.10765131
               2.99491612                2.00533051               29.02448816                0.01000000               -0.38484232                0.09421592                0.10645026                0.29225967                0.03476893                0.10323286
               3.99079817                2.00928649               29.02542429                0.01000000               -0.37285760                0.04070354                0.10262199                0.48743933                0.04058272                0.07769134
               4.98745896                2.01420389               29.02654120                0.01000001               -0.31111814               -0.16370162                0.10205149                0.73301545                0.02906619                0.03840344
               5.98457581                2.01869150               29.02773485                0.01140540               -0.34220868               -0.22138148                0.09524607                0.67168647                0.01031744                0.01816992
               6.98061479                2.02303234               29.02879793                0.01000000               -0.21412535               -0.15984124                0.10504537                0.44430820               -0.00828437                0.03918306
               7.98029330                2.02430868               29.02995015                0.01161735               -0.03276670               -0.11532875                0.10919944                0.15280054               -0.00512811                0.03758069
               8.97995946                2.02558424               29.03107711                0.99999997               -0.03400295               -0.03397229                0.11336073                0.00003939               -0.00375754               -0.00135920
               9.97961324                2.02685807               29.03225862                1.00000000               -0.03462150               -0.03530023                0.11747709                0.00007701               -0.00116244                0.00615938
               0.00114690                3.00301240               29.02411673                0.01000000               -0.17983104                0.16779593                0.09394896               -0.06911443                0.00572938                0.18955938
               0.99934859                3.00320684               29.02431037                0.01000001               -0.17837396                0.13108844                0.09404838               -0.09420568                0.00592731                0.18181249
               1.99757942                3.00389045               29.02460339                0.01000000               -0.21255826                0.04094601                0.09843351                0.15805051                0.01450909                0.11790275
               2.99509743                3.00580019               29.02509556                0.01000000               -0.24926998                0.00106895                0.10251549                0.38243734                0.02356527                0.10080527
               3.99259402                3.00896668               29.02580708                0.01197167               -0.22635717               -0.08187994                0.10274468                0.54394486                0.02010850                0.08446578
               4.99057028                3.01200467               29.02652619                0.01000000               -0.28901390               -0.16280249                0.10128330                0.72690904                0.01113256                0.07466314
               5.98681375                3.01762968               29.02730279                0.01000001               -0.27015456               -0.19142364                0.09824905                0.74536938               -0.00047523                0.09934894
               6.98516719                3.02015085               29.02832560                0.01000001               -0.23670518               -0.27026279                0.09283894                0.65652037                0.00166357                0.12407118
               7.98207964                3.02233036               29.02937134                0.01256065               -0.32376818               -0.19332542                0.12341686                0.56979016               -0.03830955                0.10375504
               8.97869183                3.02524544               29.02967344                0.01365228               -0.18663886               -0.11563175                0.11296204                0.45330552               -0.04722564                0.07853714
               9.97834686                3.02650555               29.03089342                0.38895942               -0.03449633               -0.33548600                0.11705216                0.43623352               -0.00156538                0.05657478
               0.00149000                4.00578410               29.02576158                0.01000003               -0.12191535                0.25210514                0.10321399                0.06819220               -0.01380988                0.21230135
               1.00027084                4.00382874               29.02569117                0.01000000               -0.12136563                0.02536362                0.10088981                0.18025480               -0.01647680                0.16498457
               1.99906268                4.00361489               29.02561678                0.01000000               -0.13911061               -0.05883598                0.10065374                0.38044846               -0.00515743                0.12056621
               2.99748863                4.00535188               29.02584118                0.01197264               -0.17950488               -0.06854383                0.10223192                0.50780165                0.00491877                0.08856571
               3.99547259                4.00764889               29.02613168                0.01000000               -0.20772402               -0.15245993                0.10395598                0.64962874                0.01136715                0.08115477
               4.99333415                4.01094784               29.02672069                0.01000001               -0.20677883               -0.14411235                0.10556194                0.73519181                0.03446293                0.11012918
               5.99133701                4.01486302               29.02773691                0.01000001               -0.21448167               -0.26584156                0.10630355                0.79453373                0.05083710                0.16383446
               6.98904452                4.01762709               29.02890841                0.01176505               -0.23712489               -0.25101562                0.11287812                0.73367761                0.01603964                0.17633041
               7.98659451                4.02044217               29.02947413                0.01000000               -0.20970707               -0.25655777                0.11202377                0.83091881               -0.03246339                0.18557957
               8.98485038                4.02327161               29.02990654                0.01000000               -0.03884042               -0.39894770                0.12775703                0.71917404               -0.03395678                0.25303966
               9.98581770                4.02014835               29.03056525                0.01383446                0.09673278               -0.66082274                0.11529206                0.51650296               -0.01334846                0.19810146
               0.00642148                5.00805451               29.02764207                0.01000000               -0.12985828                0.05822000                0.10401794                0.26295583               -0.02326588                0.25285059
               1.00512290                5.00371412               29.02716647                0.01000000               -0.13781179                0.00043818                0.10329965                0.47521400               -0.02743543                0.18953117
               2.00366524                5.00271373               29.02664805                0.01000001               -0.19517166               -0.07778869                0.10311208                0.61354380               -0.02628939                0.10214360
               3.00121946                5.00442931               29.02632555                0.01000000               -0.18373005               -0.17672459                0.10481425                0.73054612               -0.00034949                0.08100481
               3.99999064                5.00591748               29.02661055                0.01000001               -0.15797372               -0.16518832                0.10720586                0.76077513                0.05309542                0.09016412
               4.99805999                5.00912242               29.02749339                0.01000001               -0.19827336               -0.18580858                0.11118579                0.82424659                0.09441508                0.14110614
               5.99602517                5.01231284               29.02882446                0.01178417               -0.18991974               -0.23620320                0.11697494                0.79474942                0.08372841                0.16469782
               6.99426159                5.01513054               29.02969333                0.01000000               -0.14858384               -0.26627360                0.12021124                0.76108579                0.06271684                0.20271954
               7.99305350                5.01719920               29.03073026                0.01000001               -0.04462292               -0.37697149                0.12651624                0.70906809                0.08666557                0.29751675
               8.99336913                5.01726649               29.03208498                0.01000000                0.09349736               -0.57115069                0.14091321                0.52135722                0.06981632                0.35347721
               9.99492344                5.01328909               29.03265426                0.01000000                0.15543102               -0.55904444                0.14129914                0.31669955                0.04054173                0.32576274
               0.01542989                6.00694850               29.03004698                0.71856688               -0.03139954               -0.07093965                0.10451502                0.29495253               -0.00356744                0.14165711
               1.01511590                6.00383750               29.02920963                0.01000001               -0.24057637               -0.00961250                0.10463896                0.41068109               -0.04945766                0.10515997
               2.01061837                6.00205912               29.02745411                0.01140928               -0.31100487               -0.11531091                0.10523410                0.61123984               -0.05503512                0.07789608
               3.00889580                6.00181739               29.02702096                0.01000001               -0.23116938               -0.19026845                0.10758455                0.77001347                0.03735980                0.05577981
               4.00599498                6.00434512               29.02729888                0.01000001               -0.27360399               -0.16511864                0.11178225                0.85304513                0.10255107                0.08603367
               5.00342372                6.00723167               29.02849608                0.01178539               -0.23855500               -0.17287986                0.11755231                0.82941412                0.12863106                0.10860859
               6.00122388                6.01013896               29.02956763                0.01000000               -0.20219220               -0.19775127                0.12405145                0.75106949                0.13685279                0.14917153
               6.99937988                6.01230162               29.03113992                0.01000000               -0.12919774               -0.26626150                0.13111460                0.59462557                0.19300633                0.27048778
               7.99863992                6.01290274               29.03346515                0.01000000               -0.00961239               -0.41027535                0.14198942                0.41312008                0.20388034                0.39007846
               8.99918763                6.01184859               29.03524095                0.01069383                0.07332825               -0.49509997                0.15110121                0.22927792                0.12592644                0.41221356
              10.00010649                6.00896746               29.03589900                0.01000001                0.09188597               -0.35111087                0.15301593                0.09496847                0.07500177                0.39551007
               0.01854253                7.00663571               29.03007098                0.99999999               -0.03166350               -0.03139526                0.10548501                0.00002182               -0.00543046                0.02205250
               1.01822590                7.00352187               29.02909807                1.00000000               -0.03161943               -0.03160188                0.10523190               -0.00016590               -0.00756813               -0.00014216
               2.01791014                7.00040751               29.02808274                0.01000000               -0.19460859               -0.09839325                0.10514986                0.37537713                0.00168442                0.02398806
               3.01433373                7.00062394               29.02729670                0.01000001               -0.31364389               -0.20555316                0.11176350                0.67963768                0.06202986                0.00112053
               4.01163727                7.00261511               29.02785374                0.01176937               -0.27396453               -0.16535089                0.11365551                0.81154344                0.13638918                0.02887268
               5.00885444                7.00566482               29.02883167                0.01000000               -0.28303243               -0.13063320                0.12298100                0.79883623                0.18288451                0.06716189
               6.00597662                7.00835782               29.03061099                0.01000000               -0.27320586               -0.12135095                0.13196659                0.62031909                0.27268570                0.18223336
               7.00339032                7.00980531               29.03366989                0.01000000               -0.21038492               -0.19588885                0.14414707                0.34843732                0.34591557                0.30792038
               8.00176892                7.00899369               29.03713496                0.01089631               -0.07501708               -0.30612400                0.15588334                0.10598854                0.28988753                0.38499357
               9.00188998                7.00736449               29.03920252                0.01000002                0.04080821               -0.43990542                0.16547497               -0.00456865                0.14705681                0.54366585
              10.00258508                7.00626687               29.03978216                0.01378448                0.06951070               -0.30777372                0.16987376               -0.01974513                0.07789674                0.60848419
               0.02165802                8.00632060               29.03008276                1.00000000               -0.03172440               -0.03159167                0.10565922                0.00011595               -0.00102954                0.02272108
               1.02134078                8.00320546               29.02903606                1.00000000               -0.03170953               -0.03170157                0.10567713                0.00006427               -0.00070671                0.00291453
               2.02102383                8.00009125               29.02799687                0.02071590               -0.05299122               -0.03170705                0.10565693                0.03644055                0.00116450               -0.01583617
               3.02028096                7.99770633               29.02699014                0.01256780               -0.19194343               -0.19817565                0.08970540                0.52163936                0.08331609               -0.04635590
               4.01718497                8.00103811               29.02758699                0.01000000               -0.33116098               -0.15273546                0.11814130                0.85873904                0.19646521               -0.03401642
               5.01365774                8.00461901               29.02917361                0.01000001               -0.38475958               -0.02927283                0.12633915                0.70947592                0.30219194                0.07484805
               6.00948977                8.00771194               29.03222639                0.01000000               -0.39724939               -0.00926663                0.14135123                0.45829972                0.39998964                0.17937735
               7.00571275                8.00838384               29.03616859                0.01092294               -0.31446298               -0.07005643                0.15888295                0.15382489                0.43039388                0.23263783
               8.00320051                8.00678026               29.04016223                0.01000002               -0.19448367               -0.15654202                0.17491070               -0.16854029                0.48274830                0.30708005
               9.00182308                8.00305049               29.04541900                0.01418366               -0.06468489               -0.33775386                0.18385715               -0.29587389                0.38033040                0.62897812
              10.00190682                8.00281198               29.04753896                0.01000000                0.00837408               -0.29764162                0.18457484               -0.18288762                0.22472358                0.59403682
               0.02477512                9.00600388               29.03012010                1.00000000               -0.03185967               -0.03178286                0.10616255                0.00010764                0.00219188                0.01903733
               1.02445653                9.00288783               29.02898708                0.99999998               -0.03185174               -0.03183894                0.10616842                0.00004721                0.00100508                0.00220799
               2.02413809                8.99977337               29.02783206                0.99999999               -0.03184318               -0.03186148                0.10620162                0.00004465               -0.00532527               -0.01171934
               3.02381966                8.99666043               29.02657564                0.01382602               -0.11193577               -0.06826915                0.10624388                0.32189832                0.07618318               -0.03030247
               4.02189937                8.99956040               29.02705546                0.01000000               -0.37247700               -0.02460541                0.10972662                0.63466016                0.27049254               -0.03845753
               5.01637012                9.00507937               29.02976719                0.01000000               -0.52607958                0.09378592                0.12826569                0.50493627                0.39694977                0.05618353
               6.01137778                9.00817249               29.03330106                0.01078008               -0.44858147                0.06135581                0.15000198                0.25446581                0.44119635                0.10890772
               7.00739849                9.00840418               29.03733069                0.01000002               -0.38231568                0.01915761                0.17690229                0.04138693                0.50249077                0.09998226
               8.00373147                9.00586285               29.04246253                0.01000003               -0.37288570               -0.02004418                0.19437754               -0.27515859                0.73177323                0.21368647
               8.99994078                9.00060941               29.05152645                0.99999998               -0.21635663               -0.14889690                0.17804050               -0.35646988                0.45670600                0.30736622
               9.99940433                9.00031404               29.05145849                1.00000000               -0.05364442               -0.15203663                0.17981585               -0.13991370                0.00007080                0.19815013
               0.02789227               10.00568494               29.03005883                1.00000000               -0.03200352               -0.03189401                0.10665055                0.00008897                0.01285200                0.01404390
               1.02757223               10.00256868               29.02891308                1.00000000               -0.03200671               -0.03191511                0.10665890                0.00002505                0.01597405                0.00081613
               2.02725213                9.99945403               29.02783221                0.99999999               -0.03201700               -0.03193460                0.10670615                0.00001788                0.01595021               -0.00368528
               3.02693189                9.99634095               29.02668991                0.12445190               -0.28964520               -0.03194798                0.10672322                0.36582177                0.07865223               -0.00415703
               4.02145923               10.00054600               29.02686850                0.01000000               -0.58937582                0.09855978                0.11030035                0.46367467                0.25792899               -0.01738816
               5.01514438               10.00649472               29.02969517                0.01000000               -0.51024773                0.14153592                0.12942115                0.29707831                0.40848704                0.03037265
               6.01125428               10.00893906               29.03347372                0.01000001               -0.31471279                0.07665695                0.15705152                0.10126281                0.44091499                0.06714350
               7.00885012               10.00876699               29.03720225                0.01319394               -0.28810826                0.03628110                0.19127868                0.01717904                0.56867825                0.03323283
               8.00549211               10.00637938               29.04375103                0.01000002               -0.43038158                0.05165274                0.21042323               -0.25865780                0.74636132                0.16051031
               9.00024249               10.00007255               29.05148441                1.00000000               -0.28964137               -0.05368639                0.18006695               -0.30023533                0.38992682               -0.00013993
               9.99969928                9.99977125               29.05141643                1.00000000               -0.05432062               -0.05427892                0.18184229               -0.00063470               -0.00010070                0.00010127
               0.00070493                0.00318321               30.02382774                0.99813433               -0.02391413               -0.02278519                0.07700055                0.00054204               -0.00297777                0.00350073
               1.00046579                0.00194530               30.02397277                1.00000000               -0.02468371               -0.02440161                0.08219086                0.00080318               -0.00325128               -0.00126205
               2.00021126                0.00070186               30.02411091                0.01028783               -0.09225448               -0.02602345                0.08738398                0.14813686                0.03733125               -0.00142258
               2.99862070                0.00239934               30.02507039                0.01000003               -0.28956202                0.18084237                0.11116039                0.06527827                0.19678201               -0.00808942
               3.99442002                0.00693194               30.02634137                0.01000000               -0.49251212                0.18089342                0.06343067                0.21199420                0.19030760               -0.00379674
               4.98877046                0.01405145               30.02876642                0.01000001               -0.60234012                0.15601493                0.03491896                0.42711733                0.29705447               -0.09513043
               5.98237321                0.02361167               30.03124133                0.52390613               -0.33532480               -0.03020880                0.10088071                0.41149326                0.07109424               -0.00111987
               6.98206396                0.02495524               30.03249640                1.00000000               -0.03158366               -0.03153697                0.10530490                0.00066325                0.00834527               -0.00287378
               7.98174154                0.02629865               30.03371208                0.99999998               -0.03288790               -0.03285725                0.10960626                0.00065677                0.00753486               -0.00021337
               8.98140620                0.02764135               30.03494796                1.00000000               -0.03417438               -0.03415072                0.11392789                0.00065653                0.00688252                0.00101965
               9.98105805                0.02898413               30.03614858                1.00000000               -0.03481508               -0.03549870                0.11823490                0.00068964                0.00517357                0.00489321
               0.00194827                1.00295536               30.02355249                0.99069219               -0.02337712               -0.02252199                0.07530892               -0.00024084                0.00148788                0.00403633
               1.00171450                1.00170128               30.02369533                0.01000000               -0.02413322               -0.02419238                0.08050453                0.00001598                0.00343708               -0.00317840
               2.00146560                1.00044163               30.02387677                0.01000000               -0.27780258                0.11224391                0.08570496                0.03139997                0.06696024                0.05683249
               2.99615844                1.00420776               30.02529404                0.01000001               -0.53758505                0.16249412                0.11620157                0.20631342                0.20414019                0.00000037
               3.99071390                1.00874087               30.02637197                0.01000000               -0.57283410                0.14197206                0.09165687                0.36686543                0.13712979                0.02825640
               4.98470176                1.01561160               30.02810883                0.01000000               -0.48388248                0.03937344                0.07255494                0.62065481                0.19301284               -0.05642055
               5.98103625                1.02330958               30.02997932                0.01000001               -0.19873295               -0.19435409                0.10075163                0.51132532                0.03400362               -0.00389648
               6.98072710                1.02463987               30.03117630                0.99999999               -0.03155994               -0.03151088                0.10517174                0.00000695                0.00062367               -0.00312941
               7.98040505                1.02597008               30.03237713                0.99809132               -0.03285368               -0.03284824                0.10948729                0.00000960                0.00113180               -0.00008360
               8.98007003                1.02729984               30.03358301                0.99999999               -0.03414450               -0.03413521                0.11380645               -0.00000741                0.00090649                0.00078004
               9.97972216                1.02862914               30.03477912                1.00000000               -0.03478663               -0.03548187                0.11811509                0.00000147                0.00037923                0.00617979
               0.00320828                2.00273277               30.02328469                0.01000000               -0.02284336                0.01818896                0.07362292               -0.17353545                0.00173733                0.10690788
               1.00297984                2.00146145               30.02338085                0.01000000               -0.24377515                0.08746442                0.07880205               -0.11553343                0.06853321                0.10481549
               1.99833277                2.00294674               30.02481347                0.01000001               -0.42660589                0.18274218                0.10103990                0.00355061                0.10727548                0.09020544
               2.99444772                2.00564922               30.02562152                0.01000000               -0.39896425                0.09244379                0.11320241                0.27192625                0.05380899                0.04696963
               3.99035349                2.00977138               30.02648981                0.01000000               -0.39164421                0.03293172                0.10496353                0.52773019                0.05937594                0.05190177
               4.98661484                2.01483892               30.02755083                0.01000001               -0.33910178               -0.14867296                0.09849312                0.75925448                0.02622729                0.03118731
               5.98357145                2.01972459               30.02865762                0.01140831               -0.36056177               -0.23475272                0.09450501                0.71492018                0.01603603                0.01938913
               6.97940360                2.02432502               30.02984849                0.01000000               -0.22448452               -0.16195824                0.10505062                0.45938766               -0.00401651                0.02790446
               7.97908176                2.02564169               30.03104317                0.01362472               -0.03283061               -0.11472402                0.10941170                0.16018053               -0.00511832                0.04769978
               8.97874699                2.02695864               30.03221260                0.99999997               -0.03411451               -0.03408139                0.11373082                0.00004163               -0.00374844               -0.00131802
               9.97839947                2.02827449               30.03343593                1.00000000               -0.03475210               -0.03545604                0.11798074                0.00001020               -0.00116844                0.00612748
               0.00102021                3.00331914               30.02506447                0.01000000               -0.18303475                0.16960942                0.09558482               -0.07515837                0.00831555                0.21072183
               0.99918986                3.00345057               30.02526578                0.01000001               -0.18356830                0.12868337                0.09536455               -0.10057037                0.01460166                0.18899016
               1.99734884                3.00409647               30.02561741                0.01000000               -0.22087644                0.04107370                0.10055131                0.16120327                0.02592913                0.10311549
               2.99477233                3.00605664               30.02616214                0.01000000               -0.26350168               -0.00299994                0.10563715                0.40694699                0.03247665                0.07747178
               3.99207881                3.00939951               30.02685433                0.01197112               -0.24193461               -0.08707075                0.10446372                0.56862380                0.01913184                0.07062967
               4.98993364                3.01263814               30.02754089                0.01000000               -0.31151260               -0.16454634                0.10205403                0.77293067                0.00826883                0.07149575
               5.98584856                3.01861453               30.02828138                0.01000001               -0.29679400               -0.19865336                0.10159213                0.79507988               -0.01937914                0.10647698
               6.98399776                3.02140070               30.02914824                0.01000001               -0.24367565               -0.27774509                0.08894377                0.69688849               -0.02457053                0.12966892
               7.98097504                3.02367560               30.03066398                0.01256768               -0.32798508               -0.19844041                0.13874964                0.59214198               -0.21757836                0.20790411
               8.97743806                3.02661821               30.03080657                0.01375556               -0.19421897               -0.11655349                0.11368650                0.47247876               -0.05726919                0.08914435
               9.97709066                3.02792002               30.03206796                0.40680563               -0.03473942               -0.35168293                0.11782688                0.46362110               -0.00153841                0.05382642
               0.00144225                4.00612496               30.02681211                0.01000003               -0.12511482                0.25543798                0.11117005                0.07372752               -0.01111954                0.22083337
               1.00019110                4.00403512               30.02671532                0.01000000               -0.12457422                0.01955357                0.10433615                0.19031045               -0.01348646                0.16671222
               1.99895077                4.00376821               30.02663791                0.01000000               -0.14537370               -0.06456658                0.10124366                0.40156365               -0.00086245                0.11475023
               2.99728363                4.00558922               30.02687473                0.01197191               -0.19031527               -0.07113082                0.10295601                0.53618733                0.00792669                0.08026330
               3.99514446                4.00802996               30.02718157                0.01000000               -0.22126003               -0.15894372                0.10503174                0.69052184                0.01289746                0.07604904
               4.99285843                4.01154799               30.02778557                0.01000001               -0.22169871               -0.15002246                0.10727802                0.78352773                0.03245007                0.11125557
               5.99071049                4.01575152               30.02879579                0.01000001               -0.22890621               -0.27842392                0.10872962                0.85607208                0.04812289                0.17369477
               6.98828030                4.01877012               30.03005207                0.01175561               -0.25016969               -0.26668949                0.11576436                0.79303898                0.00137614                0.21510807
               7.98570709                4.02167288               30.03055747                0.01000000               -0.21640796               -0.27462380                0.11023775                0.88236457                0.00283822                0.21462051
               8.98395215                4.02462757               30.03124794                0.01000000               -0.03194123               -0.42862063                0.13408124                0.76514126                0.00017732                0.20603602
               9.98506827                4.02124083               30.03168308                0.01411935                0.11161240               -0.70829701                0.13647385                0.54821185                0.02128632                0.13721681
               0.00667445                5.00842790               30.02869009                0.01000000               -0.13216329                0.05116430                0.10445138                0.28081301               -0.02402693                0.25134967
               1.00535282                5.00384164               30.02821037                0.01000000               -0.14242208               -0.00571583                0.10485163                0.50518199               -0.02626485                0.18926115
               2.00382601                5.00280514               30.02768653                0.01000001               -0.20592436               -0.08238100                0.10338738                0.65030494               -0.02421573                0.10126985
               3.00123433                5.00463402               30.02738167                0.01000000               -0.19477662               -0.18479901                0.10535694                0.77371245                0.00208798                0.07985799
               3.99993047                5.00622063               30.02769127                0.01000001               -0.16758478               -0.17218548                0.10803579                0.80633905                0.05528363                0.09025463
               4.99788263                5.00963769               30.02861300                0.01000001               -0.20913012               -0.19530907                0.11270383                0.87611078                0.09715899                0.14448560
               5.99574787                5.01304605               30.03000563                0.01177042               -0.19727253               -0.25109859                0.11904708                0.84869620                0.08542108                0.17381264
               6.99393718                5.01606691               30.03090005                0.01000000               -0.14914957               -0.28821905                0.12346013                0.81082510                0.07064077                0.21407024
               7.99276488                5.01818312               30.03200601                0.01000001               -0.03821271               -0.40543105                0.13015779                0.74592700                0.10960918                0.31094827
               8.99317293                5.01804580               30.03356139                0.01000000                0.10317465               -0.61417731                0.14911171                0.54370923                0.10126117                0.33030392
               9.99482837                5.01375408               30.03414231                0.01000003                0.16554455               -0.59720489                0.14729802                0.32800607                0.05027985                0.30848950
               0.01623103                6.00714825               30.03109118                0.70097944               -0.03135285               -0.07958599                0.10423496                0.31657239               -0.00355163                0.14143780
               1.01591750                6.00392080               30.03025630                0.01000001               -0.25332744               -0.01183658                0.10460683                0.43818443               -0.04902405                0.10506035
               2.01116448                6.00212059               30.02851046                0.01141231               -0.32875583               -0.12157651                0.10542985                0.64870371               -0.05305384                0.07807830
               3.00934239                6.00189324               30.02810600                0.01000001               -0.24484546               -0.19618396                0.10800781                0.81437587                0.03984823                0.05766622
               4.00626757                6.00458625               30.02842307                0.01000001               -0.28935815               -0.17213178                0.11260108                0.90029938                0.10485491                0.08914752
               5.00355522                6.00764181               30.02968250                0.01177175               -0.25061918               -0.18241826                0.11941265                0.87650276                0.13085629                0.11257555
               6.00125519                6.01072955               30.03081929                0.01000000               -0.20977447               -0.21061885                0.12635515                0.79383777                0.14080270                0.15366043
               6.99935973                6.01300574               30.03246352                0.01000000               -0.13042204               -0.28611692                0.13352297                0.62357024                0.20206462                0.27806794
               7.99864675                6.01356426               30.03490347                0.01000000               -0.00521814               -0.43581022                0.14484763                0.42336891                0.21958864                0.39417347
               8.99925537                6.01234402               30.03677881                0.01067164                0.07825359               -0.51846804                0.15361384                0.22948295                0.13661786                0.40587355
              10.00021182                6.00929674               30.03745333                0.01000000                0.09564497               -0.36273040                0.15567946                0.09259436                0.07966869                0.39271609
               0.01946079                7.00683618               30.03112548                0.99999999               -0.03166350               -0.03135311                0.10536160                0.00003483               -0.00575117                0.02218139
               1.01914416                7.00360491               30.03015131                1.00000000               -0.03165775               -0.03164597                0.10536635               -0.00017425               -0.00777134               -0.00009463
               2.01882764                7.00037361               30.02913642                0.01000000               -0.20439857               -0.10323351                0.10554513                0.39996979                0.00356147                0.02358738
               3.01505619                7.00071034               30.02839016                0.01000001               -0.33198721               -0.20730045                0.10879964                0.71107803                0.06465291                0.00312965
               4.01218789                7.00277800               30.02900934                0.01175948               -0.28933982               -0.17476779                0.11699670                0.84939349                0.13589009                0.03317760
               5.00926939                7.00598933               30.03007350                0.01000000               -0.29635956               -0.13771189                0.12526352                0.84113583                0.18456055                0.06983644
               6.00626070                7.00883367               30.03194450                0.01000000               -0.28477548               -0.12971342                0.13448970                0.65305918                0.27690916                0.18614816
               7.00357388                7.01034457               30.03512399                0.01000000               -0.21833657               -0.20755604                0.14583212                0.36520335                0.35394494                0.31395548
               8.00189397                7.00946692               30.03871159                0.01086600               -0.07718853               -0.31924002                0.15696761                0.10392189                0.29943578                0.39291862
               9.00203011                7.00767644               30.04088006                0.01000002                0.04404333               -0.45916217                0.16788810               -0.01532168                0.15273199                0.55205559
              10.00277484                7.00649947               30.04150288                0.01430686                0.07447278               -0.32016460                0.17240233               -0.02790086                0.07987805                0.61719979
               0.02269427                8.00652119               30.03113960                1.00000000               -0.03176832               -0.03159944                0.10568172                0.00013479               -0.00104359                0.02263580
               1.02237659                8.00328788               30.03009433                1.00000000               -0.03179145               -0.03178480                0.10595257                0.00006168               -0.00072361                0.00292683
               2.02205844                8.00005592               30.02905619                0.01942511               -0.06085140               -0.03186986                0.10618682                0.04611615               -0.00093422               -0.01578509
               3.02115956                7.99774723               30.02800897                0.01257479               -0.20409913               -0.21025818                0.10807230                0.54743106                0.07120258               -0.03183006
               4.01797646                8.00109090               30.02875110                0.01000000               -0.34186500               -0.16233212                0.11755058                0.89782607                0.19965231               -0.03679132
               5.01432226                8.00488757               30.03045472                0.01000001               -0.40076678               -0.03130533                0.12980307                0.74810450                0.30573534                0.07570173
               6.00996112                8.00813528               30.03365576                0.01000000               -0.41458524               -0.01131596                0.14437377                0.48456692                0.40554745                0.18191013
               7.00603056                8.00885462               30.03778735                0.01089165               -0.32839000               -0.07439662                0.16452066                0.16548526                0.43900684                0.24082812
               8.00339332                8.00717946               30.04196518                0.01000002               -0.20570866               -0.16423981                0.18182202               -0.18272389                0.48657654                0.32732774
               9.00191638                8.00316078               30.04729052                0.01430748               -0.06927981               -0.35181018                0.19091601               -0.31575790                0.37723310                0.63040313
              10.00200773                8.00289344               30.04940595                0.01000000                0.00913457               -0.30764118                0.18753980               -0.19227019                0.21850572                0.59369780
               0.02593010                9.00620419               30.03118254                1.00000000               -0.03194466               -0.03182905                0.10631896                0.00012775                0.00220338                0.01911488
               1.02561065                9.00296921               30.03005082                0.99999998               -0.03197461               -0.03196305                0.10657887                0.00004545                0.00103268                0.00224797
               2.02529061                8.99973621               30.02889737                0.99999999               -0.03204095               -0.03206241                0.10686465                0.00004372               -0.00528036               -0.01166659
               3.02496983                8.99650518               30.02764262                0.01393831               -0.11432659               -0.07822560                0.10715787                0.34179486                0.07825274               -0.02816392
               4.02300408                8.99953135               30.02816456                0.01000000               -0.38913698               -0.02694635                0.11404793                0.67104483                0.27960859               -0.04192714
               5.01718709                9.00536322               30.03105779                0.01000000               -0.55095383                0.09868930                0.13204286                0.53334118                0.40842537                0.05551537
               6.01198500                9.00860736               30.03482059                0.01075434               -0.46738418                0.06367392                0.15264523                0.27186723                0.45335813                0.11100830
               7.00783941                9.00885664               30.03917720                0.01000002               -0.40258355                0.01607232                0.18910300                0.04809122                0.51938372                0.10390166
               8.00393333                9.00618212               30.04451570                0.01000003               -0.39192224               -0.02617411                0.23459601               -0.29038535                0.72823577                0.23625973
               9.00000097                9.00064023               30.05330793                0.99999998               -0.22346101               -0.15288656                0.17825978               -0.37258468                0.44227913                0.30191229
               9.99946411                9.00034665               30.05325680                1.00000000               -0.05368585               -0.15446353                0.17984542               -0.14187653                0.00006866                0.19376116
               0.02916679               10.00588460               30.03112671                1.00000000               -0.03213085               -0.03195868                0.10694130                0.00007003                0.01290710                0.01411077
               1.02884548               10.00264862               30.02998230                1.00000000               -0.03217179               -0.03205931                0.10720408               -0.00001404                0.01603805                0.00084976
               2.02852335                9.99941468               30.02890315                0.99999999               -0.03225799               -0.03215363                0.10750484               -0.00002063                0.01600597               -0.00366056
               3.02820032                9.99618272               30.02776227                0.14488205               -0.29920162               -0.03224582                0.10777622                0.37991306                0.08018868               -0.00416698
               4.02253932               10.00055197               30.02797250                0.01000000               -0.61436175                0.10206177                0.10993579                0.48745607                0.26801175               -0.01870294
               5.01591308               10.00686136               30.03099029                0.01000000               -0.53171351                0.14981399                0.13083713                0.31543833                0.42691729                0.03120619
               6.01190505               10.00940876               30.03506904                0.01000001               -0.32477348                0.08014065                0.15911130                0.10773993                0.46612280                0.06893460
               7.00941761               10.00917606               30.03923508                0.01336031               -0.30515100                0.03194200                0.20994412                0.02018090                0.59824833                0.03614825
               8.00580203               10.00665598               30.04604021                0.01000002               -0.45587252                0.04738530                0.28096063               -0.26678071                0.73188176                0.14833480
               9.00030016               10.00010305               30.05328494                1.00000000               -0.30223318               -0.05371831                0.18003959               -0.31267051                0.36465235               -0.00014075
               9.99975736                9.99980417               30.05323379                1.00000000               -0.05427992               -0.05424767                0.18162523               -0.00056207               -0.00009987                0.00010055
               0.00050413                0.00350197               31.02459476                0.99741651               -0.02384240               -0.02262145                0.07639980                0.00068010               -0.00298853                0.00350795
               1.00026570                0.00221854               31.02479530                1.00000000               -0.02471846               -0.02446414                0.08231605                0.00091756               -0.00326006               -0.00126184
               2.00000976                0.00093013               31.02498898                0.01697208               -0.01638255               -0.02631131                0.08823387                0.12017804                0.04562099               -0.00142765
               2.99993805                0.00202176               31.02616998                0.01097812               -0.19942627                0.13429799                0.09340046                0.02285840                0.17316709               -0.02945751
               3.99602123                0.00660271               31.02698771                0.01000000               -0.47641395                0.19665882                0.07051612                0.12134320                0.27607663               -0.03093345
               4.99040977                0.01319823               31.02870663                0.01000001               -0.74117774                0.21676508                0.04301847                0.42882935                0.34846232               -0.04454256
               5.98119768                0.02486305               31.03224613                0.51771493               -0.47596328               -0.02999638                0.10005583                0.51478747                0.12218609               -0.00113307
               6.98089051                0.02624719               31.03354638                0.99964740               -0.03140882               -0.03141959                0.10475152                0.00068665                0.00840758               -0.00287417
               7.98056950                0.02763206               31.03480605                0.99999998               -0.03276488               -0.03278856                0.10921028                0.00068865                0.00753962               -0.00021910
               8.98023521                0.02901705               31.03608602                1.00000000               -0.03409372               -0.03412045                0.11367683                0.00068624                0.00688741                0.00100984
               9.97988763                0.03040307               31.03733051                1.00000000               -0.03475833               -0.03552795                0.11815657                0.00067265                0.00517141                0.00489868
               0.00179436                1.00327575               31.02430340                0.98957744               -0.02335625               -0.02238043                0.07487240               -0.00021164                0.00149508                0.00404711
               1.00156079                1.00197390               31.02450183                0.01000000               -0.02422154               -0.02428540                0.08079391                0.00002288                0.00344758               -0.00318588
               2.00130993                1.00066702               31.02473889                0.01000000               -0.21152228                0.09646522                0.08671968               -0.01095291                0.07039171                0.06396182
               2.99733035                1.00336474               31.02628015                0.01000001               -0.48317472                0.16900201                0.09112057                0.11400910                0.25064464               -0.07272926
               3.99164643                1.00856930               31.02723699                0.01000000               -0.58812272                0.16197292                0.08205822                0.30181407                0.20240698               -0.00335722
               4.98556789                1.01536588               31.02865910                0.01000000               -0.59126797                0.10986776                0.06834866                0.56998608                0.20462248                0.00071985
               5.97982107                1.02456309               31.03098421                0.01000001               -0.30275113               -0.20429194                0.10021598                0.59841496                0.05461006               -0.00578033
               6.97951287                1.02593299               31.03222653                0.99999999               -0.03148092               -0.03143489                0.10489515               -0.00002596                0.00068476               -0.00313735
               7.97919145                1.02730417               31.03347130                0.99879825               -0.03281537               -0.03281120                0.10937495                0.00000954                0.00113268               -0.00006082
               8.97885656                1.02867585               31.03472125                0.99999999               -0.03415600               -0.03413666                0.11384853                0.00000708                0.00091805                0.00079748
               9.97850833                1.03004779               31.03596136                1.00000000               -0.03482305               -0.03556464                0.11833202               -0.00002655                0.00039131                0.00617002
               0.00310360                2.00305436               31.02401955                0.01000000               -0.02287150                0.02118360                0.07334950               -0.17634094                0.00173964                0.11917808
               1.00287489                2.00173283               31.02417113                0.01000000               -0.23518758                0.08391380                0.07925337               -0.13340143                0.07569412                0.11369142
               1.99839985                2.00285944               31.02580235                0.01000001               -0.42794663                0.17306504                0.09338401               -0.02196532                0.13817360                0.08003930
               2.99431596                2.00540180               31.02675221                0.01000000               -0.41717383                0.13658334                0.10228334                0.20812103                0.07489082                0.00845430
               3.99005638                2.00984217               31.02752356                0.01000000               -0.42501280                0.05591093                0.09924900                0.49726323                0.05717050                0.03665408
               4.98581570                2.01539558               31.02851106                0.01000001               -0.37287570               -0.10830199                0.09441682                0.73378825                0.03423161                0.05182054
               5.98259886                2.02077721               31.02962495                0.01141095               -0.38333983               -0.24710223                0.10110338                0.76103209                0.02297640                0.02151321
               6.97814890                2.02561849               31.03089894                0.01000000               -0.23860152               -0.16961709                0.10505996                0.44894666               -0.00203925                0.02317776
               7.97782683                2.02697583               31.03213839                0.14336215               -0.03285882               -0.01650189                0.10953042               -0.02029387               -0.00508949                0.06704490
               8.97749173                2.02833432               31.03335173                0.99999997               -0.03418130               -0.03414323                0.11401913                0.00009214               -0.00375907               -0.00124008
               9.97714321                2.02969178               31.03461823                1.00000000               -0.03485223               -0.03564377                0.11851802               -0.00000465               -0.00120941                0.00607679
               0.00091059                3.00369942               31.02602843                0.01000000               -0.18229101                0.17603956                0.09407016               -0.08684632                0.00831216                0.23995144
               0.99908768                3.00365217               31.02621766                0.01000001               -0.18544736                0.12427828                0.09272419               -0.11353386                0.01996766                0.19940909
               1.99720165                3.00412832               31.02661442                0.01000000               -0.22888217                0.04906702                0.09602238                0.14652035                0.03760271                0.08978884
               2.99451004                3.00609641               31.02720831                0.01000000               -0.28018658                0.01679108                0.10045515                0.41733707                0.04002552                0.05521730
               3.99159791                3.00968752               31.02789636                0.01197068               -0.26007143               -0.07546188                0.10198783                0.59333739                0.02137538                0.05929869
               4.98930861                3.01319984               31.02856727                0.01000000               -0.33895543               -0.16473698                0.10300973                0.82433807                0.01026864                0.07191622
               5.98481881                3.01962104               31.02933463                0.01000001               -0.35077134               -0.20822727                0.11066926                0.83874570               -0.01957072                0.11245696
               6.98229318                3.02254065               31.03010448                0.01000001               -0.43745314               -0.27205251                0.11592775                0.82572684               -0.01088989                0.13864450
               7.97606974                3.02697413               31.03214634                0.01257895               -0.30753629               -0.17916441                0.05876574                0.65404580               -0.19771114                0.19022182
               8.97614246                3.02799299               31.03194717                0.01000002               -0.01382113               -0.18484078                0.11418979                0.42986841               -0.07653116                0.09922489
               9.97579332                3.02933492               31.03324996                0.41204247               -0.03491381               -0.44367238                0.11869832                0.54569009               -0.00168723                0.07523079
               0.00146118                4.00657515               31.02798498                0.01048025               -0.12858679                0.25514999                0.12185359                0.06381448               -0.01576652                0.24300557
               1.00017531                4.00421839               31.02777789                0.01000000               -0.12875791                0.01530932                0.10729701                0.18895528               -0.01164704                0.16814266
               1.99888602                4.00384078               31.02764165                0.01000000               -0.15359044               -0.06308756                0.09757174                0.41636040                0.00338105                0.10932411
               2.99710351                4.00573762               31.02790030                0.01197144               -0.20331648               -0.06506029                0.10078491                0.56192951                0.01300855                0.07259643
               3.99481969                4.00833293               31.02823232                0.01000000               -0.23672859               -0.16032210                0.10393981                0.73151455                0.01651867                0.07115750
               4.99236893                4.01210084               31.02886625                0.01000001               -0.23933644               -0.15423184                0.10813377                0.83299703                0.03648644                0.11136943
               5.99003297                4.01661267               31.02991150                0.01000001               -0.25292907               -0.29277239                0.11468103                0.93521653                0.05401050                0.17798417
               6.98731035                4.02017744               31.03122369                0.01174898               -0.22887768               -0.27700753                0.11663400                0.90803576                0.00811582                0.22329925
               7.98545541                4.02339255               31.03167888                0.01000000               -0.17910202               -0.39509810                0.12379205                1.04873304                0.01997673                0.22010670
               8.98372831                4.02463751               31.03258817                0.01000000               -0.00411356               -0.48256443                0.12393026                0.72706946                0.08148372                0.14803222
               9.98537314                4.02081833               31.03329472                0.01000001                0.16448289               -0.78231441                0.14156891                0.56677721                0.13331934                0.02934520
               0.00690039                5.00880242               31.02973110                0.01000001               -0.12992324                0.03833597                0.10082868                0.29396582               -0.02972503                0.24347291
               1.00560116                5.00395836               31.02926350                0.01000000               -0.14453824               -0.01103140                0.10264416                0.53024853               -0.02435587                0.18664191
               2.00400963                5.00286657               31.02871580                0.01000001               -0.21723393               -0.08349919                0.10158065                0.68292063               -0.02135596                0.10113407
               3.00125648                5.00479520               31.02843269                0.01000000               -0.20723199               -0.18877004                0.10377741                0.81455790                0.00583249                0.07816428
               3.99986499                5.00648107               31.02877126                0.01000001               -0.17838335               -0.17614587                0.10719440                0.85079389                0.05960299                0.08981474
               4.99768881                5.01011520               31.02974746                0.01000001               -0.22092229               -0.20390813                0.11362110                0.92801103                0.10265617                0.14640807
               5.99544654                5.01376560               31.03120540                0.01175972               -0.20073949               -0.26696860                0.12041881                0.90556239                0.09234962                0.17606049
               6.99367402                5.01700050               31.03216254                0.01000000               -0.14311017               -0.32692002                0.12850123                0.86666059                0.07919530                0.21750040
               7.99258434                5.01907217               31.03333341                0.01000001               -0.02079814               -0.46559557                0.13490605                0.73010968                0.13471299                0.31377907
               8.99325806                5.01834170               31.03506722                0.01000000                0.10914365               -0.59950551                0.14036492                0.51291330                0.12454227                0.30358184
               9.99476721                5.01368863               31.03560022                0.01027022                0.15091498               -0.56785613                0.13965005                0.28357700                0.04747103                0.27366273
               0.01702863                6.00734187               31.03213168                0.68349818               -0.03124917               -0.08857476                0.10377480                0.33936349               -0.00353496                0.14132090
               1.01671614                6.00399777               31.03130177                0.01000001               -0.26605182               -0.01382067                0.10440422                0.46436500               -0.04886458                0.10438727
               2.01170759                6.00217080               31.02956270                0.01141496               -0.34679882               -0.12665164                0.10470576                0.68486730               -0.05186461                0.07812750
               3.00978016                6.00196222               31.02918112                0.01000001               -0.25960098               -0.20058209                0.10670937                0.85683042                0.04324885                0.05759728
               4.00651557                6.00481001               31.02955090                0.01000001               -0.30677650               -0.17652205                0.11255680                0.94336036                0.10933820                0.09217994
               5.00364463                6.00802268               31.03088433                0.01176141               -0.26283284               -0.19129346                0.12058347                0.91924786                0.13485523                0.11543787
               6.00125892                6.01127330               31.03209473                0.01000000               -0.21538211               -0.22606426                0.12821045                0.83170650                0.14515138                0.15587622
               6.99933699                6.01363904               31.03381038                0.01000001               -0.12712543               -0.31199540                0.13566284                0.64177192                0.21095676                0.27909700
               7.99871641                6.01408063               31.03636210                0.01000000                0.00165655               -0.46409083                0.14434988                0.42127892                0.23163064                0.39225061
               8.99937012                6.01264740               31.03831323                0.01065494                0.08172027               -0.52239064                0.15073210                0.21379224                0.14417969                0.40001951
              10.00035081                6.00946121               31.03901259                0.01000000                0.09806932               -0.35151885                0.15293013                0.08987165                0.08396574                0.39385201
               0.02037586                7.00703093               31.03217821                0.99999999               -0.03163316               -0.03128048                0.10513526                0.00005472               -0.00606123                0.02233233
               1.02005953                7.00368194               31.03120540                1.00000000               -0.03166730               -0.03166436                0.10540920               -0.00019038               -0.00796486               -0.00001867
               2.01974252                7.00033354               31.03019365                0.01000000               -0.21528299               -0.10780961                0.10586216                0.42422660                0.00458693                0.02349268
               3.01575387                7.00078356               31.02947269                0.01000001               -0.35353904               -0.20724757                0.10935989                0.74235148                0.06855604                0.00390385
               4.01267174                7.00295063               31.03019368                0.01175275               -0.30716930               -0.18314763                0.11946817                0.88612305                0.14091819                0.03635603
               5.00961049                7.00628933               31.03133694                0.01000000               -0.31037120               -0.14369649                0.12740064                0.87584177                0.18613928                0.07422164
               6.00646431                7.00924431               31.03330079                0.01000001               -0.29541806               -0.13996213                0.13686801                0.67402198                0.27796089                0.18803550
               7.00370212                7.01076059               31.03658654                0.01000000               -0.22313768               -0.22459240                0.14701935                0.36962606                0.35804949                0.31578245
               8.00200156                7.00979036               31.04027431                0.01084095               -0.07743979               -0.32789645                0.15871239                0.09228763                0.30715891                0.39652112
               9.00215333                7.00789388               31.04256028                0.01000002                0.04677273               -0.47083590                0.16691170               -0.02876282                0.16025832                0.56258238
              10.00293701                7.00665825               31.04323021                0.01487480                0.07836845               -0.32645936                0.17159867               -0.03879951                0.08231271                0.62763545
               0.02372769                8.00671626               31.03219639                1.00000000               -0.03179704               -0.03159333                0.10565205                0.00015971               -0.00105757                0.02255282
               1.02340972                8.00336448               31.03115512                1.00000000               -0.03185906               -0.03185599                0.10618411                0.00005781               -0.00074117                0.00294058
               2.02309051                8.00001460               31.03012061                0.01810198               -0.06998118               -0.03202296                0.10668120                0.05754788                0.00276871               -0.01573862
               3.02201010                7.99781727               31.02915159                0.01258547               -0.21791234               -0.22198540                0.11754068                0.57480591                0.08188617               -0.04103630
               4.01873226                8.00114706               31.02993800                0.01000000               -0.35711545               -0.17250898                0.12352273                0.93680609                0.20227476               -0.03233318
               5.01486779                8.00514875               31.03176967                0.01000001               -0.42320823               -0.03176170                0.13393258                0.77995551                0.30588432                0.08176818
               6.01026810                8.00847405               31.03511387                0.01000000               -0.43421606               -0.01324725                0.14840265                0.49298309                0.40167621                0.18397104
               7.00618347                8.00914719               31.03945900                0.01086599               -0.34196154               -0.08630571                0.17484832                0.17187871                0.42864847                0.23420698
               8.00342887                8.00752271               31.04379867                0.01000002               -0.21282503               -0.16386699                0.17388344               -0.18763130                0.49105424                0.35155490
               9.00192696                8.00323068               31.04923732                0.01445671               -0.06913919               -0.36203210                0.19655422               -0.33493704                0.37322827                0.63142814
              10.00204608                8.00293202               31.05128976                0.01000000                0.01191176               -0.31484180                0.18776865               -0.20131695                0.20754234                0.59348615
               0.02708261                9.00639906               31.03224648                1.00000000               -0.03202714               -0.03187289                0.10646317                0.00015392                0.00221420                0.01918693
               1.02676234                9.00304482               31.03111866                0.99999998               -0.03209654               -0.03208747                0.10698656                0.00004292                0.00105825                0.00228476
               2.02644068                8.99969308               31.02996935                0.99999999               -0.03224049               -0.03226688                0.10753343                0.00004020               -0.00523977               -0.01161803
               3.02611753                8.99634385               31.02871880                0.01406882               -0.11821523               -0.08994768                0.10808485                0.36317944                0.08286706               -0.03183624
               4.02407638                8.99950045               31.02933641                0.01000000               -0.41174659               -0.02955068                0.12512902                0.70847106                0.29366849               -0.04066171
               5.01788260                9.00565410               31.03240804                0.01000000               -0.58754225                0.10525414                0.14433009                0.55986561                0.40468174                0.06284412
               6.01232553                9.00897937               31.03635397                0.01073474               -0.48957766                0.06733913                0.16002539                0.27221124                0.44743347                0.11242527
               7.00809105                9.00903448               31.04111275                0.01000002               -0.40800443                0.01134972                0.18603649                0.05970528                0.51873391                0.10233079
               8.00416544                9.00651302               31.04715445                0.01000004               -0.40228893               -0.06128162                0.35114548               -0.28651062                0.63180297                0.22159490
               9.00004527                9.00065324               31.05509165                0.99999998               -0.23287312               -0.15574775                0.17848748               -0.38683073                0.39878251                0.29293097
               9.99950798                9.00036142               31.05505540                1.00000000               -0.05372867               -0.15563777                0.17987533               -0.14150777                0.00006624                0.18867167
               0.03043924               10.00607880               31.03219765                1.00000000               -0.03226810               -0.03202609                0.10726013                0.00005573                0.01296001                0.01417338
               1.03011656               10.00272273               31.03105716                1.00000000               -0.03234781               -0.03220943                0.10778626               -0.00005499                0.01610052                0.00088101
               2.02979228                9.99936927               31.02998231                0.99999999               -0.03251249               -0.03238135                0.10834899               -0.00006047                0.01606177               -0.00363780
               3.02946631                9.99601832               31.02884543                0.16532547               -0.31004238               -0.03255352                0.10888410                0.39421679                0.08059294               -0.00417834
               4.02359144               10.00055605               31.02906722                0.01000000               -0.64400624                0.10555930                0.10813607                0.51328168                0.27709302               -0.01820690
               5.01658619               10.00725383               31.03231191                0.01000000               -0.56297467                0.15997348                0.14245067                0.33359798                0.42836729                0.03853861
               6.01233194               10.00982084               31.03665595                0.01000001               -0.33711318                0.08414702                0.16311193                0.10665863                0.47461279                0.07277436
               7.00984392               10.00937418               31.04140113                0.01354658               -0.31260277                0.03397084                0.20847725               -0.00090081                0.63499396                0.04498312
               8.00607989               10.00629707               31.04937024                0.01000002               -0.47509866               -0.02159435                0.40813011               -0.27147873                0.62179880                0.14268110
               9.00034195               10.00011572               31.05508520                1.00000000               -0.31401565               -0.05375192                0.18001148               -0.29422228                0.28741876               -0.00014114
               9.99979958                9.99981927               31.05504894                1.00000000               -0.05423730               -0.05421498                0.18139986               -0.00048616               -0.00009959                0.00009957
               0.00024406                0.00383608               32.02535574                0.99670118               -0.02376997               -0.02245701                0.07579466                0.00081767               -0.00299977                0.00351650
               1.00000636                0.00250700               32.02561909                1.00000000               -0.02475278               -0.02452613                0.08243978                0.00103173               -0.00326910               -0.00126239
               1.99974900                0.00117350               32.02587558                0.02380305                0.00394767               -0.02660018                0.08908748                0.08875407                0.03656350               -0.00143195
               3.00008531                0.00158985               32.02693839                0.01195849               -0.11720540                0.05810981                0.08043474                0.09085142                0.07987212               -0.02217812
               3.99740490                0.00581470               32.02775169                0.01000000               -0.48020147                0.23231770                0.08742920                0.08110967                0.23237309               -0.04249067
               4.99048128                0.01325566               32.02962679                0.01000001               -0.87138582                0.25659053                0.10317035                0.47147864                0.27428689               -0.00563868
               5.97997718                0.02611285               32.03324245                0.51131918               -0.54045458               -0.02976939                0.09920149                0.57247546                0.12383887               -0.00111059
               6.97967219                0.02753747               32.03459143                0.99986369               -0.03122409               -0.03129085                0.10416165                0.00069854                0.00852517               -0.00291817
               7.97935270                0.02896378               32.03589629                0.99999998               -0.03263499               -0.03272510                0.10878775                0.00070859                0.00750321               -0.00022715
               8.97901949                0.03039107               32.03722149                1.00000000               -0.03400988               -0.03409984                0.11341946                0.00071423                0.00688231                0.00102117
               9.97867250                0.03182040               32.03851171                1.00000000               -0.03469924               -0.03555781                0.11807212                0.00065933                0.00519126                0.00491967
               0.00158131                1.00361151               32.02504994                0.98846589               -0.02333447               -0.02223822                0.07443275               -0.00018330                0.00150250                0.00405938
               1.00134796                1.00226174               32.02531121                0.01000000               -0.02430932               -0.02437751                0.08108130                0.00002819                0.00345798               -0.00319538
               2.00109512                1.00090750               32.02561116                0.01000000               -0.13373677                0.07492454                0.08773678               -0.06623198                0.06546109                0.06499891
               2.99867323                1.00217095               32.02711645                0.01000001               -0.43560171                0.16501511                0.08048902                0.06846944                0.21677992               -0.06159151
               3.99238309                1.00813788               32.02801314                0.01000000               -0.68131166                0.20151984                0.08406864                0.29918808                0.17013773               -0.00891563
               4.98504700                1.01582156               32.02947580                0.01000000               -0.69110303                0.13557516                0.09218232                0.61970372                0.14363285                0.03913372
               5.97856103                1.02581515               32.03198364                0.01000001               -0.33966413               -0.21542049                0.09966891                0.65344598                0.06158581               -0.00315459
               6.97825371                1.02722456               32.03327420                1.00000000               -0.03140232               -0.03134220                0.10461083               -0.00007177                0.00081902               -0.00313976
               7.97793298                1.02863653               32.03456463                0.99959134               -0.03276939               -0.03281156                0.10925852                0.00000012                0.00112058               -0.00009946
               8.97759833                1.03005007               32.03585998                0.99999999               -0.03416053               -0.03415760                0.11388906                0.00003819                0.00090289                0.00077861
               9.97724977                1.03146482               32.03714576                1.00000000               -0.03485548               -0.03564830                0.11855185               -0.00003683                0.00038618                0.00622076
               0.00293992                2.00339131               32.02475168                0.01000001               -0.02289921                0.02706178                0.07307649               -0.17585179                0.00174337                0.12917939
               1.00271093                2.00201945               32.02496591                0.01000000               -0.22123804                0.07851201                0.07970325               -0.15320317                0.07676506                0.11979347
               1.99851516                2.00267199               32.02668115                0.01000001               -0.42433017                0.15727226                0.08411884               -0.05570896                0.13965228                0.08180723
               2.99422433                2.00489015               32.02766719                0.01000000               -0.43885594                0.19209758                0.08535407                0.13953890                0.07865909                0.00688484
               3.98973804                2.00984510               32.02847479                0.01000000               -0.45131231                0.08694237                0.09225833                0.49206354                0.05103729                0.04353699
               4.98519808                2.01596716               32.02943917                0.01000001               -0.40474709               -0.10501428                0.09564169                0.78065450                0.04238835                0.06552024
               5.98164310                2.02180444               32.03067968                0.01141337               -0.41743474               -0.26190150                0.10695777                0.81511874                0.02924457                0.02961667
               6.97684939                2.02691062               32.03194969                0.01000000               -0.25579574               -0.16878573                0.10511184                0.46088239               -0.00454011                0.03861236
               7.97652719                2.02830755               32.03323378                0.14731485               -0.03287102               -0.03484937                0.10962506                0.00212211               -0.00511975               -0.00324606
               8.97619196                2.02970792               32.03449298                0.99999996               -0.03424541               -0.03419015                0.11428470                0.00026847               -0.00373927               -0.00133340
               9.97584228                2.03110743               32.03580629                1.00000000               -0.03496874               -0.03583344                0.11908010                0.00002931               -0.00116402                0.00618143
               0.00080799                3.00415274               32.02694587                0.01000000               -0.18047705                0.19455438                0.08804393               -0.10201733                0.00669074                0.27168198
               0.99900322                3.00383198               32.02712027                0.01000001               -0.18488716                0.11663362                0.08682757               -0.12546164                0.02039832                0.21087411
               1.99711025                3.00405294               32.02753786                0.01000000               -0.23561581                0.05906623                0.08850259                0.12808695                0.04456867                0.08728849
               2.99429090                3.00601290               32.02817124                0.01000000               -0.29814486                0.04633121                0.09189549                0.42762927                0.04521820                0.05236244
               3.99114735                3.00987672               32.02889409                0.01197024               -0.27950802               -0.06334419                0.09714731                0.62396073                0.02622214                0.05830290
               4.98870074                3.01372128               32.02960108                0.01000000               -0.36137063               -0.16859846                0.10261643                0.87056487                0.02048472                0.07655626
               5.98391994                3.02057712               32.03049476                0.01000001               -0.38662450               -0.21820002                0.11393490                0.89588650                0.01189329                0.11787607
               6.98096825                3.02384885               32.03146680                0.01000001               -0.43709051               -0.28662907                0.14594959                0.85941318               -0.01912937                0.12997181
               7.97517813                3.02793954               32.03183929                0.01259362               -0.30822212               -0.17098044               -0.03220766                0.68661975               -0.05037089                0.12730502
               8.97480381                3.02936627               32.03309037                0.01000001               -0.03633939               -0.26198754                0.11463226                0.52913140               -0.00636860                0.09868330
               9.97445134                3.03074815               32.03444193                0.42711532               -0.03524718               -0.58149783                0.11963838                0.66215113               -0.00158116                0.07656816
               0.00154109                4.00728240               32.02924918                0.01178131               -0.12396007                0.24989603                0.12026498                0.01733056               -0.02783597                0.25853993
               1.00030149                4.00435212               32.02886126                0.01000000               -0.13225544                0.01093107                0.10451540                0.17243494               -0.01312819                0.16734317
               1.99889598                4.00385332               32.02858934                0.01000000               -0.16741798               -0.05730886                0.09307901                0.42920534                0.00547225                0.10870412
               2.99695313                4.00581677               32.02889043                0.01197123               -0.21935534               -0.05482030                0.09702771                0.58647550                0.01959351                0.07124598
               3.99450888                4.00857821               32.02926036                0.01000000               -0.25220785               -0.15891893                0.10115926                0.77194110                0.02240179                0.07068729
               4.99190898                4.01259519               32.02994825                0.01000001               -0.25378089               -0.15867495                0.10681158                0.88315514                0.04694353                0.11254133
               5.98943326                4.01744044               32.03108941                0.01000001               -0.26168710               -0.30965494                0.11774228                0.99213546                0.06994857                0.17226769
               6.98667523                4.02117804               32.03238475                0.01174435               -0.23455532               -0.30093044                0.11386890                0.99361599                0.03898748                0.19005813
               7.98474215                4.02488794               32.03303331                0.01000000               -0.13546261               -0.40820239                0.14512360                1.03332315                0.01244820                0.24758245
               8.98396598                4.02446817               32.03372654                0.01000000                0.07896955               -0.54869503                0.11212289                0.65913440                0.05815192                0.20474242
               9.98632154                4.01947747               32.03451446                0.01000000                0.23555626               -0.86193420                0.13752180                0.51395215                0.10513952                0.09884642
               0.00701515                5.00915066               32.03070667                0.01000001               -0.11341484                0.01225798                0.09499604                0.30394689               -0.02685712                0.22520749
               1.00588100                5.00405060               32.03026325                0.01000000               -0.13927216               -0.01427384                0.09513103                0.54818994               -0.01822785                0.18357613
               2.00422971                5.00290677               32.02971814                0.01000001               -0.22927407               -0.08240095                0.09820946                0.71088739               -0.01594619                0.10301842
               3.00129552                5.00491649               32.02945722                0.01000000               -0.22109749               -0.19057967                0.10117901                0.85288062                0.01065223                0.07844273
               3.99980776                5.00669834               32.02983516                0.01000001               -0.18969494               -0.17853878                0.10534767                0.89367646                0.06601841                0.09125283
               4.99750162                5.01054778               32.03088542                0.01000001               -0.23139813               -0.21170464                0.11303355                0.97425986                0.11120238                0.14838975
               5.99517979                5.01438403               32.03241400                0.01175181               -0.20542732               -0.28443762                0.11994279                0.95406862                0.10296119                0.17299413
               6.99339307                5.01783024               32.03347008                0.01000000               -0.13126652               -0.35071827                0.12990195                0.90138680                0.08769150                0.21092959
               7.99255446                5.01977549               32.03470413                0.01000001                0.00019445               -0.52097811                0.13299770                0.72982450                0.13003609                0.30344782
               8.99339696                5.01839237               32.03636869                0.01000000                0.10786566               -0.58084113                0.12671797                0.46282314                0.11339759                0.32957446
               9.99471178                5.01350947               32.03693531                0.01061831                0.13148130               -0.49668387                0.12964898                0.22025257                0.05497145                0.30340171
               0.01782015                6.00752756               32.03316668                0.66590381               -0.03109629               -0.09662741                0.10316360                0.36741110               -0.00350815                0.14413846
               1.01750919                6.00406665               32.03234439                0.01000001               -0.27861517               -0.01497069                0.10405624                0.48830816               -0.04922301                0.10618578
               2.01224784                6.00220530               32.03060458                0.01141680               -0.36450085               -0.13106057                0.10348415                0.71804542               -0.05098326                0.07918479
               3.01021917                6.00200518               32.03024019                0.01000001               -0.27483616               -0.20492704                0.10476597                0.89669485                0.04710599                0.05809205
               4.00675112                6.00500744               32.03067421                0.01000001               -0.32553380               -0.17901631                0.11159972                0.98450883                0.11672446                0.09631140
               5.00370849                6.00836110               32.03209417                0.01175305               -0.27594747               -0.19796762                0.12077991                0.95638467                0.14141077                0.11958517
               6.00123217                6.01175169               32.03338349                0.01000000               -0.21984939               -0.24043856                0.12844520                0.85965546                0.15088678                0.15850342
               6.99931150                6.01416368               32.03517678                0.01000001               -0.12278317               -0.34093203                0.13578027                0.65424834                0.21526638                0.27897209
               7.99877651                6.01446838               32.03779046                0.01000000                0.00884829               -0.49073605                0.14223479                0.40983055                0.23343037                0.39732822
               8.99948847                6.01285135               32.03979345                0.01064435                0.08579496               -0.51941908                0.14592028                0.19789196                0.14495190                0.41503718
              10.00049241                6.00954380               32.04051194                0.01000000                0.10039374               -0.33672217                0.14951756                0.08771838                0.08385626                0.41171030
               0.02128519                7.00721811               32.03322819                0.99999999               -0.03157669               -0.03117917                0.10481929                0.00008378               -0.00636100                0.02252562
               1.02096942                7.00375119               32.03225949                0.99987360               -0.03165543               -0.03166076                0.10538029               -0.00020984               -0.00815263                0.00010547
               2.02065208                7.00028556               32.03125367                0.01000000               -0.22710731               -0.11199235                0.10612849                0.44681311                0.00644717                0.02395662
               3.01642728                7.00081795               32.03057736                0.01000001               -0.37550334               -0.21623895                0.10950923                0.77965962                0.07714528                0.00751376
               4.01314202                7.00311802               32.03139870                0.01174787               -0.32711065               -0.18529692                0.12048899                0.92116137                0.14950778                0.04386463
               5.00988506                7.00658842               32.03262151                0.01000000               -0.32858469               -0.14546331                0.12809425                0.90064113                0.19167392                0.08274947
               6.00657032                7.00957525               32.03468186                0.01000001               -0.30618570               -0.14950784                0.13836664                0.67481556                0.28046043                0.19517763
               7.00376135                7.01101160               32.03806437                0.01000000               -0.22534591               -0.25755694                0.15088269                0.34963651                0.36259970                0.32832378
               8.00206340                7.00996077               32.04188584                0.01082321               -0.07409849               -0.35689783                0.16049552                0.08259873                0.31165778                0.39704164
               9.00227938                7.00800399               32.04421830                0.01000002                0.05089216               -0.47966856                0.16555346               -0.03921768                0.16381754                0.58129709
              10.00308125                7.00677502               32.04493485                0.01548844                0.08018658               -0.33029114                0.16886487               -0.04483142                0.08542242                0.64392026
               0.02475567                8.00690397               32.03325264                1.00000000               -0.03181265               -0.03157230                0.10557266                0.00018740               -0.00107395                0.02247317
               1.02443755                8.00343343               32.03221801                0.99999999               -0.03191629               -0.03191643                0.10637921                0.00004997               -0.00076303                0.00295892
               2.02411735                7.99996545               32.03118981                0.01913120               -0.07288237               -0.03217007                0.10715001                0.05902775                0.00937549               -0.01569221
               3.02297990                7.99768040               32.03035978                0.01259997               -0.23567356               -0.23216712                0.12489433                0.60844395                0.09184589               -0.04809153
               4.01940388                8.00130150               32.03122155                0.01000000               -0.38579096               -0.17645596                0.12897927                0.99088091                0.20966813               -0.01564774
               5.01526408                8.00545183               32.03313337                0.01000001               -0.45492818               -0.02552842                0.13624648                0.79190724                0.30313770                0.10599867
               6.01030531                8.00876153               32.03662381                0.01000000               -0.46726799               -0.01307391                0.15493707                0.46096729                0.40311388                0.19750827
               7.00591872                8.00901254               32.04128431                0.01084682               -0.34346109               -0.10252304                0.18362202                0.11105734                0.41057426                0.22703373
               8.00343609                8.00733042               32.04544284                0.01000002               -0.20144273               -0.24591577                0.18396476               -0.26137374                0.49422264                0.45484942
               9.00188986                8.00325798               32.05122161                0.01463261               -0.06911874               -0.36765046                0.19575535               -0.32980805                0.38196845                0.63359582
              10.00205371                8.00293797               32.05316132                0.01000000                0.01638499               -0.32070610                0.18681900               -0.20916596                0.19472800                0.59577675
               0.02823002                9.00658667               32.03331180                1.00000000               -0.03210754               -0.03191289                0.10659580                0.00018419                0.00222438                0.01925217
               1.02790895                9.00311286               32.03219055                0.99999998               -0.03221765               -0.03221016                0.10739005                0.00003875                0.00108154                0.00231861
               2.02758567                8.99964215               32.03104804                0.99999999               -0.03244185               -0.03247256                0.10820677                0.00003569               -0.00520446               -0.01157214
               3.02726011                8.99617461               32.02980432                0.01421724               -0.11987328               -0.09172564                0.10902961                0.38470569                0.09481846               -0.03842421
               4.02518820                8.99958890               32.03066714                0.01000000               -0.44984656               -0.02876352                0.14084830                0.75570356                0.25302369               -0.00739345
               5.01826318                9.00607786               32.03394439                0.01000000               -0.64796223                0.11862796                0.15832729                0.56762464                0.37499254                0.09113895
               6.01222896                9.00931378               32.03802109                0.01072135               -0.54247856                0.07493754                0.16931675                0.24430284                0.42495865                0.12168812
               7.00741361                9.00896114               32.04289793                0.01000002               -0.48192343                0.02432174                0.19972876               -0.03934187                0.59311760                0.09432987
               8.00259049                9.00504245               32.05153861                0.01855919               -0.36689713               -0.11262012                0.35104186               -0.35961552                0.54348976                0.30707495
               9.00007566                9.00065098               32.05687768                0.99999998               -0.15262783               -0.15724220                0.17872452               -0.31007912                0.26823337                0.28232244
               9.99953793                9.00036090               32.05685430                1.00000000               -0.05377309               -0.15594439                0.17990595               -0.14029941                0.00006518                0.18433953
               0.03170697               10.00626572               32.03327192                1.00000000               -0.03241360               -0.03209503                0.10760369                0.00004601                0.01300841                0.01423050
               1.03138283               10.00278923               32.03213802                1.00000000               -0.03253280               -0.03236309                0.10840092               -0.00009719                0.01615934                0.00090889
               2.03105631                9.99931600               32.03107013                0.99999999               -0.03277829               -0.03261549                0.10923355               -0.00010265                0.01611818               -0.00361816
               3.03072727                9.99584589               32.02993995                0.18573788               -0.32208075               -0.03287195                0.11004045                0.41722718                0.07896566               -0.00419141
               4.02461470               10.00072623               32.03013522                0.01000000               -0.69177862                0.11373281                0.13761106                0.54157458                0.20956825                0.02116566
               5.01689170               10.00782439               32.03383931                0.01000003               -0.61533047                0.17465344                0.15592844                0.33955426                0.40961576                0.04999099
               6.01230809               10.01026028               32.03833128                0.01000001               -0.37442457                0.09465030                0.17051589                0.09164218                0.46145668                0.07683501
               7.00940320               10.00949897               32.04340463                0.01375343               -0.38770774                0.05378386                0.21437121               -0.06015351                0.73211118                0.06838660
               8.00455393               10.00507802               32.05420281                0.01000002               -0.45166833                0.00355614                0.33898982               -0.27294766                0.51707977                0.13671197
               9.00036984               10.00011313               32.05688517                1.00000000               -0.23630234               -0.05378476                0.17998436               -0.23352927                0.13514250               -0.00014544
               9.99982789                9.99981909               32.05686179                1.00000000               -0.05419497               -0.05418144                0.18116383               -0.00040933               -0.00009942                0.00010126
              -0.00008257                0.00418390               33.02611065                0.99598917               -0.02369569               -0.02229058                0.07518703                0.00095618               -0.00301426                0.00352843
               0.99968048                0.00280904               33.02644410                1.00000000               -0.02478561               -0.02458783                0.08256213                0.00114690               -0.00327996               -0.00126518
               1.99942172                0.00143034               33.02677073                0.03067799               -0.00105440               -0.02689045                0.08994012                0.05987038                0.03030785               -0.00143550
               2.99965939                0.00122208               33.02777867                0.01290174               -0.07207111                0.01820415                0.08631893                0.15044143                0.04917598               -0.01697025
               3.99798030                0.00523000               33.02873629                0.01000000               -0.46273175                0.24378875                0.10349776                0.07922127                0.18969661               -0.02679004
               4.99040475                0.01338743               33.03077004                0.01000000               -0.96352412                0.29487491                0.12399474                0.51295333                0.25027708               -0.00787019
               5.97870982                0.02735846               33.03423016                0.50442733               -0.59987928               -0.02957026                0.09836543                0.62624997                0.11383867               -0.00109237
               6.97840717                0.02882328               33.03562962                1.00000000               -0.03101579               -0.03113473                0.10347743                0.00072729                0.00867403               -0.00291140
               7.97808950                0.03029083               33.03698180                0.99999998               -0.03248651               -0.03261377                0.10830644                0.00071955                0.00751306               -0.00022779
               8.97775744                0.03176050               33.03835441                1.00000000               -0.03392387               -0.03405630                0.11315125                0.00073118                0.00690053                0.00101224
               9.97741102                0.03323335               33.03969195                1.00000000               -0.03464145               -0.03557246                0.11797056                0.00063222                0.00521092                0.00495946
               0.00130185                1.00396099               33.02579206                0.98735605               -0.02331274               -0.02209470                0.07398920               -0.00015433                0.00150928                0.00407546
               1.00106873                1.00256316               33.02612346                0.01000000               -0.02439747               -0.02446974                0.08136684                0.00003424                0.00347049               -0.00320984
               2.00081390                1.00116143               33.02649362                0.01000000               -0.09023778                0.05692749                0.08876149               -0.10445672                0.05651382                0.06168525
               2.99926397                1.00140412               33.02788993                0.01000001               -0.40620339                0.16313153                0.07928419                0.04712840                0.15530689               -0.02339975
               3.99268984                1.00766789               33.02891837                0.01000000               -0.73969590                0.23009796                0.08958342                0.31284495                0.14972077               -0.00886127
               4.98447005                1.01633618               33.03050275                0.01000000               -0.77177235                0.15966417                0.10995691                0.67243481                0.13267990                0.03736639
               5.97725439                1.02706276               33.03297759                0.01000001               -0.37608987               -0.22500222                0.09918498                0.70695828                0.05773637                0.00104686
               6.97694826                1.02851193               33.03431874                1.00000000               -0.03131529               -0.03125683                0.10431666               -0.00006131                0.00099141               -0.00309457
               7.97662808                1.02996469               33.03565647                0.99999997               -0.03273841               -0.03272891                0.10911612               -0.00001698                0.00111254               -0.00013944
               8.97629349                1.03141994               33.03699903                0.99999999               -0.03417962               -0.03416168                0.11393076               -0.00000343                0.00089711                0.00073206
               9.97594449                1.03287763               33.03833240                1.00000000               -0.03489960               -0.03570531                0.11877815               -0.00011674                0.00039227                0.00628504
               0.00271001                2.00374201               33.02548108                0.01000001               -0.02292874                0.03372853                0.07280342               -0.17254740                0.00174562                0.13553997
               1.00248072                2.00231965               33.02576519                0.01000000               -0.21091917                0.07055723                0.08014857               -0.16690914                0.07349464                0.12215023
               1.99849163                2.00256889               33.02748472                0.01000001               -0.41926107                0.14022340                0.08059813               -0.08033995                0.12690254                0.08853766
               2.99409550                2.00448471               33.02845929                0.01000000               -0.45932429                0.22581460                0.07750543                0.10286382                0.07190638                0.02747619
               3.98930514                2.00983196               33.02936873                0.01000000               -0.48184642                0.12000566                0.08531499                0.50493425                0.04732637                0.05031681
               4.98445857                2.01658071               33.03042390                0.01000001               -0.43159575               -0.10571472                0.09880916                0.83370194                0.04095226                0.06789194
               5.98067323                2.02285842               33.03176411                0.01141543               -0.44772829               -0.27469586                0.10658616                0.87769986                0.03107718                0.03855236
               6.97550401                2.02819814               33.03300118                0.01000000               -0.27460367               -0.19034530                0.10518694                0.51978250               -0.00859393                0.06358883
               7.97518115                2.02963625               33.03433089                0.01000000               -0.03297873               -0.01219974                0.10992775               -0.01551023               -0.00519898               -0.07530829
               8.97484443                2.03107727               33.03563742                0.99999996               -0.03439240               -0.03434260                0.11470995                0.00009786               -0.00372476               -0.00146397
               9.97449330                2.03251925               33.03699984                1.00000000               -0.03511281               -0.03597599                0.11960111               -0.00009748               -0.00109073                0.00630298
               0.00069563                3.00463557               33.02778931                0.01000000               -0.17919635                0.21215750                0.07763783               -0.11761125                0.00899736                0.28139695
               0.99890366                3.00397431               33.02795421                0.01000001               -0.18267932                0.10513141                0.08154748               -0.12889003                0.02707383                0.22289225
               1.99704204                3.00396590               33.02838447                0.01000000               -0.24227440                0.06328455                0.08438492                0.12103893                0.04551856                0.09385466
               2.99405818                3.00592041               33.02904622                0.01000000               -0.31747603                0.06959301                0.08433249                0.44154760                0.04753683                0.06500389
               3.99069252                3.01006800               33.02983931                0.01197045               -0.29702733               -0.05131775                0.09208946                0.66031199                0.03195677                0.06686557
               4.98811763                3.01422188               33.03061960                0.01000000               -0.37507826               -0.17566895                0.10035706                0.92605168                0.02887500                0.08042564
               5.98319096                3.02156884               33.03161333                0.01000001               -0.37757792               -0.23598181                0.10761139                0.94026735                0.04666725                0.12024700
               6.98056607                3.02470502               33.03302347                0.01000001               -0.48761011               -0.31114096                0.12013175                0.93970208               -0.02617117                0.13029836
               7.97343875                3.02972070               33.03150218                0.01261099               -0.35768105               -0.20784514                0.12529464                0.76047472                0.17916700               -0.01945035
               8.97341245                3.03073309               33.03423982                0.01000000               -0.01900862               -0.28116188                0.11549679                0.55015903                0.06549490                0.09590216
               9.97305858                3.03215811               33.03564273                0.44188052               -0.03538694               -0.61086853                0.12042867                0.71284192               -0.00145605                0.09286767
               0.00168030                4.00798516               33.03039028                0.01286308               -0.11077144                0.23767540                0.10066435               -0.02856562               -0.04207387                0.25669308
               1.00057259                4.00442227               33.02986820                0.01000000               -0.13570012                0.00862248                0.09597050                0.15854391               -0.02342542                0.16119937
               1.99896630                4.00383458               33.02950323                0.01000000               -0.18741166               -0.05270985                0.09144054                0.44544950                0.00787189                0.11120678
               2.99682436                4.00587657               33.02984085                0.01197132               -0.23781942               -0.04530556                0.09446939                0.61326783                0.02452380                0.07778068
               3.99420991                4.00880560               33.03025550                0.01000000               -0.26727966               -0.15878549                0.09846273                0.81276970                0.02748432                0.07628489
               4.99147876                4.01306733               33.03100249                0.01000001               -0.26072407               -0.16424043                0.10367048                0.92747844                0.05692887                0.11684002
               5.98899543                4.01813878               33.03226634                0.01000001               -0.26662841               -0.33187260                0.11204183                1.03190707                0.08108763                0.17103106
               6.98614619                4.02197532               33.03350107                0.01174190               -0.23164220               -0.31389777                0.11477352                0.99561100                0.07839704                0.14385070
               7.98436259                4.02547935               33.03458136                0.01000000               -0.13679952               -0.46683598                0.12142604                1.11631975               -0.01806954                0.26701764
               8.98341020                4.02545403               33.03483062                0.01000000                0.07687548               -0.59334030                0.12109417                0.73524553                0.01420032                0.28310197
               9.98590010                4.02030188               33.03604516                0.01000000                0.24898929               -0.91994593                0.14809582                0.56852585                0.06987092                0.20458383
               0.00725008                5.00938907               33.03163102                0.01000001               -0.10249585               -0.01410203                0.09125707                0.32190602                0.00251610                0.23675354
               1.00622512                5.00414676               33.03116612                0.01000000               -0.13766725               -0.01485157                0.09494542                0.56219093                0.01195793                0.16880740
               2.00449674                5.00291170               33.03067999                0.01000001               -0.24363071               -0.08078032                0.09613298                0.73466860               -0.00625703                0.10671107
               3.00135251                5.00501430               33.03045627                0.01000000               -0.23697912               -0.19363255                0.09964739                0.89044430                0.01464188                0.08150945
               3.99975715                5.00689229               33.03087821                0.01000001               -0.20092451               -0.18164499                0.10374172                0.93544681                0.07189457                0.09590339
               4.99733402                5.01093707               33.03200814                0.01000001               -0.24180234               -0.21945199                0.11097994                1.01619492                0.11855045                0.15411012
               5.99492111                5.01493139               33.03360425                0.01174614               -0.20981471               -0.29816357                0.11793568                0.98443067                0.11126400                0.17266879
               6.99313772                5.01842707               33.03476058                0.01000000               -0.13173325               -0.36755699                0.12299482                0.92708704                0.08664316                0.21080585
               7.99228644                5.02038398               33.03599337                0.01000001                0.00785555               -0.53169288                0.12629469                0.74224820                0.11401582                0.29382468
               8.99329483                5.01886628               33.03760157                0.01000000                0.12234807               -0.61777475                0.12711001                0.47563470                0.08702654                0.37522522
               9.99473340                5.01375919               33.03819320                0.01099650                0.14385682               -0.53030012                0.13585106                0.22383465                0.05170688                0.33775590
               0.01860306                6.00770312               33.03419495                0.64789400               -0.03092792               -0.09967952                0.10248217                0.38901050               -0.00347562                0.14910672
               1.01829378                6.00412524               33.03338289                0.01000001               -0.29054648               -0.01681641                0.10364554                0.50808661               -0.05023791                0.11256403
               2.01279213                6.00221897               33.03163239                0.01141870               -0.38205612               -0.13421312                0.10243454                0.74677648               -0.05220777                0.08169810
               3.01065266                6.00200392               33.03127644                0.01000001               -0.28980256               -0.21000320                0.10417123                0.93764835                0.05051554                0.05766437
               4.00699608                6.00517270               33.03178289                0.01000001               -0.34445490               -0.18058556                0.11022991                1.02674815                0.12541267                0.10105619
               5.00376356                6.00867829               33.03329993                0.01174766               -0.29010143               -0.20159759                0.12007258                0.99147984                0.14985913                0.12613026
               6.00119405                6.01217551               33.03466364                0.01000000               -0.22641053               -0.25119207                0.12635414                0.88277204                0.15592416                0.16654448
               6.99923535                6.01462418               33.03652598                0.01000001               -0.12128538               -0.36037700                0.13342260                0.66411977                0.21746954                0.28947614
               7.99876834                6.01484549               33.03920680                0.01000000                0.01561695               -0.51525857                0.14019649                0.41343500                0.22861579                0.41576263
               8.99954769                6.01309853               33.04123164                0.01063864                0.09113135               -0.53873063                0.14438105                0.19681060                0.14137075                0.44431780
              10.00059097                6.00969587               33.04200295                0.01000000                0.10432815               -0.34359588                0.15049445                0.08368140                0.08302406                0.44015495
               0.02218604                7.00739548               33.03427460                0.99999999               -0.03150376               -0.03105032                0.10444507                0.00011496               -0.00663337                0.02276469
               1.02187100                7.00381043               33.03331300                1.00000000               -0.03162243               -0.03163248                0.10527531               -0.00022669               -0.00831362                0.00028816
               2.02155359                7.00022744               33.03231622                0.01000000               -0.23596282               -0.11562935                0.10629721                0.46739639                0.00710796                0.02512341
               3.01715174                7.00081424               33.03166288                0.01000001               -0.39679228               -0.21877177                0.10499133                0.81078763                0.08546407                0.00726792
               4.01361774                7.00328058               33.03260346                0.01174552               -0.34954689               -0.18035174                0.12084647                0.96234223                0.16565664                0.04781670
               5.01016081                7.00690512               33.03389882                0.01000000               -0.34935434               -0.13662236                0.12574106                0.91958508                0.20324348                0.09264920
               6.00663066                7.00990755               33.03606812                0.01000001               -0.32053341               -0.15452633                0.13795585                0.66498974                0.29255983                0.21368043
               7.00375014                7.01121953               33.03960419                0.01000000               -0.22749335               -0.28849352                0.15347425                0.32559131                0.36832972                0.35654576
               8.00208079                7.01007881               33.04348422                0.01081124               -0.06847361               -0.39392873                0.16159265                0.07399105                0.31372264                0.42928183
               9.00238067                7.00809167               33.04587135                0.01000002                0.05657806               -0.49276630                0.16491183               -0.04456816                0.16333391                0.60799760
              10.00321235                7.00688727               33.04660750                0.01615052                0.08316854               -0.33838830                0.16680806               -0.04692687                0.08602382                0.66313702
               0.02577547                8.00708211               33.03430784                1.00000000               -0.03181786               -0.03153276                0.10544827                0.00022595               -0.00108291                0.02239836
               1.02545729                8.00349259               33.03328270                0.99999999               -0.03196096               -0.03196215                0.10652915                0.00005028               -0.00077744                0.00297455
               2.02513625                7.99990638               33.03226361                0.01859884               -0.08210080               -0.03230601                0.10757552                0.06525663                0.01969469               -0.01565754
               3.02381527                7.99762848               33.03164947                0.01261746               -0.24921046               -0.24095168                0.15305969                0.64511733                0.13449023               -0.09691427
               4.02015204                8.00156567               33.03251758                0.01000000               -0.41434925               -0.14208323                0.11904261                0.98482000                0.22953591                0.01064122
               5.01552829                8.00594584               33.03449460                0.01000001               -0.49863012               -0.00670901                0.13503190                0.76935040                0.31361560                0.13623972
               6.01017943                8.00908498               33.03821261                0.01000000               -0.49761854               -0.01009460                0.15687295                0.40744899                0.42431960                0.22117490
               7.00557591                8.00885431               33.04313145                0.01083331               -0.34017057               -0.12093852                0.18217062                0.02838375                0.44039530                0.27727519
               8.00337602                8.00696692               33.04747797                0.01000002               -0.18640289               -0.30921287                0.19640282               -0.33182051                0.49216286                0.51860334
               9.00184786                8.00324321               33.05315243                0.01483366               -0.06574027               -0.37277683                0.19061615               -0.31626136                0.37527864                0.63691681
              10.00206122                8.00292811               33.05502614                0.01000000                0.02133605               -0.32697676                0.18650703               -0.21432516                0.18849010                0.60110816
               0.02936959                9.00676483               33.03437839                1.00000000               -0.03218585               -0.03194659                0.10671737                0.00022224                0.00223125                0.01931242
               1.02904773                9.00317119               33.03326646                0.99999998               -0.03233795               -0.03233101                0.10778880                0.00003707                0.00110371                0.00234857
               2.02872283                8.99958132               33.03213348                0.99999997               -0.03264626               -0.03268262                0.10889135                0.00002479               -0.00516406               -0.01153052
               3.02839481                8.99599520               33.03089939                0.01000002               -0.18630245               -0.09826272                0.11000920                0.45114237                0.11392986               -0.04871919
               4.02499678                9.00043891               33.03215338                0.01000000               -0.51831551                0.02387583                0.14695928                0.72535719                0.19248050                0.06949085
               5.01802850                9.00677094               33.03557459                0.01000000               -0.65628067                0.12589850                0.15071796                0.51604531                0.35171407                0.12170830
               6.01187117                9.00970566               33.03974030                0.01071365               -0.57963087                0.08260899                0.17110011                0.19230709                0.44758543                0.13636877
               7.00643588                9.00880076               33.04510733                0.01000002               -0.54078429                0.04371020                0.20960611               -0.13862032                0.66190926                0.12858994
               8.00105548                9.00389455               33.05417528                0.01816798               -0.31708154               -0.16319974                0.23274112               -0.42998545                0.61104838                0.37946435
               9.00009425                9.00063613               33.05866614                0.99999998               -0.07497179               -0.15726820                0.17897260               -0.25044267                0.22528499                0.27462944
               9.99955605                9.00034774               33.05865352                1.00000000               -0.05382008               -0.15608956                0.17993507               -0.13968303                0.00006622                0.18050256
               0.03296719               10.00644318               33.03434973                1.00000000               -0.03256590               -0.03216498                0.10797281                0.00003997                0.01304998                0.01428062
               1.03264154               10.00284597               33.03322518                1.00000000               -0.03272357               -0.03252126                0.10904412               -0.00014190                0.01621000                0.00093699
               2.03231272                9.99925273               33.03216698                0.99999999               -0.03305051               -0.03285888                0.11014843               -0.00014795                0.01616703               -0.00359656
               3.03198053                9.99566323               33.03104624                0.21467719               -0.42146401               -0.03319750                0.11123191                0.49809458                0.10742272               -0.00421173
               4.02388344               10.00204318               33.03181944                0.01000000               -0.76990396                0.16042713                0.15818918                0.52869540                0.10188558                0.13211308
               5.01658245               10.00846381               33.03543048                0.01001434               -0.59438424                0.16928733                0.15263267                0.29009408                0.37735216                0.04848476
               6.01199576               10.01073716               33.04006627                0.01000001               -0.39839151                0.10315065                0.17243412                0.07569405                0.48877982                0.08379134
               7.00861462               10.00972852               33.04568855                0.01398140               -0.45274080                0.09277570                0.20960837               -0.13383830                0.76071813                0.08131467
               8.00294094               10.00370292               33.05615003                0.01000002               -0.41144000               -0.01916270                0.17612718               -0.29298762                0.57524541                0.13337833
               9.00038582               10.00009784               33.05868488                1.00000000               -0.15483002               -0.05382862                0.17995550               -0.16567348                0.12722651               -0.00014271
               9.99984434                9.99980632               33.05867222                1.00000000               -0.05414742               -0.05414208                0.18091761               -0.00032321               -0.00010635                0.00010030
              -0.00048313                0.00454382               34.02685948                0.99528939               -0.02361933               -0.02212437                0.07458504                0.00109806               -0.00304377                0.00355001
               0.99928068                0.00312298               34.02727033                1.00000000               -0.02481400               -0.02465277                0.08267875                0.00127272               -0.00330426               -0.00127585
               1.99902059                0.00169901               34.02767439                0.03764558               -0.00887029               -0.02717986                0.09077060                0.03908132                0.02554756               -0.00143467
               2.99910327                0.00102793               34.02866477                0.01380580               -0.04065632               -0.00055978                0.09169320                0.18592200                0.04756032               -0.01098778
               3.99820746                0.00491475               34.02982164                0.01000000               -0.45551552                0.24134656                0.10298909                0.08596709                0.12038176               -0.01880055
               4.98999296                0.01363283               34.03210668                0.01000000               -1.04065461                0.32821972                0.13756320                0.54891060                0.18962262               -0.00144872
               5.97739437                0.02859614               34.03520976                0.49715256               -0.64494664               -0.02939985                0.09756239                0.67394670                0.09368775               -0.00109185
               6.97709403                0.03010099               34.03666098                1.00000000               -0.03081015               -0.03098838                0.10280788                0.00075145                0.00883437               -0.00288717
               7.97677817                0.03160990               34.03806242                1.00000000               -0.03233352               -0.03252435                0.10780937                0.00073121                0.00755551               -0.00024232
               8.97644736                0.03312207               34.03948452                1.00000000               -0.03382682               -0.03403671                0.11284976                0.00073743                0.00694362                0.00099059
               9.97610163                0.03463869               34.04087112                1.00000000               -0.03457251               -0.03560549                0.11785418                0.00058763                0.00525379                0.00501259
               0.00094869                1.00432258               34.02652972                0.98626291               -0.02328826               -0.02194805                0.07354257               -0.00012527                0.00152754                0.00409913
               1.00071581                1.00287645               34.02693855                0.01000000               -0.02448814               -0.02456371                0.08165763                0.00005684                0.00349271               -0.00323685
               2.00045893                1.00142721               34.02738639                0.01000000               -0.06805945                0.04264418                0.08981663               -0.12578009                0.04862179                0.05801015
               2.99935462                1.00102233               34.02870214                0.01000001               -0.38471226                0.16277281                0.08497803                0.02880913                0.12311064               -0.00320708
               3.99276469                1.00732822               34.02980481                0.01000000               -0.78566246                0.25078714                0.10049933                0.32025963                0.09003666                0.02157767
               4.98364137                1.01691503               34.03167494                0.01000000               -0.84324628                0.17876576                0.11614017                0.73013545                0.10230566                0.02174246
               5.97589976                1.02830214               34.03396734                0.01000001               -0.40233539               -0.23281958                0.09879630                0.75845338                0.04633130                0.00339716
               6.97559466                1.02979110               34.03536053                1.00000000               -0.03124087               -0.03116561                0.10405087               -0.00003949                0.00113491               -0.00308395
               7.97527494                1.03128465               34.03674695                1.00000000               -0.03271642               -0.03271166                0.10902868               -0.00003057                0.00110119               -0.00011996
               8.97494034                1.03278170               34.03813860                0.99999999               -0.03420281               -0.03421029                0.11403019               -0.00004272                0.00091369                0.00072630
               9.97459089                1.03428263               34.03952133                1.00000000               -0.03494501               -0.03577640                0.11903918               -0.00020606                0.00041217                0.00629599
               0.00240662                2.00410486               34.02620775                0.01116396               -0.02294361                0.02744508                0.07253766               -0.16184362                0.00176469                0.13524050
               1.00217718                2.00263171               34.02656889                0.01000000               -0.20237526                0.06551804                0.08058599               -0.16596243                0.06987794                0.12232816
               1.99835911                2.00255189               34.02829311                0.01000001               -0.41993656                0.12421593                0.08703822               -0.09393211                0.09520825                0.09542199
               2.99377845                2.00428338               34.02921729                0.01000000               -0.48195752                0.24545413                0.06252541                0.09053926                0.06374483                0.05182244
               3.98871996                2.00993049               34.03018109                0.01000000               -0.50783527                0.14995214                0.07959299                0.51865873                0.05271717                0.07216355
               4.98362174                2.01720814               34.03141535                0.01000001               -0.45163002               -0.10819128                0.09944840                0.89360526                0.04107958                0.05858937
               5.97968736                2.02393975               34.03281141                0.01141680               -0.47555090               -0.29111566                0.10312232                0.94095933                0.02228319                0.03601521
               6.97411073                2.02947768               34.03405343                0.01000000               -0.29501993               -0.19180901                0.10531344                0.59886118               -0.01078214                0.05276265
               7.97378696                2.03095566               34.03543233                0.01000000               -0.03311021               -0.19922949                0.11031138                0.26151814               -0.00524040                0.01125158
               8.97344852                2.03243786               34.03678718                0.99999996               -0.03456609               -0.03452918                0.11518812                0.00001629               -0.00380043               -0.00144923
               9.97309564                2.03392316               34.03819831                1.00000000               -0.03528818               -0.03612269                0.12011467               -0.00019451               -0.00112482                0.00623337
               0.00065813                3.00487148               34.02849863                0.01000005               -0.17086016                0.22348404                0.06382732               -0.10160894                0.01579577                0.27046091
               0.99894953                3.00418681               34.02875121                0.01000001               -0.18647601                0.08662457                0.07771640               -0.12085485                0.03405696                0.21903369
               1.99692861                3.00391153               34.02922556                0.01000000               -0.25813610                0.06150201                0.08739158                0.12331299                0.05163446                0.10143642
               2.99378681                3.00593141               34.02985789                0.01000000               -0.33577551                0.08394768                0.08215831                0.46643077                0.04944480                0.08607234
               3.99021310                3.01032726               34.03073588                0.01197019               -0.31412925               -0.04327467                0.08979129                0.69983775                0.03790635                0.08460255
               4.98750422                3.01475120               34.03160822                0.01000000               -0.38818431               -0.18323440                0.09883877                0.97837685                0.03066834                0.08503896
               5.98244941                3.02247983               34.03264699                0.01000001               -0.34741248               -0.25348086                0.09949499                1.00363958                0.02732400                0.11867373
               6.98055597                3.02595492               34.03386943                0.01000001               -0.24521471               -0.35798625                0.07647938                0.83188353                0.02147895                0.14294953
               7.97754512                3.02730006               34.03434518                0.01263095               -0.42914042               -0.26092788                0.22362689                0.77002187                0.15599866               -0.01149724
               8.97197316                3.03209111               34.03540030                0.01000000               -0.29643633               -0.28347046                0.11632298                0.77988905               -0.02116780                0.10332971
               9.97161639                3.03356018               34.03685050                0.45493545               -0.03567709               -0.64522436                0.12118562                0.75661925               -0.00156673                0.10351170
               0.00174377                4.00857454               34.03126247                0.01369491               -0.10237376                0.26047907                0.07400017               -0.05417748               -0.04381110                0.24616849
               1.00072003                4.00436420               34.03078067                0.01000000               -0.13314993               -0.01373778                0.09046163                0.16645268               -0.02559724                0.16058334
               1.99908077                4.00378194               34.03041815                0.01000000               -0.20143487               -0.04998493                0.09127765                0.47419752                0.00424548                0.11763026
               2.99669134                4.00596234               34.03077982                0.01197112               -0.25919218               -0.04101582                0.09439207                0.64431949                0.02371339                0.09180996
               3.99389693                4.00906500               34.03122962                0.01000000               -0.28273124               -0.16191188                0.09763266                0.85308968                0.02856713                0.08760094
               4.99103671                4.01354346               34.03202166                0.01000001               -0.26702503               -0.17093323                0.10171153                0.97237490                0.05702504                0.12514549
               5.98855643                4.01887013               34.03333024                0.01000001               -0.25542750               -0.35198611                0.10382969                1.04888564                0.07751143                0.18087976
               6.98592816                4.02231795               34.03468022                0.01174110               -0.27526103               -0.34667411                0.11555268                0.95239123                0.05244773                0.17000887
               7.98305121                4.02573711               34.03546183                0.01000000               -0.15709876               -0.31367586                0.08616372                0.94495800               -0.02799631                0.22458086
               8.98278619                4.02676845               34.03614843                0.01000000                0.11193435               -0.62976251                0.13778594                0.81230297                0.02590125                0.29605367
               9.98528990                4.02101867               34.03747638                0.01000000                0.25037085               -0.96266918                0.14358179                0.57233530                0.06358409                0.21671808
               0.00799527                5.01008106               34.03253181                0.01222733               -0.09240793               -0.03542119                0.08105834                0.26464834                0.01055876                0.23188413
               1.00707119                5.00391206               34.03216216                0.01000000               -0.15904244               -0.00965761                0.09097333                0.55888627                0.01459853                0.16033229
               2.00481442                5.00291183               34.03164080                0.01000001               -0.28405297               -0.07894512                0.10031165                0.77142065               -0.01102462                0.11210331
               3.00139013                5.00511110               34.03145016                0.01000000               -0.25603226               -0.20052420                0.09936506                0.92824124                0.01419656                0.08766624
               3.99969378                5.00708902               34.03191000                0.01000001               -0.21217712               -0.18808417                0.10354077                0.97801946                0.07406500                0.10363505
               4.99714659                5.01133254               34.03310502                0.01000001               -0.25205721               -0.22752197                0.10945364                1.05696510                0.12099440                0.16498526
               5.99465263                5.01544011               34.03477272                0.01174279               -0.22048833               -0.31257124                0.11647686                1.01285399                0.10792014                0.18550433
               6.99273682                5.01902144               34.03592997                0.01000000               -0.13294264               -0.36041818                0.11433759                0.93880083                0.07884324                0.22689458
               7.99199378                5.02102655               34.03723003                0.01000001                0.01004166               -0.52221653                0.12069182                0.80331930                0.10772374                0.33160870
               8.99293766                5.01949586               34.03891089                0.01000000                0.12844369               -0.66502619                0.13266881                0.50068994                0.08218447                0.39726374
               9.99456265                5.01430680               34.03965233                0.01140493                0.16249973               -0.55430382                0.14780554                0.24711190                0.04933259                0.35427828
               0.01937475                6.00786612               34.03521632                0.62946136               -0.03077564               -0.12602754                0.10180267                0.38451442               -0.00343001                0.15479587
               1.01906699                6.00417105               34.03441730                0.01000001               -0.30322988               -0.00274561                0.10323544                0.50136257               -0.05152879                0.11394316
               2.01331015                6.00220303               34.03265327                0.01142001               -0.39940087               -0.13775164                0.10224200                0.77053763               -0.05583881                0.08388270
               3.01107897                6.00195185               34.03232361                0.01000001               -0.30371343               -0.22604134                0.10602918                0.97797356                0.05213632                0.05584787
               4.00723588                6.00530332               34.03287880                0.01000001               -0.36270215               -0.18746793                0.11041512                1.07832952                0.13132922                0.10821656
               5.00382493                6.00899302               34.03449562                0.01174394               -0.30556386               -0.20428972                0.11909247                1.03270346                0.15633943                0.13454990
               6.00112460                6.01261871               34.03591058                0.01000000               -0.23535953               -0.25701056                0.12380078                0.90900438                0.15858326                0.18088666
               6.99911774                6.01510959               34.03784523                0.01000001               -0.12407159               -0.37421967                0.13098763                0.68245463                0.21843561                0.31403538
               7.99864317                6.01529278               34.04059439                0.01000000                0.02009983               -0.53756555                0.13884204                0.42176273                0.22606072                0.44506379
               8.99951974                6.01346793               34.04268107                0.01063898                0.09835493               -0.56263595                0.14616123                0.20624707                0.13880852                0.47183959
              10.00061027                6.00993260               34.04352182                0.01000000                0.10905342               -0.36461120                0.15415710                0.08480538                0.08285076                0.45758212
               0.02307570                7.00756051               34.03531709                0.99999999               -0.03141753               -0.03089875                0.10402246                0.00014134               -0.00693331                0.02301040
               1.02276153                7.00385715               34.03436500                0.99999999               -0.03156688               -0.03157885                0.10509906               -0.00022360               -0.00850248                0.00047234
               2.02244437                7.00015680               34.03337961                0.01000000               -0.24561054               -0.11839996                0.10635198                0.47837205                0.00401143                0.02656318
               3.01784932                7.00059027               34.03267719                0.01000001               -0.41125811               -0.27231266                0.10717109                0.87598113                0.09038229                0.02601879
               4.01421921                7.00333966               34.03381563                0.01174486               -0.36820247               -0.16694589                0.11905259                1.02850302                0.18377813                0.04131899
               5.01048527                7.00724674               34.03513633                0.01000000               -0.37515276               -0.12460792                0.12362932                0.94883346                0.21453604                0.10048140
               6.00671615                7.01029990               34.03744097                0.01000001               -0.33867113               -0.15529293                0.13597661                0.66602794                0.30985354                0.23418051
               7.00371185                7.01153705               34.04113386                0.01000000               -0.23227279               -0.30273410                0.15056207                0.31594331                0.38081376                0.39213335
               8.00207069                7.01027524               34.04511769                0.01080459               -0.06445355               -0.41406775                0.16143759                0.06606435                0.31586642                0.46536392
               9.00242278                7.00824315               34.04751653                0.01000002                0.06293633               -0.51332012                0.16404616               -0.04665646                0.16015660                0.63593459
              10.00332942                7.00701457               34.04827101                0.01686320                0.09066449               -0.35092381                0.16667941               -0.04956533                0.08565668                0.68241326
               0.02678430                8.00724814               34.03536160                1.00000000               -0.03180734               -0.03147400                0.10528312                0.00027303               -0.00109708                0.02231112
               1.02646623                8.00353947               34.03434859                0.99999999               -0.03199185               -0.03198981                0.10662344                0.00006448               -0.00079745                0.00300266
               2.02614447                7.99983503               34.03334132                0.03322800               -0.05252493               -0.03243118                0.10796190                0.01856085                0.05377571               -0.01558980
               3.02541573                7.99650560               34.03342098                0.01263799               -0.24974985               -0.23934083                0.15543347                0.68994286                0.17466295               -0.14349407
               4.02114947                8.00196440               34.03360241                0.01000000               -0.47871823               -0.08314013                0.11125489                1.00693349                0.22251563                0.02100272
               5.01584137                8.00650086               34.03583401                0.01000001               -0.54973074                0.01646973                0.13261644                0.73868597                0.34812774                0.13872725
               6.01015486                8.00951285               34.03976127                0.01000000               -0.51900508               -0.00562025                0.15093510                0.37429128                0.46168583                0.24545516
               7.00546127                8.00905490               34.04492772                0.01082584               -0.34482472               -0.12806105                0.17221953                0.00017667                0.47632677                0.32678949
               8.00325836                8.00701142               34.04937090                0.01000002               -0.18069981               -0.31577809                0.18079648               -0.33357143                0.50075897                0.56814207
               9.00184727                8.00320152               34.05503393                0.01506123               -0.05911254               -0.38160145                0.18731066               -0.32084724                0.37598257                0.64427600
              10.00207611                8.00291412               34.05689146                0.01000000                0.02288405               -0.33448508                0.18721444               -0.21698631                0.18694483                0.60701825
               0.03049851                9.00693103               34.03544615                1.00000000               -0.03225850               -0.03197430                0.10683452                0.00026983                0.00224111                0.01936986
               1.03017593                9.00321735               34.03434633                0.99999998               -0.03245309               -0.03244723                0.10817597                0.00003478                0.00113448                0.00238648
               2.02984945                8.99950818               34.03322587                0.99999997               -0.03285598               -0.03289785                0.10958614                0.00001135               -0.00509285               -0.01146924
               3.02951881                8.99580345               34.03200450                0.01000001               -0.27434177               -0.05188240                0.11105930                0.49881080                0.13077729               -0.08271921
               4.02436262                9.00167686               34.03360632                0.01000000               -0.59041352                0.10359868                0.13485804                0.64456914                0.26013280                0.05659604
               5.01771054                9.00757614               34.03695875                0.01000000               -0.63573447                0.12907198                0.13417847                0.44305854                0.39280142                0.12418493
               6.01164793                9.01018749               34.04144309                0.01071182               -0.57468660                0.08856610                0.16309808                0.15352260                0.50096540                0.15239829
               7.00621681                9.00897583               34.04709005                0.01000002               -0.51976415                0.04539567                0.18330299               -0.15776416                0.73083313                0.16310695
               8.00125265                9.00395967               34.05619344                0.01781829               -0.30568387               -0.16076693                0.18630213               -0.42802803                0.67921053                0.43242908
               9.00010313                9.00061112               34.06045714                0.99999998               -0.08440720               -0.15643671                0.17921884               -0.25449429                0.21348264                0.26971514
               9.99956450                9.00032487               34.06045300                1.00000000               -0.05386290               -0.15652120                0.17995175               -0.13987520                0.00005036                0.17677031
               0.03421706               10.00660866               34.03543137                1.00000000               -0.03272813               -0.03223738                0.10837476                0.00004149                0.01308038                0.01432915
               1.03388978               10.00289053               34.03431890                1.00000000               -0.03292360               -0.03268258                0.10971931               -0.00019389                0.01624321                0.00096566
               2.03355859                9.99917708               34.03327310                0.99999999               -0.03332593               -0.03310996                0.11108402               -0.00021481                0.01619140               -0.00357634
               3.03322326                9.99546795               34.03216459                0.22599383               -0.56452104               -0.03355007                0.11241746                0.61341012                0.12487032               -0.00420952
               4.02226817               10.00403637               34.03329901                0.01000003               -0.85156775                0.23595121                0.15643046                0.47127249                0.19119895                0.09236796
               5.01619191               10.00908230               34.03689196                0.01023557               -0.52212774                0.15061616                0.14052850                0.21052671                0.41386808                0.06090444
               6.01182562               10.01128417               34.04177996                0.01000001               -0.38290546                0.10966797                0.16469267                0.06179476                0.53483516                0.09104853
               7.00853380               10.00996282               34.04759679                0.01423234               -0.43815528                0.09869910                0.17616025               -0.14270527                0.80373554                0.08593985
               8.00306251               10.00379608               34.05772535                0.01000002               -0.40708065               -0.01635916                0.16243768               -0.31351490                0.65944521                0.17270266
               9.00039219               10.00007279               34.06048428                1.00000000               -0.16057064               -0.05383262                0.17993795               -0.17171366                0.13802630               -0.00012719
               9.99985110                9.99978370               34.06048014                1.00000000               -0.05410889               -0.05411738                0.18067506               -0.00024975               -0.00008688                0.00008830
              -0.00096515                0.00491442               35.02760235                0.99462869               -0.02353707               -0.02197134                0.07397324                0.00125603               -0.00310757                0.00353115
               0.99879948                0.00344709               35.02809768                1.00000000               -0.02483131               -0.02472158                0.08275959                0.00140295               -0.00336324               -0.00132582
               1.99853823                0.00197763               35.02858614                0.04502611               -0.01680744               -0.02747220                0.09153687                0.02247760                0.02307741               -0.00142275
               2.99846334                0.00092759               35.02961254                0.01000001               -0.07961035               -0.01401349                0.09798808                0.22994518                0.04509566               -0.00584297
               3.99694602                0.00488766               35.03079608                0.01000000               -0.48271205                0.28523323                0.11706094                0.12189185                0.01506279                0.03548263
               4.98880909                0.01422194               35.03352130                0.01000000               -1.04583717                0.32404214                0.12053234                0.60114453                0.13249373               -0.00354535
               5.97602928                0.02982147               35.03618141                0.48954735               -0.65389515               -0.02924140                0.09679280                0.70383846                0.06912615               -0.00108951
               6.97573119                0.03136642               35.03768577                0.99976995               -0.03061047               -0.03086234                0.10217900                0.00078685                0.00896207               -0.00289610
               7.97541707                0.03291691               35.03913799                1.00000000               -0.03217914               -0.03245352                0.10731805                0.00078440                0.00759403               -0.00022335
               8.97508761                0.03447216               35.04061140                1.00000000               -0.03370859               -0.03403497                0.11247719                0.00079155                0.00700053                0.00101177
               9.97474290                0.03603319               35.04204903                1.00000000               -0.03447115               -0.03568310                0.11765447                0.00054105                0.00529764                0.00504777
               0.00051475                1.00469471               35.02726291                0.98378997               -0.02328389               -0.02182566                0.07317255               -0.00007436                0.00158893                0.00409121
               1.00028191                1.00319987               35.02775661                0.01000000               -0.02459982               -0.02467715                0.08201512                0.00008188                0.00355390               -0.00332570
               2.00002275                1.00170291               35.02828996                0.01000000               -0.04870691                0.03302655                0.09092530               -0.16016285                0.04361528                0.05988200
               2.99930777                1.00078746               35.02958949                0.01000001               -0.42524921                0.17189053                0.08918852                0.05280885                0.11547626               -0.00995774
               3.99151777                1.00773999               35.03092835                0.01000000               -0.84770662                0.27282473                0.10319005                0.39451552                0.00856732                0.07152801
               4.98235364                1.01746236               35.03282555                0.01000000               -0.85111722                0.17986394                0.10865636                0.78149048                0.06242410               -0.00104465
               5.97449542                1.02952905               35.03495352                0.01000001               -0.40811511               -0.24612002                0.09846667                0.80234824                0.03568378                0.00409705
               6.97419134                1.03105780               35.03639976                1.00000000               -0.03116887               -0.03109610                0.10381139               -0.00002130                0.00125949               -0.00308215
               7.97387205                1.03259238               35.03783704                1.00000000               -0.03269742               -0.03269295                0.10897484               -0.00002296                0.00113317               -0.00009113
               8.97353739                1.03413181               35.03927964                0.99999999               -0.03423855               -0.03427897                0.11417946               -0.00005917                0.00093667                0.00074294
               9.97318727                1.03567636               35.04071318                1.00000000               -0.03501129               -0.03592229                0.11937755               -0.00026260                0.00040877                0.00631293
               0.00202304                2.00447791               35.02693184                0.01000000               -0.02301170                0.01476809                0.07242981               -0.15285474                0.00180090                0.12780722
               1.00179292                2.00295354               35.02737691                0.01000000               -0.21378267                0.04716622                0.08119585               -0.16318887                0.07185566                0.12012400
               1.99774738                2.00263816               35.02922549                0.01000001               -0.41552480                0.10833405                0.09561013               -0.08214191                0.26918326                0.06459670
               2.99348242                2.00436540               35.02970980                0.01000000               -0.47929771                0.26459387                0.06590864                0.09674905                0.08275899                0.08062373
               3.98816143                2.01034416               35.03096059                0.01000000               -0.54162888                0.14857623                0.08885698                0.58181838                0.07711445                0.08464351
               4.98264985                2.01781922               35.03241287                0.01000001               -0.48403111               -0.10730040                0.10005931                0.95105765                0.04080980                0.05025446
               5.97848081                2.02489907               35.03382656                0.01141789               -0.49912042               -0.30527851                0.10292532                0.99530413                0.00670840                0.02582398
               6.97266744                2.03074450               35.03510745                0.01000000               -0.30691033               -0.20602865                0.10545552                0.62350569               -0.01138797                0.03351514
               7.97234260                2.03226306               35.03653712                0.01363574               -0.03324955               -0.15655634                0.11067221                0.20989434               -0.00528930                0.03678748
               8.97200245                2.03378658               35.03794119                0.99999998               -0.03470298               -0.03466878                0.11567766               -0.00009613               -0.00385783               -0.00149720
               9.97164854                2.03531474               35.03940213                1.00000000               -0.03539062               -0.03630404                0.12070182               -0.00020427               -0.00128250                0.00617335
               0.00050638                3.00499007               35.02906585                0.01000005               -0.16485002                0.21987228                0.06851175               -0.09745534                0.03328151                0.27374183
               0.99885788                3.00414319               35.02950854                0.01000001               -0.17691622                0.06347272                0.08115714               -0.10042209                0.06155993                0.20794682
               1.99696805                3.00386959               35.03013230                0.01000000               -0.26605614                0.05668882                0.08470688                0.16204104                0.03199240                0.10046491
               2.99353675                3.00607934               35.03068938                0.01000000               -0.36338662                0.08775471                0.08751720                0.49233332                0.05050039                0.13235895
               3.98970032                3.01071152               35.03163513                0.01197009               -0.33584360               -0.04803274                0.09330701                0.73075011                0.04203063                0.10505546
               4.98681988                3.01531635               35.03259638                0.01000000               -0.41120472               -0.18728861                0.10114920                1.02903771                0.02481000                0.08963627
               5.98147623                3.02342348               35.03360323                0.01000001               -0.37612110               -0.26342068                0.09905418                1.05135778               -0.01204872                0.11928638
               6.97929746                3.02693722               35.03455306                0.01000001               -0.32241858               -0.37147694                0.09108320                0.92169445               -0.04002783                0.13935179
               7.97502785                3.02946125               35.03597472                0.01265474               -0.44068411               -0.25884662                0.13920444                0.82465318               -0.23494769                0.25611488
               8.97048378                3.03343843               35.03656627                0.01000000               -0.24504995               -0.29610310                0.11692515                0.77001311               -0.04663911                0.11615512
               9.97012685                3.03495028               35.03806644                0.47546424               -0.03569226               -0.67401683                0.12204441                0.79455148               -0.00173433                0.11382888
               0.00176767                4.00887535               35.03187028                0.01425174               -0.08627171                0.25414164                0.05002084               -0.08052645               -0.01484893                0.19594390
               1.00090496                4.00422300               35.03167744                0.01000000               -0.13578056               -0.02132087                0.07868240                0.17234020               -0.02435733                0.17123284
               1.99905206                4.00377194               35.03132878                0.01000000               -0.22088994               -0.04754678                0.09378723                0.49588424               -0.00724593                0.13167757
               2.99648716                4.00612050               35.03172869                0.01197069               -0.27563245               -0.04277510                0.09545920                0.67210302                0.01747469                0.10491679
               3.99353941                4.00938350               35.03220816                0.01000000               -0.29842603               -0.16978577                0.09962301                0.89181145                0.02636089                0.10070741
               4.99051864                4.01407345               35.03303672                0.01000001               -0.28261612               -0.17767698                0.10370722                1.01592260                0.04995521                0.13525453
               5.98788709                4.01963065               35.03434294                0.01000001               -0.27275410               -0.36811690                0.10583097                1.10099206                0.06069455                0.19578378
               6.98506356                4.02331496               35.03581212                0.01174162               -0.27763171               -0.35686325                0.11279481                1.02076449               -0.00852404                0.24168896
               7.98233446                4.02708612               35.03630463                0.01000000               -0.15749354               -0.37888290                0.10407995                1.04908478                0.00525602                0.27538395
               8.98191369                4.02786451               35.03758634                0.01000000                0.10907097               -0.65797594                0.13752138                0.83903623                0.02289880                0.28938296
               9.98451588                4.02183441               35.03891679                0.01000000                0.26021917               -1.00754835                0.14424475                0.60250531                0.04454448                0.23547344
               0.00820055                5.01007290               35.03325219                0.01046201               -0.07924589               -0.04307995                0.07678234                0.28262968               -0.01154519                0.20594736
               1.00740810                5.00371678               35.03298559                0.01000000               -0.16061586               -0.00108648                0.08254853                0.58835251               -0.02997315                0.19548217
               2.00498824                5.00291865               35.03268622                0.01000001               -0.30204236               -0.08070586                0.09863890                0.81120151               -0.01877216                0.11579362
               3.00136725                5.00522383               35.03244357                0.01000000               -0.27023180               -0.21133226                0.09981512                0.96899210                0.00865351                0.09629340
               3.99958360                5.00731580               35.03294903                0.01000001               -0.22380321               -0.19760511                0.10507249                1.02251064                0.07321264                0.11323629
               4.99689118                5.01176281               35.03419721                0.01000001               -0.26645237               -0.23677351                0.11072894                1.10426371                0.11935644                0.17752199
               5.99425455                5.01606114               35.03593379                0.01174053               -0.23169526               -0.32528325                0.11699856                1.05830808                0.09644377                0.20650757
               6.99225728                5.01979996               35.03704733                0.01000000               -0.13972794               -0.38069776                0.11637001                0.98395686                0.06958932                0.25329027
               7.99145999                5.02188359               35.03840720                0.01000001                0.01294702               -0.56135095                0.12197157                0.82991027                0.10058550                0.37937267
               8.99251622                5.02027891               35.04025495                0.01000000                0.13885907               -0.69674144                0.13543637                0.51992272                0.08953655                0.41088958
               9.99423718                5.01479931               35.04114932                0.01184532                0.17209571               -0.58027856                0.14831387                0.25456978                0.04824666                0.35712852
               0.02013251                6.00801375               35.03623100                0.61092448               -0.03062576               -0.11812442                0.10109656                0.40630173               -0.00339841                0.16897475
               1.01982626                6.00420127               35.03544760                0.01000001               -0.31817379                0.00859000                0.10279363                0.51872001               -0.05257865                0.12355016
               2.01376904                6.00215782               35.03367723                0.01142113               -0.41782034               -0.14239992                0.10271576                0.80129868               -0.05632141                0.08364530
               3.01146985                6.00189385               35.03339702                0.01000001               -0.31591948               -0.24932941                0.10688420                1.02148517                0.05275110                0.06390841
               4.00745065                6.00543140               35.03399120                0.01000001               -0.38056382               -0.19662244                0.11210465                1.13473424                0.13356981                0.11706264
               5.00385857                6.00933798               35.03568178                0.01174210               -0.32172697               -0.20932252                0.11880620                1.08142918                0.15782422                0.14493739
               6.00101611                6.01312499               35.03713965                0.01000000               -0.24691649               -0.26603370                0.12384100                0.94693370                0.15935888                0.19627343
               6.99892024                6.01570100               35.03914573                0.01000001               -0.12811988               -0.39101296                0.13076102                0.70832668                0.21868284                0.34223843
               7.99845371                6.01585910               35.04198364                0.01000000                0.02380912               -0.56370078                0.13967794                0.43920639                0.22753974                0.47687458
               8.99939642                6.01392969               35.04415486                0.01064507                0.10563824               -0.59107062                0.14840041                0.21419932                0.13883161                0.49435902
              10.00056648                6.01022884               35.04508609                0.01000000                0.11700503               -0.38167041                0.15716383                0.08888239                0.08559516                0.46989925
               0.02395156                7.00771041               35.03635504                0.99999999               -0.03131282               -0.03072390                0.10352447                0.00016809               -0.00724512                0.02320170
               1.02363843                7.00388858               35.03541499                0.99999999               -0.03149655               -0.03149786                0.10484801               -0.00021962               -0.00870561                0.00059660
               2.02332163                7.00007065               35.03444326                0.01000000               -0.25575291               -0.12047448                0.10634534                0.48595039                0.00650837                0.02774641
               3.01852337                7.00023725               35.03380630                0.01000001               -0.42437314               -0.32312827                0.11785966                0.94451490                0.09511024                0.04824787
               4.01483416                7.00338336               35.03498451                0.01174489               -0.38485950               -0.16181860                0.11386001                1.10388935                0.18199099                0.04612369
               5.01082618                7.00757636               35.03637141                0.01000000               -0.40019817               -0.12200016                0.12431212                0.99152606                0.22243807                0.10540512
               6.00683020                7.01074047               35.03878765                0.01000001               -0.35682424               -0.15665096                0.13398474                0.68533321                0.32338835                0.25024196
               7.00368970                7.01197970               35.04261543                0.01000000               -0.24073789               -0.31335462                0.14664942                0.32208418                0.39376758                0.41936532
               8.00201544                7.01060958               35.04671297                0.01080413               -0.06296103               -0.43025444                0.15825898                0.06545420                0.31982638                0.49276008
               9.00243047                7.00845750               35.04915227                0.01000002                0.07005412               -0.53707787                0.16360749               -0.04965775                0.16017993                0.66063950
              10.00341652                7.00716590               35.04994109                0.01000001                0.09860493               -0.36711756                0.16791355               -0.05323078                0.08579649                0.69993512
               0.02777954                8.00739927               35.03641351                1.00000000               -0.03179225               -0.03139772                0.10507096                0.00032803               -0.00112087                0.02221224
               1.02746162                8.00357131               35.03541517                0.99999999               -0.03200832               -0.03199866                0.10667784                0.00006632               -0.00079892                0.00302148
               2.02713938                7.99974833               35.03442285                0.13357641               -0.02070878               -0.03252466                0.10825322               -0.02494231                0.06582350               -0.01546961
               3.02704744                7.99543129               35.03475814                0.01266014               -0.24750297               -0.23200173                0.06620444                0.72766131                0.13367423               -0.07375715
               4.02218932                8.00219503               35.03474268                0.01000000               -0.53577331               -0.07545624                0.12358563                1.09388575                0.21226537                0.00481821
               5.01633198                8.00689797               35.03714693                0.01000001               -0.59349406                0.03101628                0.12985650                0.75092559                0.37600740                0.13135952
               6.01031944                8.00999197               35.04123131                0.01000000               -0.54195808               -0.00027702                0.14499413                0.37324575                0.49268905                0.25842249
               7.00549282                8.00943391               35.04657584                0.01082457               -0.35172204               -0.12929355                0.15992803               -0.00627243                0.49906330                0.34900442
               8.00328500                8.00725402               35.05109390                0.01000002               -0.18229347               -0.32104492                0.16867232               -0.34943096                0.51857596                0.58694606
               9.00184695                8.00318813               35.05689864                0.01531407               -0.05999707               -0.39387060                0.18655458               -0.33468369                0.38268853                0.65394965
              10.00208505                8.00288648               35.05877042                0.01000000                0.02381063               -0.34357195                0.18864707               -0.22272478                0.18704054                0.61219454
               0.03161404                9.00708246               35.03651508                1.00000000               -0.03233441               -0.03199817                0.10695190                0.00032431                0.00224162                0.01942898
               1.03129070                9.00324860               35.03542998                0.99999998               -0.03256203               -0.03255867                0.10855881                0.00003796                0.00117918                0.00243943
               2.03096280                8.99942016               35.03432521                0.99999996               -0.03304009               -0.03307897                0.11022619                0.00000502               -0.00494777               -0.01139224
               3.03062990                8.99559721               35.03312058                0.01000000               -0.28588051               -0.00862087                0.11197462                0.49293219                0.13659002               -0.09459313
               4.02524519                9.00187423               35.03485054                0.01000000               -0.62910727                0.11550718                0.12155898                0.66951038                0.34688466                0.02598288
               5.01804775                9.00819669               35.03825816                0.01000000               -0.67430086                0.14587519                0.13368083                0.44537876                0.45325898                0.10739208
               6.01175918                9.01073493               35.04300226                0.01071495               -0.58727762                0.09462171                0.15194359                0.14326661                0.54701247                0.16103370
               7.00630220                9.00939383               35.04877339                0.01000002               -0.52432845                0.04999552                0.16323909               -0.16475647                0.75740221                0.17634169
               8.00127261                9.00418868               35.05790133                0.01751252               -0.30989335               -0.15804346                0.16672327               -0.44281874                0.67747201                0.43882038
               9.00010433                9.00058009               35.06225052                0.99999998               -0.08536451               -0.15735562                0.17944947               -0.26748076                0.21742810                0.26588049
               9.99956532                9.00029446               35.06225255                0.99999999               -0.05390165               -0.15663389                0.17994764               -0.14027141                0.00003420                0.17247978
               0.03545374               10.00675931               35.03651722                1.00000000               -0.03290593               -0.03231464                0.10882241                0.00005190                0.01311050                0.01437654
               1.03512468               10.00292014               35.03541957                1.00000000               -0.03314326               -0.03284665                0.11043440               -0.00023033                0.01625874                0.00101378
               2.03479087                9.99908675               35.03438866                0.99999998               -0.03363286               -0.03334106                0.11207470               -0.00025663                0.01616160               -0.00357618
               3.03445202                9.99525887               35.03329459                0.25036081               -0.59054113               -0.03383409                0.11368038                0.65313324                0.15001522               -0.00435507
               4.02298005               10.00450517               35.03494805                0.01019217               -0.90365821                0.26309413                0.15295327                0.50131581                0.31741316                0.04651833
               5.01637885               10.00981548               35.03824105                0.01047459               -0.54962096                0.16187880                0.14025049                0.20207181                0.45534658                0.06137975
               6.01198763               10.01188440               35.04336012                0.01000001               -0.38174591                0.11494727                0.15482505                0.05376258                0.57344400                0.09625400
               7.00874394               10.01043382               35.04921176                0.01450592               -0.43726330                0.10399937                0.15889277               -0.14538910                0.82682821                0.09311987
               8.00324236               10.00409315               35.05939879                0.01000002               -0.41761929               -0.00955345                0.16773719               -0.32266475                0.67167214                0.17834903
               9.00039155               10.00004102               35.06228364                0.99999999               -0.16957441               -0.05390714                0.17994926               -0.18824521                0.14403519               -0.00011108
               9.99985087                9.99975381               35.06228572                1.00000000               -0.05406767               -0.05406565                0.18044704               -0.00016513               -0.00006725                0.00007569
              -0.00153593                0.00529333               36.02833894                0.99403606               -0.02344494               -0.02184081                0.07332767                0.00142675               -0.00319049                0.00349921
               0.99822962                0.00377859               36.02892552                1.00000000               -0.02483937               -0.02478877                0.08278454                0.00150309               -0.00344276               -0.00136949
               1.99796728                0.00226293               36.02950512                0.05284611               -0.02171821               -0.02774264                0.09224060                0.01203654                0.02310018               -0.00136759
               2.99779525                0.00095716               36.03062453                0.01000001               -0.16836617               -0.02312504                0.10123411                0.27789510                0.06413399               -0.00457606
               3.99459996                0.00535985               36.03216286                0.01000000               -0.52688741                0.32344176                0.12175509                0.20981426                0.04201078                0.00671828
               4.98725750                0.01495342               36.03451733                0.01000000               -0.99937676                0.30491461                0.09511227                0.64423313                0.11534639                0.00067826
               5.97461242                0.03103013               36.03714561                0.48182531               -0.64704100               -0.02911986                0.09610768                0.72576418                0.06498790               -0.00107803
               6.97431668                0.03261509               36.03870456                0.99999999               -0.03039995               -0.03073084                0.10153175                0.00082446                0.00901028               -0.00296851
               7.97400442                0.03420733               36.04020878                1.00000000               -0.03201793               -0.03236267                0.10680744                0.00086762                0.00750856               -0.00026636
               8.97367633                0.03580583               36.04173406                1.00000000               -0.03360497               -0.03390585                0.11209573                0.00086085                0.00693335                0.00106997
               9.97333232                0.03741135               36.04322421                1.00000000               -0.03440039               -0.03555500                0.11743399                0.00051650                0.00524300                0.00513035
              -0.00000693                1.00507492               36.02799317                0.97984863               -0.02332241               -0.02176305                0.07297258               -0.00000035                0.00167026                0.00406914
               0.99975984                1.00353070               36.02857885                0.09868097               -0.02473540               -0.02481649                0.08247840                0.00008080                0.00363426               -0.00340925
               1.99949836                1.00198551               36.02920490                0.01000000               -0.03670479               -0.01307277                0.09202838                0.03189087                0.03816340                0.06338370
               2.99902575                1.00072591               36.03048591                0.01000001               -0.48991949                0.19194015                0.09213624                0.12560172                0.09135397               -0.00107877
               3.98969997                1.00859427               36.03186861                0.01000000               -0.90805272                0.27783697                0.10086410                0.51179406                0.03458585                0.05239968
               4.98086469                1.01800257               36.03384807                0.01000000               -0.83303721                0.17444939                0.09777334                0.82295691                0.06319914                0.00710332
               5.97303923                1.03073893               36.03593667                0.01000001               -0.40641818               -0.26118078                0.09819341                0.84098724                0.03112695                0.00615245
               6.97273633                1.03230778               36.03743676                1.00000000               -0.03107483               -0.03102055                0.10354535                0.00002467                0.00129444               -0.00315559
               7.97241773                1.03388371               36.03892645                1.00000000               -0.03267010               -0.03268003                0.10890276                0.00010033                0.00114283               -0.00009528
               8.97208293                1.03546677               36.04042219                0.99999999               -0.03428788               -0.03422767                0.11422918                0.00010593                0.00098835                0.00068398
               9.97173197                1.03705580               36.04190888                1.00000000               -0.03509563               -0.03589887                0.11957418               -0.00030831                0.00046753                0.00614770
               0.00155249                2.00485806               36.02765635                0.01200344               -0.02318435                0.01664763                0.07266966               -0.13531398                0.00189200                0.13195284
               1.00132064                2.00328226               36.02819280                0.01000000               -0.00712982                0.02572611                0.08210333               -0.17510759                0.07547105                0.12277764
               2.00140989                2.00200148               36.03020532                0.01000001               -0.38110557                0.09160128                0.04943578               -0.07985216                0.25355742                0.05317742
               2.99369853                2.00479597               36.03053547                0.01000000               -0.69253529                0.29168930                0.10771424                0.15916742                0.07498450                0.09031342
               3.98755918                2.01091659               36.03195823                0.01000000               -0.60632786                0.12932675                0.10240261                0.65465959                0.07085579                0.09106722
               4.98157197                2.01844241               36.03341654                0.01000001               -0.52161187               -0.10412453                0.10217204                1.00287828                0.03371554                0.05550433
               5.97712695                2.02580652               36.03486991                0.01141844               -0.51997835               -0.31948806                0.10612064                1.03824050                0.00080949                0.02717801
               6.97117241                2.03199468               36.03616254                0.01000000               -0.31397529               -0.21352494                0.10558172                0.61974033               -0.01339938                0.03668609
               7.97084744                2.03355373               36.03764578                0.02449083               -0.03330264               -0.06144301                0.11094931                0.07709075               -0.00530966                0.03814940
               8.97050635                2.03512128               36.03910073                0.99038929               -0.03496666               -0.03488559                0.11662560                0.00026868               -0.00398523               -0.00186317
               9.97014811                2.03669337               36.04061235                1.00000000               -0.03582467               -0.03668525                0.12209519               -0.00032052               -0.00148394                0.00578528
               0.00043839                3.00540787               36.02986887                0.01009443               -0.13241156                0.17245099                0.07388727               -0.12226405                0.02903249                0.25249733
               0.99911428                3.00404523               36.03037436                0.01000001               -0.20253893                0.05147705                0.07961641               -0.10682946                0.05610655                0.21114177
               1.99638761                3.00381753               36.03091970                0.01000000               -0.29101440                0.09300442                0.08576999               -0.00054105                0.01895329                0.10580863
               2.99329399                3.00655970               36.03160824                0.01000000               -0.36204469                0.07552624                0.09290828                0.49130972                0.04589747                0.14361198
               3.98914672                3.01118080               36.03260202                0.01196970               -0.36308302               -0.05756684                0.10151572                0.74586589                0.03788685                0.11127356
               4.98603233                3.01592007               36.03363121                0.01000000               -0.44474797               -0.18973464                0.10638022                1.07487175                0.01652510                0.09491712
               5.98025176                3.02434917               36.03462808                0.01000001               -0.43242033               -0.26756377                0.10805691                1.09925897               -0.02361193                0.12123006
               6.97738392                3.02803729               36.03569110                0.01000001               -0.47094062               -0.36686121                0.12247379                1.04646272               -0.05405508                0.15251122
               7.97083295                3.03265485               36.03712927                0.01267994               -0.42176289               -0.23707149                0.10100378                0.86332224               -0.22196089                0.23544294
               8.96894866                3.03476906               36.03773881                0.01000000               -0.11257855               -0.31269221                0.11930733                0.68964467               -0.04822490                0.12188092
               9.96858138                3.03632209               36.03929139                0.49742151               -0.03672866               -0.70240514                0.12460367                0.82389197               -0.00182859                0.12360262
               0.00183249                4.00830708               36.03226288                0.01000000               -0.10581027                0.22157106                0.06501758               -0.00656929                0.00825864                0.17288074
               1.00077439                4.00431180               36.03235432                0.01000000               -0.14739471                0.00031541                0.07059969                0.17389513               -0.03770930                0.19469655
               1.99888460                4.00386157               36.03229390                0.01000000               -0.23064649               -0.04691361                0.09301354                0.52940374               -0.00509263                0.13495661
               2.99616146                4.00630649               36.03268900                0.01197068               -0.28842364               -0.05955291                0.09801737                0.69550447                0.01238130                0.11190547
               3.99311612                4.00976525               36.03322208                0.01000000               -0.31302119               -0.18050460                0.10366150                0.92994463                0.02288658                0.10847786
               4.98990104                4.01464771               36.03409580                0.01000001               -0.30606050               -0.18410808                0.10928966                1.06033108                0.04463476                0.14230510
               5.98699491                4.02045524               36.03544686                0.01000001               -0.30525234               -0.37878160                0.11472673                1.17446862                0.04920229                0.20750011
               6.98379599                4.02465746               36.03693612                0.01174374               -0.28064022               -0.36418252                0.11636286                1.13141678               -0.02039723                0.25406900
               7.98138211                4.02881230               36.03754343                0.01000000               -0.15819939               -0.48599254                0.13127342                1.20874472               -0.01363879                0.28141175
               8.98063200                4.02886743               36.03889885                0.01000000                0.10688870               -0.68119609                0.12597177                0.84352885                0.00445477                0.30578070
               9.98351988                4.02264527               36.04036127                0.01008180                0.28878831               -1.05210092                0.13566024                0.63565740                0.03358113                0.26104571
               0.00829757                5.00983929               36.03406745                0.01000000               -0.12598727               -0.00821624                0.12836376                0.37327871                0.05972554                0.30103182
               1.00703770                5.00405153               36.03381313                0.01000000               -0.16582831               -0.00495751                0.11197347                0.64173878                0.02322941                0.21068855
               2.00498100                5.00287926               36.03361358                0.01000001               -0.28686499               -0.08713315                0.08941927                0.83334067               -0.00536604                0.11842432
               3.00130040                5.00536864               36.03344647                0.01000000               -0.27883069               -0.22196008                0.10156493                1.01750069                0.01057038                0.10326976
               3.99940439                5.00757071               36.03401145                0.01000001               -0.23757189               -0.20780797                0.10809189                1.06878327                0.07291982                0.12129060
               4.99654896                5.01223791               36.03531960                0.01000001               -0.28364995               -0.24650750                0.11433994                1.15673769                0.11713361                0.18683096
               5.99373139                5.01677354               36.03711269                0.01173961               -0.24468804               -0.33824652                0.12011758                1.11843170                0.09094727                0.21843414
               6.99165520                5.02075364               36.03825737                0.01000000               -0.14667612               -0.41356032                0.12527320                1.05064400                0.06198411                0.27093314
               7.99079787                5.02293500               36.03966946                0.01000001                0.01655395               -0.61439016                0.13048143                0.85971174                0.09637219                0.39731881
               8.99198628                5.02114514               36.04161962                0.01000000                0.14704958               -0.72048252                0.13703304                0.54534976                0.08552725                0.42637673
               9.99373886                5.01528007               36.04261861                0.01231876                0.17525824               -0.60532303                0.14590104                0.26048525                0.04492460                0.36741432
               0.02087358                6.00814276               36.03723826                0.59269561               -0.03043847               -0.09986244                0.10026142                0.43265701               -0.00337903                0.17778924
               1.02056919                6.00421265               36.03647317                0.01000001               -0.33196363               -0.00750105                0.10222891                0.57188279               -0.05318038                0.13244660
               2.01423431                6.00211890               36.03470759                0.01142206               -0.43745836               -0.14565780                0.10348228                0.84284270               -0.05233563                0.09345625
               3.01182003                6.00186729               36.03446129                0.01000001               -0.33058948               -0.25872681                0.10736833                1.07000310                0.05604416                0.07905085
               4.00762252                6.00560909               36.03512090                0.01000001               -0.39935353               -0.20300278                0.11287137                1.18699027                0.13484895                0.12296668
               5.00383296                6.00971756               36.03687175                0.01174137               -0.33873452               -0.21741080                0.12003872                1.13315748                0.15830568                0.15330691
               6.00084783                6.01369031               36.03838740                0.01000000               -0.25927705               -0.27802305                0.12627078                0.99385959                0.15961961                0.20764343
               6.99864741                6.01638625               36.04046045                0.01000001               -0.13314923               -0.41296912                0.13349487                0.74204359                0.21961945                0.36024140
               7.99818484                6.01652450               36.04338795                0.01000000                0.02732512               -0.59574092                0.14209826                0.46020216                0.22850451                0.49910455
               8.99919392                6.01445778               36.04564908                0.01065628                0.11374393               -0.62164941                0.15049587                0.22131433                0.13978290                0.51281026
              10.00045972                6.01053881               36.04666510                0.01017813                0.12658025               -0.39755679                0.15828191                0.09454534                0.08690175                0.48160155
               0.02481092                7.00784204               36.03738758                0.99999999               -0.03117148               -0.03052042                0.10291076                0.00019640               -0.00758022                0.02330208
               1.02449921                7.00390151               36.03646196                0.99999999               -0.03138499               -0.03138731                0.10448870               -0.00021101               -0.00890559                0.00063675
               2.02418322                6.99996611               36.03550652                0.01000000               -0.26444669               -0.12376065                0.10623714                0.50881236                0.01386190                0.02838425
               3.01921027                7.00019410               36.03503438                0.01000001               -0.44446515               -0.30755549                0.11140348                0.97469529                0.09393032                0.01534594
               4.01529392                7.00351065               36.03609283                0.01174673               -0.40396928               -0.17071796                0.11292856                1.15395362                0.17425813                0.05962484
               5.01113089                7.00788970               36.03762257                0.01000000               -0.41770119               -0.12381333                0.12450499                1.03711797                0.22924798                0.10952036
               6.00693989                7.01121308               36.04012067                0.01000001               -0.37345024               -0.16118109                0.13357762                0.71682281                0.33191835                0.26096960
               7.00366188                7.01249425               36.04406685                0.01000000               -0.25047577               -0.32546076                0.14494326                0.33698129                0.40398404                0.43584695
               8.00193038                7.01102018               36.04828287                0.01080920               -0.06318130               -0.44812567                0.15719554                0.06700639                0.32555453                0.51010554
               9.00239826                7.00871215               36.05078868                0.01000002                0.07686703               -0.56377540                0.16421425               -0.05303217                0.16184604                0.68194743
              10.00346772                7.00732894               36.05162929                0.01000001                0.10694635               -0.38461286                0.16962171               -0.05763915                0.08722446                0.71603088
               0.02875856                8.00753235               36.03746302                1.00000000               -0.03176535               -0.03130733                0.10480247                0.00038746               -0.00112688                0.02210113
               1.02844091                8.00358491               36.03648215                0.99999999               -0.03203002               -0.03198863                0.10668132                0.00007629               -0.00082767                0.00304074
               2.02811796                7.99964369               36.03550639                0.14279399               -0.03357622               -0.03257924                0.10847825                0.00039741                0.01010922               -0.01536799
               3.02776939                7.99571618               36.03474507                0.01268611               -0.25559842               -0.24094813                0.04322019                0.75330223                0.11342474               -0.03880549
               4.02300599                8.00219473               36.03607412                0.01000000               -0.54482492               -0.07597505                0.12100107                1.11969670                0.25847070                0.00094529
               5.01687289                8.00724130               36.03843114                0.01000001               -0.62131344                0.03700764                0.12915673                0.78825357                0.38224839                0.13228349
               6.01057973                8.01046669               36.04266115                0.01000000               -0.56464715                0.00331357                0.14163683                0.38843968                0.51173647                0.26473725
               7.00557994                8.00987704               36.04812628                0.01082897               -0.36363274               -0.13137569                0.15372141               -0.00503994                0.51331360                0.35884431
               8.00330707                8.00756199               36.05274435                0.01000002               -0.18777159               -0.32944939                0.16417802               -0.36500913                0.53378669                0.59362071
               9.00182451                8.00318228               36.05876502                0.01559223               -0.06168543               -0.40842115                0.18731456               -0.35066127                0.39274141                0.66203925
              10.00207336                8.00284655               36.06066440                0.01000000                0.02488500               -0.35348822                0.18999264               -0.22890290                0.18756344                0.61637400
               0.03271356                9.00721590               36.03758518                1.00000000               -0.03241670               -0.03202211                0.10706597                0.00038566                0.00225454                0.01949996
               1.03238939                9.00326174               36.03651751                0.99999998               -0.03268302               -0.03266422                0.10894105                0.00006179                0.00120569                0.00249019
               2.03205990                8.99931452               36.03543039                0.99999996               -0.03320570               -0.03325228                0.11084170                0.00011173               -0.00488731               -0.01126777
               3.03172528                8.99537514               36.03424399                0.01000000               -0.29485823               -0.03416771                0.11278767                0.52857128                0.13893536               -0.03873739
               4.02616273                9.00199115               36.03603750                0.01000000               -0.65506388                0.12884976                0.11792034                0.69593441                0.35757105                0.02259517
               5.01862400                9.00862985               36.03963236                0.01000000               -0.70448919                0.15514027                0.13639112                0.46510396                0.48023242                0.10311658
               6.01207295                9.01127935               36.04448197                0.01072482               -0.60791060                0.10134203                0.14709679                0.14904775                0.57019624                0.16331867
               7.00646579                9.00986674               36.05035483                0.01000002               -0.53739960                0.05357199                0.15657479               -0.16982053                0.77052048                0.17918579
               8.00132496                9.00443119               36.05952790                0.01724794               -0.31826601               -0.15969231                0.16239230               -0.46030076                0.68991716                0.44043636
               9.00010047                9.00054373               36.06404612                0.99999998               -0.08819219               -0.15889797                0.17967706               -0.28052829                0.22568991                0.26212897
               9.99956111                9.00025917               36.06405196                0.99999999               -0.05393538               -0.15638329                0.17993210               -0.13984330                0.00003479                0.16755646
               0.03667459               10.00689191               36.03760782                1.00000000               -0.03310655               -0.03239869                0.10931981                0.00007422                0.01314961                0.01443662
               1.03634352               10.00293162               36.03652759                1.00000000               -0.03338940               -0.03301185                0.11119920               -0.00025013                0.01630426                0.00105603
               2.03600680                9.99897865               36.03551459                0.99999998               -0.03396700               -0.03358748                0.11313129               -0.00024981                0.01620116               -0.00351038
               3.03566418                9.99503282               36.03443819                0.26522917               -0.61684120               -0.03423164                0.11504139                0.68354443                0.16246715               -0.00433267
               4.02366997               10.00477173               36.03635807                0.01059546               -0.93887071                0.27805751                0.13659510                0.51628810                0.33434897                0.05455719
               5.01688677               10.01034410               36.03969697                0.01073023               -0.56730913                0.17142532                0.14357359                0.21236694                0.47631385                0.05545477
               6.01232379               10.01249353               36.04487646                0.01000001               -0.39275349                0.12141791                0.15159703                0.05530292                0.58978923                0.09798314
               7.00903170               10.01094848               36.05077465                0.01480246               -0.44498621                0.10817366                0.15592872               -0.14967859                0.84064631                0.09278798
               8.00342407               10.00436814               36.06108010                0.01000002               -0.43228673               -0.00630492                0.16820184               -0.33729694                0.68350076                0.18195080
               9.00038596               10.00000432               36.06408326                0.99999999               -0.17892310               -0.05394121                0.17997026               -0.20391327                0.14975820               -0.00010827
               9.99984561                9.99971888               36.06408908                1.00000000               -0.05403567               -0.05402901                0.18022329               -0.00009398               -0.00007482                0.00007463
              -0.00220211                0.00567595               37.02906890                0.99350047               -0.02334388               -0.02172639                0.07266423                0.00159933               -0.00324509                0.00350642
               0.99756445                0.00411304               37.02975337                0.99999999               -0.02483346               -0.02486324                0.08276953                0.00158055               -0.00348320               -0.00139474
               1.99730122                0.00255073               37.03043096                0.06095277               -0.02380874               -0.02803379                0.09288611                0.00778855                0.02252631               -0.00138467
               2.99708827                0.00111332               37.03163722                0.01000001               -0.17038895               -0.02583729                0.10101602                0.29127726                0.06518184               -0.00258091
               3.99389344                0.00561054               37.03323118                0.01000000               -0.54775004                0.33820846                0.09975384                0.21842372                0.10490855                0.00045820
               4.98613327                0.01557403               37.03542354                0.01000000               -1.03758148                0.31311926                0.10028208                0.67199108                0.13021254                0.00316289
               5.97314181                0.03221779               37.03810356                0.47430465               -0.66425228               -0.02899915                0.09547726                0.75217612                0.06481873               -0.00108065
               6.97284823                0.03384264               37.03971641                0.99999999               -0.03020379               -0.03059403                0.10090758                0.00084413                0.00890432               -0.00305203
               7.97253773                0.03547625               37.04127414                1.00000000               -0.03186912               -0.03227699                0.10633938                0.00090762                0.00737773               -0.00027429
               8.97221085                0.03711731               37.04285332                1.00000000               -0.03351353               -0.03384890                0.11179516                0.00089847                0.00682116                0.00092939
               9.97186746                0.03876646               37.04439771                1.00000000               -0.03433818               -0.03552823                0.11729274                0.00049253                0.00514937                0.00484698
              -0.00062321                1.00545868               37.02872236                0.97558243               -0.02339257               -0.02173406                0.07288530                0.00007609                0.00170857                0.00409151
               0.99914287                1.00386441               37.02940618                0.10832266               -0.02489153               -0.02497238                0.08301068                0.00003132                0.00366159               -0.00347221
               1.99887896                1.00227039               37.03013052                0.01000000               -0.03358629               -0.02819075                0.09314531                0.00825970                0.03429676                0.01754381
               2.99847114                1.00085495               37.03143221                0.01000001               -0.50158188                0.19680099                0.09683175                0.14315818                0.07874853                0.02687975
               3.98884732                1.00899262               37.03294564                0.01000000               -0.94607906                0.29107760                0.09998439                0.53271542                0.06868230                0.03404460
               4.97954956                1.01870522               37.03478102                0.01000000               -0.86590282                0.17860688                0.09503443                0.86071863                0.06632522                0.02560519
               5.97152927                1.03192780               37.03691738                0.01000001               -0.41610585               -0.27332857                0.09790364                0.87203272                0.03072767                0.00994385
               6.97122744                1.03353670               37.03847067                1.00000000               -0.03098950               -0.03093762                0.10327028                0.00005169                0.00121824               -0.00321693
               7.97090948                1.03515348               37.04001510                1.00000000               -0.03263583               -0.03265115                0.10879849                0.00013016                0.00106267               -0.00019567
               8.97057473                1.03677882               37.04156422                0.99999999               -0.03431186               -0.03423072                0.11428503                0.00015123                0.00087907                0.00085124
               9.97022324                1.03841117               37.04310467                1.00000000               -0.03514854               -0.03592582                0.11978417               -0.00035621                0.00041386                0.00639224
               0.00098797                2.00524127               37.02838523                0.01093191               -0.02345954               -0.00126038                0.07314685               -0.12780507                0.00191303                0.12927949
               1.00075337                2.00361359               37.02901898                0.01000000               -0.02560503                0.01700540                0.08319218               -0.17340224                0.02972341                0.11772653
               2.00047587                2.00198691               37.03021420                0.01000001               -0.37620852                0.08133950                0.03861228               -0.06649847                0.06303774                0.09977622
               2.99322920                2.00504934               37.03186408                0.01000000               -0.68891956                0.29715447                0.11336667                0.18732110                0.06641616                0.08167707
               3.98669748                2.01143209               37.03300864                0.01000000               -0.64083652                0.13402580                0.10634375                0.68422947                0.03360477                0.08929485
               4.98041247                2.01914617               37.03445631                0.01000001               -0.54732434               -0.10848973                0.10351290                1.04469467                0.02456975                0.07071717
               5.97575099                2.02675122               37.03594897                0.01141921               -0.53944430               -0.33283324                0.10931420                1.07462737               -0.00215421                0.03746353
               6.96962359                2.03322389               37.03721908                0.01000000               -0.32263848               -0.21614145                0.10566470                0.62798614               -0.01730022                0.04827952
               7.96929822                2.03482322               37.03875610                0.02840601               -0.03337064               -0.04405100                0.11118922                0.04201257               -0.00499485                0.02468935
               8.96895617                2.03643269               37.04027370                0.99760080               -0.03512958               -0.03504466                0.11716330                0.00035769               -0.00344205               -0.00085070
               9.96859563                2.03804794               37.04184403                1.00000000               -0.03605448               -0.03688847                0.12288450               -0.00038125               -0.00084409                0.00662654
               0.00007604                3.00543348               37.03054360                0.01057418               -0.11468666                0.14465557                0.07829738               -0.08479577               -0.00016480                0.29081642
               0.99892918                3.00420451               37.03110087                0.01000001               -0.19814030                0.05322839                0.08081351               -0.10849568                0.01007321                0.22000857
               1.99611324                3.00389718               37.03184770                0.01000000               -0.30783981                0.08951357                0.08948190                0.03665940                0.02494208                0.15420346
               2.99277238                3.00679804               37.03254755                0.01000000               -0.38390748                0.07355171                0.09764529                0.51766825                0.02902411                0.11695331
               3.98843509                3.01167314               37.03366545                0.01197019               -0.38240282               -0.06442300                0.10744757                0.78151288                0.02882653                0.11179532
               4.98512433                3.01653543               37.03472398                0.01000000               -0.47454961               -0.19575053                0.11172772                1.11860358                0.00908196                0.10010871
               5.97894410                3.02527113               37.03576436                0.01000001               -0.47045816               -0.27275889                0.11580508                1.14791352               -0.01674496                0.12607383
               6.97571516                3.02921387               37.03700253                0.01000001               -0.52015862               -0.36969122                0.12596089                1.09683877               -0.04446049                0.15842121
               7.96854092                3.03427246               37.03799480                0.01270834               -0.41789995               -0.23245256                0.09012661                0.88323910               -0.10540665                0.15308132
               8.96735716                3.03607792               37.03895242                0.01032399               -0.07779015               -0.31666887                0.12048861                0.68148586               -0.03393896                0.12125787
               9.96698512                3.03767340               37.04055851                0.51263536               -0.03720419               -0.71599201                0.12592723                0.84289976               -0.00145881                0.12318663
               0.00174998                4.00813438               37.03317064                0.01000001               -0.16302212                0.28423445                0.10063356                0.14576149               -0.02086411                0.32706046
               1.00011976                4.00467816               37.03308943                0.01000000               -0.15672253               -0.01964074                0.09322069                0.25200900               -0.01874680                0.20933708
               1.99861553                4.00377718               37.03318905                0.01000000               -0.21565764               -0.05118633                0.09045511                0.54882799                0.00702980                0.12556837
               2.99580660                4.00652038               37.03368904                0.01197079               -0.30125915               -0.06405520                0.10227027                0.73874301                0.01395457                0.11664701
               3.99259035                4.01014363               37.03428139                0.01000000               -0.33100278               -0.19151712                0.10860480                0.97222797                0.01921510                0.10962823
               4.98918655                4.01523116               37.03522251                0.01000001               -0.32797634               -0.19059706                0.11514841                1.10803485                0.04216364                0.14519774
               5.98603082                4.02129604               37.03663747                0.01000001               -0.33137547               -0.38909210                0.12088146                1.23952649                0.04849401                0.21042929
               6.98255904                4.02583006               37.03813938                0.01174676               -0.29659353               -0.37597876                0.12266729                1.20515791               -0.00669059                0.23640849
               7.98009895                4.03017417               37.03893010                0.01000000               -0.16870489               -0.51435014                0.13295252                1.28767589               -0.03143164                0.27510859
               8.97918494                4.03009931               37.04010578                0.01000000                0.10818579               -0.70108512                0.12103158                0.87371889               -0.01105316                0.32881790
               9.98226266                4.02372810               37.04163000                0.01055209                0.30777219               -1.09148180                0.12842887                0.67050686                0.02007457                0.28983244
               0.00990372                5.01111817               37.03581946                0.01384004               -0.15771611                0.00575172                0.12558713                0.26160964                0.02433367                0.32770088
               1.00832655                5.00381170               37.03522506                0.01000000               -0.23280688               -0.02383925                0.12343273                0.64644225                0.03617425                0.18503212
               2.00524758                5.00287345               37.03447461                0.01000001               -0.35728810               -0.08215860                0.09948509                0.89119544               -0.01257474                0.12844117
               3.00118079                5.00551694               37.03447487                0.01000000               -0.30393548               -0.23167112                0.10494856                1.06700814                0.01699370                0.10759504
               3.99916887                5.00784280               37.03511087                0.01000001               -0.25240900               -0.21671406                0.11199540                1.11766897                0.07329339                0.12474624
               4.99613261                5.01272349               37.03648401                0.01000001               -0.30165731               -0.25650108                0.11841954                1.21090654                0.11673711                0.19030936
               5.99313572                5.01748929               37.03833614                0.01174153               -0.25962109               -0.35130832                0.12439208                1.17798941                0.09142505                0.22072065
               6.99094019                5.02169429               37.03955279                0.01000000               -0.15552660               -0.43668524                0.13091560                1.11245986                0.05971595                0.27352343
               7.99002519                5.02398545               37.04101683                0.01000001                0.01687113               -0.64731943                0.13598157                0.90490740                0.09066213                0.39608591
               8.99127761                5.02205622               37.04299561                0.01000000                0.15562498               -0.75412439                0.13822635                0.57941535                0.07601457                0.44494484
               9.99313769                5.01584377               37.04406734                0.01282643                0.18600765               -0.64389543                0.14423149                0.27924476                0.04327009                0.38995302
               0.02159511                6.00824941               37.03823623                0.57507763               -0.03017886               -0.15832401                0.09920843                0.38257001               -0.00336819                0.13901039
               1.02129332                6.00420137               37.03749218                0.01000001               -0.34304532                0.00403157                0.10145313                0.54497100               -0.05313164                0.11150454
               2.01473420                6.00213401               37.03574687                0.01142232               -0.45579482               -0.15169558                0.10390920                0.87322218               -0.05061940                0.10384480
               3.01217742                6.00188696               37.03554439                0.01000001               -0.34985128               -0.26282721                0.10829913                1.11551059                0.05859487                0.07972898
               4.00773717                6.00580935               37.03624862                0.01000001               -0.42096177               -0.21100835                0.11409714                1.23882228                0.13642429                0.12529091
               5.00375819                6.01010114               37.03808255                0.01174206               -0.35586870               -0.22580551                0.12214833                1.18556056                0.16109795                0.15599583
               6.00061980                6.01426988               37.03966507                0.01000000               -0.27230546               -0.29015914                0.12912289                1.04418957                0.16174913                0.21243099
               6.99831208                6.01709636               37.04181563                0.01000001               -0.13923152               -0.43317470                0.13716612                0.78124453                0.22191450                0.36748948
               7.99783517                6.01722778               37.04482560                0.01000000                0.03014289               -0.62650789                0.14516452                0.48499867                0.22914503                0.51165240
               8.99891493                6.01501683               37.04716478                0.01067375                0.12186486               -0.65378591                0.15269458                0.23328880                0.13984787                0.52799850
              10.00027247                6.01085019               37.04825173                0.01083026                0.13575325               -0.41782753                0.15942342                0.10044239                0.08651020                0.49410548
               0.02565120                7.00795169               37.03841326                0.99999999               -0.03098185               -0.03028615                0.10214266                0.00024668               -0.00791959                0.02331152
               1.02534138                7.00389233               37.03750476                0.99999999               -0.03123786               -0.03123991                0.10400660               -0.00018789               -0.00911857                0.00058359
               2.02502644                6.99983954               37.03656800                0.01000000               -0.27628568               -0.13084578                0.10602028                0.53562542                0.00975052                0.02829281
               3.01981566                7.00026039               37.03603437                0.01000001               -0.46476528               -0.32206959                0.10386488                1.01769387                0.09386257                0.00420854
               4.01573113                7.00362263               37.03724308                0.01174975               -0.42161825               -0.17700444                0.11506495                1.19412347                0.18344612                0.05590112
               5.01138330                7.00820738               37.03886151                0.01000000               -0.43534203               -0.12836426                0.12424862                1.08476037                0.23508200                0.11220577
               6.00702429                7.01168611               37.04145921                0.01000001               -0.38880625               -0.16722293                0.13435390                0.75313218                0.33985435                0.26578752
               7.00360717                7.01303080               37.04551430                0.01000000               -0.26097990               -0.33867716                0.14545134                0.35665005                0.41304159                0.44453678
               8.00180469                7.01145530               37.04985688                0.01082102               -0.06430962               -0.46731915                0.15844984                0.07182620                0.33168207                0.52069869
               9.00232098                7.00898050               37.05243656                0.01000002                0.08375579               -0.59226773                0.16570820               -0.05506460                0.16405468                0.70060432
              10.00347981                7.00748722               37.05333352                0.01000001                0.11588288               -0.40294490                0.17107747               -0.06107379                0.08888486                0.73104416
               0.02971875                8.00764369               37.03850956                1.00000000               -0.03170447               -0.03120130                0.10446177                0.00045309               -0.00113850                0.02198752
               1.02940171                8.00357657               37.03754880                0.99999999               -0.03200521               -0.03196823                0.10661928                0.00008162               -0.00084830                0.00305190
               2.02907865                7.99951709               37.03659241                0.15189088               -0.03267491               -0.03264693                0.10871236               -0.00094401               -0.00131447               -0.01528077
               3.02874821                7.99544556               37.03562255                0.01271387               -0.27029939               -0.25655284                0.09595086                0.78689987                0.12399788               -0.05942392
               4.02367266                8.00226926               37.03716270                0.01000551               -0.56791463               -0.07902264                0.11173319                1.16826991                0.27636861                0.00265579
               5.01738991                8.00753385               37.03973006                0.01000001               -0.64068190                0.03929057                0.12797048                0.82403959                0.39651478                0.13321007
               6.01085902                8.01092542               37.04406405                0.01000000               -0.58570114                0.00499406                0.14003755                0.41026521                0.52415742                0.26810761
               7.00567589                8.01032281               37.04965026                0.01083984               -0.37685145               -0.13508106                0.15253181                0.00077413                0.52509072                0.36289724
               8.00332199                8.00788140               37.05437746                0.01000002               -0.19470859               -0.33968179                0.16372885               -0.37881909                0.55067374                0.59607029
               9.00178172                8.00317147               37.06064494                0.01589503               -0.06422140               -0.42380389                0.18886851               -0.36585066                0.40453783                0.66884127
              10.00203756                8.00279129               37.06257028                0.01000000                0.02558430               -0.36331534                0.19102400               -0.23429115                0.18791594                0.61959218
               0.03379449                9.00732766               37.03865640                1.00000000               -0.03248833               -0.03204588                0.10716719                0.00045217                0.00226828                0.01958244
               1.03346961                9.00325297               37.03760880                0.99999998               -0.03279597               -0.03277441                0.10931765                0.00006140                0.00123844                0.00254582
               2.03313857                8.99918660               37.03654204                0.99999997               -0.03340555               -0.03344734                0.11150190                0.00010083               -0.00482594               -0.01117646
               3.03280149                8.99512934               37.03537633                0.01000000               -0.30651625               -0.03308731                0.11371846                0.54826238                0.13989276               -0.02727107
               4.02700824                9.00204218               37.03720895                0.01000000               -0.67967794                0.13429556                0.11794605                0.72997227                0.36520546                0.02844350
               5.01920794                9.00899319               37.04098598                0.01000000               -0.72838052                0.16307535                0.13331791                0.48703204                0.49604475                0.10244413
               6.01244063                9.01178599               37.04594420                0.01074007               -0.62706310                0.10648288                0.14540497                0.15913525                0.58371900                0.16462605
               7.00666667                9.01032918               37.05190488                0.01000002               -0.55304894                0.05635646                0.15490005               -0.17234970                0.78095338                0.17875689
               8.00137965                9.00466166               37.06114917                0.01702784               -0.32862990               -0.16268122                0.16268735               -0.47714908                0.70257415                0.44163390
               9.00009408                9.00050443               37.06584406                0.99999998               -0.09126539               -0.16034495                0.17991634               -0.29223712                0.23446173                0.25793570
               9.99955435                9.00022091               37.06585120                0.99999999               -0.05397286               -0.15551236                0.17991659               -0.13834286                0.00003574                0.16213206
               0.03787718               10.00700277               37.03870362                1.00000000               -0.03331894               -0.03248871                0.10986110                0.00010064                0.01321052                0.01451008
               1.03754399               10.00292109               37.03764355                1.00000000               -0.03364443               -0.03318793                0.11201806               -0.00029260                0.01637958                0.00110210
               2.03720429                9.99884815               37.03665129                0.99999998               -0.03430571               -0.03384534                0.11423146               -0.00029109                0.01628457               -0.00346295
               3.03685788                9.99478382               37.03559542                0.30132823               -0.63980212               -0.03455178                0.11641736                0.71098956                0.16973559               -0.00435162
               4.02440825               10.00495517               37.03767995                0.01101869               -0.97355673                0.29129944                0.13098608                0.54057763                0.34927252                0.06209284
               5.01738674               10.01079536               37.04111252                0.01100488               -0.58512580                0.18021695                0.13971215                0.22287580                0.48629426                0.05433330
               6.01270573               10.01305507               37.04639206                0.01000001               -0.40167568                0.12690834                0.15082941                0.05923929                0.59962992                0.09850899
               7.00935323               10.01144994               37.05233033                0.01512071               -0.45509853                0.11207636                0.15566452               -0.15270939                0.85119960                0.09111990
               8.00360376               10.00462778               37.06276283                0.01000002               -0.44877515               -0.00338841                0.16865289               -0.35185766                0.69526190                0.18651117
               9.00037773                9.99996457               37.06588305                0.99999999               -0.18830138               -0.05398526                0.17998761               -0.21897144                0.15553973               -0.00011534
               9.99983774                9.99968105               37.06589018                1.00000000               -0.05399902               -0.05398655                0.17998826               -0.00001390               -0.00007704                0.00007868
              -0.00296976                0.00605654               38.02979223                0.99298155               -0.02323381               -0.02161151                0.07199779                0.00178979               -0.00327823                0.00352057
               0.99679790                0.00444507               38.03058091                0.99999999               -0.02481416               -0.02494209                0.08273149                0.00168010               -0.00350372               -0.00140150
               1.99653395                0.00283611               38.03136285                0.06937666               -0.02496156               -0.02829720                0.09347499                0.00595481                0.02109454               -0.00139590
               2.99629867                0.00131555               38.03264486                0.01000001               -0.18110776               -0.02789114                0.10128319                0.30389297                0.05574228               -0.00171985
               3.99291180                0.00594009               38.03415794                0.01000000               -0.56546475                0.35576000                0.09411263                0.23061031                0.07260269                0.00554162
               4.98498937                0.01630173               38.03652297                0.01007838               -1.06479341                0.31801744                0.10031207                0.69504666                0.06553004                0.03600248
               5.97161593                0.03338087               38.03905516                0.46707200               -0.68325910               -0.02884701                0.09484123                0.77201000                0.05456470               -0.00107913
               6.97132419                0.03504554               38.04072271                1.00000000               -0.03004312               -0.03047658                0.10038509                0.00083231                0.00877696               -0.00311821
               7.97101507                0.03671994               38.04233557                1.00000000               -0.03175074               -0.03221062                0.10596842                0.00088978                0.00725485               -0.00030694
               8.97068918                0.03840261               38.04396997                1.00000000               -0.03342761               -0.03391959                0.11158929                0.00089847                0.00671633                0.00094596
               9.97034652                0.04009438               38.04557006                1.00000000               -0.03426600               -0.03570593                0.11724157                0.00046128                0.00506068                0.00484736
              -0.00134040                1.00584042               38.02945088                0.97122231               -0.02346878               -0.02170590                0.07282060                0.00017336                0.00173810                0.00412390
               0.99842491                1.00419565               38.03023907                0.11798791               -0.02506702               -0.02514809                0.08357450                0.00004759                0.00368782               -0.00350957
               1.99815826                1.00255314               38.03106780                0.01000000               -0.03196546               -0.02781431                0.09432772                0.00662875                0.03173920                0.00857668
               2.99778560                1.00103664               38.03242254                0.01000001               -0.52167248                0.19993101                0.10062314                0.14391541                0.06529871                0.02665156
               3.98772481                1.00949770               38.03386830                0.01000000               -0.97830772                0.30212898                0.09381204                0.55862613                0.02857385                0.05553312
               4.97821945                1.01948191               38.03574876                0.01000000               -0.88803415                0.18060274                0.09445891                0.88641882                0.01456672                0.05735816
               5.96996413                1.03309240               38.03789474                0.01000001               -0.42782338               -0.28360332                0.09755050                0.89820088                0.02832961                0.01516837
               6.96966298                1.03474077               38.03950217                1.00000000               -0.03093501               -0.03085643                0.10302238                0.00002520                0.00111110               -0.00329299
               7.96934543                1.03639783               38.04110242                1.00000000               -0.03260221               -0.03260596                0.10867317                0.00002528                0.00105769               -0.00022675
               8.96901094                1.03806342               38.04270789                0.99999999               -0.03430353               -0.03432742                0.11438199               -0.00000508                0.00089730                0.00083125
               9.96865936                1.03973732               38.04430456                0.99999998               -0.03515802               -0.03611648                0.12006589               -0.00040716                0.00044606                0.00630457
               0.00032325                2.00562242               38.02911928                0.01000001               -0.02371139                0.02991854                0.07367328               -0.13498304                0.00192591                0.13690911
               1.00008614                2.00394211               38.02985665                0.01000000               -0.02488557                0.00896487                0.08436295               -0.18779374                0.02084482                0.12000690
               1.99982554                2.00227982               38.03097756                0.01000001               -0.39268586                0.06868080                0.08400802               -0.06732126                0.07557400                0.10975977
               2.99223242                2.00531417               38.03280280                0.01000000               -0.70932413                0.30185834                0.09755242                0.19869881                0.05212315                0.08673510
               3.98563906                2.01198267               38.03408510                0.01000000               -0.65546888                0.13231327                0.10814111                0.72108106                0.01454862                0.10635200
               4.97912304                2.01991379               38.03548679                0.01000001               -0.56589854               -0.11629304                0.10585783                1.08108658                0.01489772                0.08711304
               5.97432108                2.02770881               38.03705620                0.01141933               -0.55518863               -0.34551293                0.11105903                1.10944009               -0.00948897                0.04495972
               6.96801927                2.03442841               38.03827584                0.01000000               -0.33140778               -0.22276784                0.10567393                0.64801534               -0.02258797                0.05450071
               7.96769293                2.03606782               38.03986956                0.02998195               -0.03348427               -0.04276781                0.11140815                0.03585761               -0.00491026                0.01455369
               8.96734958                2.03771606               38.04144400                1.00000000               -0.03511854               -0.03506386                0.11705834               -0.00002680               -0.00339334               -0.00091556
               9.96699056                2.03937205               38.04307004                1.00000000               -0.03590245               -0.03687323                0.12265926               -0.00036811               -0.00080092                0.00644610
              -0.00067944                3.00643879               38.03143481                0.01094008               -0.13089269                0.19750043                0.08945054               -0.14366592               -0.02816902                0.33742380
               0.99801163                3.00437495               38.03199063                0.01000001               -0.19403946                0.02161220                0.09363505               -0.11085702               -0.02237137                0.23209572
               1.99543977                3.00392675               38.03270933                0.01000000               -0.29774527                0.07331042                0.09044954                0.06494523                0.00796054                0.16538321
               2.99205673                3.00707381               38.03356114                0.01000000               -0.39464772                0.06989707                0.10339915                0.56665042                0.02226907                0.12566008
               3.98754682                3.01214396               38.03475097                0.01197043               -0.39708401               -0.07351408                0.11036383                0.82050702                0.02083332                0.11291725
               4.98411505                3.01715605               38.03586576                0.01000000               -0.49542539               -0.20610722                0.11572930                1.16516829                0.00443203                0.10664694
               5.97763831                3.02618215               38.03694418                0.01000001               -0.49253848               -0.28083789                0.11773283                1.19281038               -0.01405654                0.12968460
               6.97426428                3.03028541               38.03821031                0.01000001               -0.54316922               -0.37965197                0.11880034                1.13553056               -0.04617545                0.15951356
               7.96677493                3.03554247               38.03893180                0.01273832               -0.42790558               -0.23876896                0.09975237                0.90854375               -0.07860737                0.14171171
               8.96570617                3.03736214               38.04014858                0.01051691               -0.07174545               -0.31577307                0.11959853                0.69094197               -0.02377199                0.12079251
               9.96534002                3.03899986               38.04180993                0.52795240               -0.03661509               -0.72194797                0.12521390                0.85789083               -0.00139373                0.12418347
               0.00157762                4.00957243               38.03427556                0.01402484               -0.11965880                0.24444605                0.08157335                0.01281714               -0.03352668                0.33820703
               1.00038103                4.00437435               38.03421873                0.01000000               -0.15760201               -0.05127607                0.10572272                0.26340035               -0.00179612                0.18890026
               1.99842558                4.00374603               38.03410300                0.01000000               -0.25164075               -0.05182428                0.09859670                0.61888447               -0.00618355                0.14890360
               2.99534822                4.00671211               38.03473441                0.01197082               -0.32293124               -0.07043054                0.10687525                0.78568214                0.01154367                0.11877012
               3.99196696                4.01051239               38.03539417                0.01000000               -0.34799987               -0.20227823                0.11340707                1.01969128                0.01563278                0.11054575
               4.98838822                4.01579164               38.03639877                0.01000001               -0.34595164               -0.19859944                0.11931003                1.15615167                0.04019612                0.14532942
               5.98504792                4.02209205               38.03786449                0.01000001               -0.35093360               -0.40108943                0.12343594                1.29482608                0.04939526                0.20974478
               6.98136955                4.02683537               38.03938947                0.01175036               -0.31304223               -0.38687804                0.12509389                1.25524679               -0.00231939                0.22958467
               7.97878708                4.03129244               38.04020248                0.01001727               -0.18292555               -0.52906315                0.12559347                1.34792984               -0.03609682                0.28267859
               8.97771104                4.03140060               38.04131949                0.01000000                0.10429278               -0.71885508                0.12205893                0.91952754               -0.01193308                0.33941406
               9.98087293                4.02493309               38.04292985                0.01104150                0.31618964               -1.12712254                0.12810179                0.70928892                0.02008172                0.30283088
               0.00997305                5.01132771               38.03657920                0.01263297               -0.08670170               -0.06216272                0.04308131                0.23800584               -0.05822651                0.25172189
               1.00910604                5.00334942               38.03628178                0.01000000               -0.22466768               -0.01056546                0.08724370                0.65887202               -0.04108093                0.19586124
               2.00547970                5.00289027               38.03560328                0.01000001               -0.40510133               -0.08218108                0.11324260                0.95299520               -0.03560393                0.13287933
               3.00100401                5.00566520               38.03554544                0.01000000               -0.33092931               -0.24048749                0.10937701                1.11750414                0.00859230                0.10868375
               3.99886111                5.00809840               38.03625135                0.01000001               -0.26727925               -0.22648482                0.11586369                1.16823688                0.07223463                0.12412972
               4.99565842                5.01318406               38.03768799                0.01000001               -0.31850040               -0.26658311                0.12196810                1.26561037                0.11714922                0.18962373
               5.99249111                5.01816036               38.03960053                0.01174237               -0.27447995               -0.36380911                0.12782069                1.23328010                0.09284949                0.21960793
               6.99016883                5.02254785               38.04087568                0.01000000               -0.16614083               -0.45304160                0.13270485                1.16782396                0.06013417                0.27281524
               7.98916829                5.02496121               38.04238909                0.01000001                0.01436187               -0.66874708                0.13687474                0.95343504                0.08696509                0.39949728
               8.99045606                5.02298504               38.04438415                0.01000000                0.16462611               -0.79118983                0.13921142                0.61749540                0.07010508                0.46145458
               9.99246081                5.01645741               38.04550324                0.01336518                0.20047478               -0.68891832                0.14433453                0.30439176                0.04069385                0.40772658
               0.02229431                6.00832917               38.03922242                0.55818824               -0.02983947               -0.16463825                0.09791335                0.40821078               -0.00335465                0.14893517
               1.02199592                6.00416304               38.03850223                0.01000001               -0.35623001                0.02535736                0.10043936                0.54146476               -0.05279668                0.10758534
               2.01516971                6.00210241               38.03678577                0.01142286               -0.47528733               -0.16019235                0.10303515                0.90541208               -0.05570114                0.09475398
               3.01249017                6.00190236               38.03662728                0.01000001               -0.36784404               -0.27325415                0.10964962                1.16443597                0.05764250                0.07641823
               4.00781283                6.00598270               38.03740284                0.01000001               -0.44258526               -0.21918997                0.11665167                1.29161027                0.13927552                0.12219978
               5.00363847                6.01045998               38.03931471                0.01174387               -0.37315517               -0.23488754                0.12447639                1.23955729                0.16449404                0.15434697
               6.00034973                6.01481587               38.04096985                0.01000000               -0.28566470               -0.30152506                0.13165027                1.09538210                0.16572560                0.21237748
               6.99792517                6.01777454               38.04320377                0.01000001               -0.14655669               -0.44987481                0.13995423                0.82289205                0.22541044                0.37044901
               7.99741860                6.01791750               38.04629124                0.01000000                0.03197884               -0.65394582                0.14767894                0.51378680                0.23080176                0.52064011
               8.99856475                6.01557681               38.04870297                0.01069615                0.12987162               -0.68704789                0.15498437                0.24919364                0.14033623                0.54134812
              10.00001603                6.01115473               38.04985357                0.01152324                0.14512778               -0.44130689                0.16102858                0.10732591                0.08672994                0.50699882
               0.02646953                7.00803495               38.03943043                0.99999999               -0.03074340               -0.03001067                0.10121155                0.00031252               -0.00825538                0.02324453
               1.02616209                7.00385657               38.03854209                1.00000000               -0.03104538               -0.03105684                0.10339337               -0.00016805               -0.00933467                0.00046383
               2.02584862                6.99968642               38.03762692                0.01000000               -0.28748260               -0.13691870                0.10571703                0.55958746                0.00948549                0.02786645
               3.02041244                7.00020011               38.03711168                0.01000001               -0.48564594               -0.33583130                0.10923751                1.06085294                0.09627437               -0.00671010
               4.01613570                7.00371460               38.03839413                0.01175361               -0.43980214               -0.18503583                0.11633704                1.24496065                0.18939265                0.05123231
               5.01161640                7.00848631               38.04010755                0.01000000               -0.45257551               -0.13394772                0.12533548                1.13393153                0.24320844                0.10864376
               6.00708419                7.01212986               38.04280775                0.01000001               -0.40456811               -0.17360081                0.13583715                0.79284955                0.34870315                0.26624168
               7.00352504                7.01355036               38.04697587                0.01000000               -0.27212178               -0.35150712                0.14727280                0.37978067                0.42301663                0.44874234
               8.00164176                7.01188230               38.05145187                0.01083840               -0.06611656               -0.48631981                0.16089051                0.08005001                0.33863575                0.52794393
               9.00220271                7.00924408               38.05410285                0.01000002                0.09048647               -0.62126014                0.16773830               -0.05466635                0.16650359                0.71773504
              10.00345149                7.00763127               38.05505084                0.01000001                0.12487794               -0.42170023                0.17243956               -0.06303234                0.09020847                0.74515142
               0.03065732                8.00772896               38.03955226                1.00000000               -0.03162302               -0.03107332                0.10403438                0.00052478               -0.00115459                0.02187444
               1.03034109                8.00354191               38.03861454                0.99999999               -0.03196970               -0.03193352                0.10650133                0.00007519               -0.00086986                0.00305857
               2.03001792                7.99936404               38.03768063                0.16036747               -0.03310152               -0.03271499                0.10891704               -0.00044723               -0.00481189               -0.01519235
               3.02967906                7.99518574               38.03666408                0.01274429               -0.27960346               -0.26716338                0.10621194                0.81808632                0.12370868               -0.05761231
               4.02442585                8.00228198               38.03830878                0.01002560               -0.58886083               -0.08359111                0.11558044                1.21583901                0.29140664               -0.00223209
               5.01790184                8.00778103               38.04099055                0.01000001               -0.66415915                0.04049810                0.12656533                0.86275580                0.41062107                0.12986620
               6.01114267                8.01134385               38.04546190                0.01000000               -0.60667458                0.00570003                0.13994083                0.43538009                0.53853085                0.26788210
               7.00576835                8.01074439               38.05117692                0.01085600               -0.39083982               -0.13942735                0.15365904                0.01010455                0.53717506                0.36407051
               8.00332587                8.00819110               38.05601892                0.01000002               -0.20229493               -0.35018985                0.16507823               -0.38986414                0.56836564                0.59653856
               9.00172245                8.00315160               38.06254239                0.01621866               -0.06724371               -0.43898747                0.19055803               -0.37927028                0.41686129                0.67467091
              10.00198100                8.00272072               38.06448488                0.01000000                0.02585509               -0.37246806                0.19170011               -0.23828460                0.18785646                0.62232808
               0.03485413                9.00741348               38.03972853                1.00000000               -0.03256085               -0.03206411                0.10723896                0.00052285                0.00228661                0.01967175
               1.03452852                9.00321790               38.03870386                0.99999998               -0.03291425               -0.03288726                0.10970291                0.00004994                0.00127573                0.00260389
               2.03419584                8.99903212               38.03766043                0.99999996               -0.03361484               -0.03365693                0.11218223                0.00008206               -0.00476968               -0.01109306
               3.03385622                8.99485685               38.03651836                0.01000000               -0.31693256               -0.03390607                0.11468271                0.56809132                0.14105419               -0.02371857
               4.02785719                9.00204277               38.03839642                0.01000000               -0.70232902                0.13948002                0.11842981                0.75759449                0.37662479                0.02849504
               5.01980964                9.00929627               38.04229872                0.01000000               -0.75143838                0.16983276                0.12933844                0.50998909                0.51400092                0.09997103
               6.01282843                9.01224386               38.04739007                0.01076090               -0.64648826                0.11120651                0.14446080                0.17107268                0.59854786                0.16418297
               7.00687988                9.01076181               38.05345283                0.01000002               -0.56955804                0.05877918                0.15533402               -0.17243901                0.79165041                0.17690933
               8.00143726                9.00487850               38.06278165                0.01684425               -0.33961000               -0.16600210                0.16403738               -0.49233827                0.71561299                0.44261250
               9.00008768                9.00046433               38.06764445                0.99999997               -0.09448559               -0.16137869                0.18016965               -0.30248196                0.24292591                0.25310014
               9.99954755                9.00018191               38.06765029                0.99999999               -0.05401258               -0.15391201                0.17990251               -0.13580228                0.00003660                0.15637882
               0.03905893               10.00708768               38.03980504                1.00000000               -0.03354871               -0.03258051                0.11043525                0.00012874                0.01328722                0.01459870
               1.03872345               10.00288416               38.03876795                1.00000000               -0.03391566               -0.03337411                0.11290461               -0.00034652                0.01645911                0.00114598
               2.03838062                9.99869090               38.03779922                0.99999997               -0.03466086               -0.03412237                0.11538340               -0.00034971                0.01633916               -0.00341851
               3.03803023                9.99450762               38.03676654                0.33323813               -0.66211497               -0.03492294                0.11783233                0.73643458                0.17494781               -0.00435417
               4.02513832               10.00507158               38.03897780                0.01146355               -1.00648448                0.30288060                0.12762670                0.56161595                0.36526654                0.06342624
               5.01790054               10.01117768               38.04249121                0.01129816               -0.60198689                0.18814131                0.13552985                0.23390956                0.50207470                0.05267848
               6.01309858               10.01356798               38.04789305                0.01000001               -0.41078068                0.13241255                0.15014123                0.06413048                0.61070543                0.09872304
               7.00968493               10.01191998               38.05388794                0.01546081               -0.46609970                0.11581678                0.15609979               -0.15434150                0.86161666                0.08871009
               8.00377659               10.00487106               38.06445315                0.01000002               -0.46577631               -0.00074394                0.16958694               -0.36586509                0.70673874                0.19068210
               9.00036940                9.99992403               38.06768302                0.99999999               -0.19733963               -0.05403011                0.18000524               -0.23325680                0.16108100               -0.00012073
               9.99982980                9.99964248               38.06768885                1.00000000               -0.05396033               -0.05394264                0.17973806                0.00006966               -0.00008037                0.00008167
              -0.00384504                0.00642906               39.03050886                0.99246079               -0.02311966               -0.02149555                0.07132810                0.00198649               -0.00330814                0.00353252
               0.99592376                0.00476870               39.03140800                0.99999999               -0.02478938               -0.02502222                0.08268277                0.00178500               -0.00352774               -0.00139834
               1.99565917                0.00311289               39.03230046                0.07810213               -0.02578665               -0.02856835                0.09404516                0.00485224                0.01957287               -0.00140689
               2.99540803                0.00152355               39.03366288                0.01000001               -0.20958958               -0.02935121                0.10256130                0.31624852                0.04607584               -0.00143696
               3.99146738                0.00630066               39.03511343                0.01000000               -0.64306834                0.38754625                0.11189706                0.27846933                0.03813014               -0.00250919
               4.98254666                0.01784251               39.03742979                0.01155955               -1.07170035                0.30460536                0.09516217                0.73759770               -0.04130739                0.10036488
               5.97003337                0.03451704               39.04000039                0.46006623               -0.64016508               -0.02869120                0.09420209                0.74985022                0.05356888               -0.00104971
               6.96974336                0.03622136               39.04172411                1.00000000               -0.02988969               -0.03036457                0.09988556                0.00083099                0.00867609               -0.00318577
               7.96943558                0.03793640               39.04339351                1.00000000               -0.03163406               -0.03214547                0.10559950                0.00088496                0.00720877               -0.00032516
               8.96911068                0.03966038               39.04508510                1.00000000               -0.03335466               -0.03389710                0.11138324                0.00088566                0.00671574                0.00099391
               9.96876848                0.04139441               39.04674254                1.00000000               -0.03421939               -0.03571144                0.11717758                0.00043522                0.00507399                0.00491516
              -0.00216482                1.00621411               39.03017877                0.96685596               -0.02354833               -0.02167746                0.07276121                0.00027793                0.00176977                0.00414782
               0.99759970                1.00451848               39.03107767                0.12807800               -0.02524559               -0.02532689                0.08414556                0.00006659                0.00371561               -0.00353316
               1.99733027                1.00282720               39.03201708                0.01000000               -0.03115355               -0.02861558                0.09552488                0.00467911                0.02987517                0.00635639
               2.99697662                1.00123004               39.03344468                0.01000001               -0.56188395                0.20609486                0.10350928                0.15525088                0.05332785                0.02667551
               3.98609259                1.01017612               39.03482188                0.01000000               -1.05810883                0.31878982                0.11481398                0.62478040               -0.01103847                0.06737057
               4.97581445                1.02088857               39.03667020                0.01000000               -0.88750694                0.14644571                0.10936996                0.96233374               -0.08683100                0.11207055
               5.96834245                1.03423013               39.03886839                0.01000001               -0.38862310               -0.29580299                0.09719917                0.88839713                0.02800347                0.02079105
               6.96804199                1.03591771               39.04053111                0.99946848               -0.03087684               -0.03078006                0.10278706               -0.00000379                0.00103515               -0.00335419
               7.96772491                1.03761495               39.04218856                1.00000000               -0.03257279               -0.03257438                0.10857206               -0.00000099                0.00110450               -0.00022356
               8.96739053                1.03932141               39.04385186                0.99999999               -0.03430504               -0.03433471                0.11440927               -0.00002496                0.00094352                0.00084117
               9.96703881                1.04103729               39.04550598                0.99999998               -0.03517184               -0.03614575                0.12020281               -0.00045976                0.00045665                0.00630761
              -0.00044824                2.00599551               39.02985869                0.01000000               -0.02397722                0.04057876                0.07421838               -0.14504180                0.00194135                0.14428634
               0.99931199                2.00426217               39.03070624                0.01000000               -0.02552855               -0.00170701                0.08555542               -0.19237004                0.01870336                0.12607364
               1.99904119                2.00254058               39.03189436                0.01000001               -0.40739339                0.06260992                0.09413308               -0.06225257                0.07168420                0.10768711
               2.99116412                2.00564545               39.03381513                0.01000000               -0.73683690                0.30747989                0.10650932                0.21676926                0.05220304                0.09057935
               3.98430446                2.01267646               39.03517146                0.01000000               -0.67123962                0.12231450                0.11492262                0.77902656                0.00016669                0.12134851
               4.97773933                2.02077143               39.03657346                0.01000001               -0.57661443               -0.15660876                0.11508045                1.15649149                0.01487105                0.10099893
               5.97277217                2.02860098               39.03817015                0.01141925               -0.56904351               -0.35867967                0.10997507                1.14051460               -0.02041371                0.04793259
               6.96635846                2.03560576               39.03933256                0.01000000               -0.33701556               -0.23135999                0.10571356                0.67229878               -0.02822263                0.05860979
               7.96603186                2.03728491               39.04098427                0.03087940               -0.03353151               -0.04205888                0.11157021                0.03367652               -0.00486924                0.01028071
               8.96568783                2.03897369               39.04261487                0.99999999               -0.03521636               -0.03515636                0.11729369               -0.00001787               -0.00342964               -0.00107511
               9.96532753                2.04067149               39.04429722                1.00000000               -0.03603031               -0.03700152                0.12301066               -0.00043335               -0.00097770                0.00632803
              -0.00159896                3.00702568               39.03233261                0.01119071               -0.11938064                0.18793121                0.08305436               -0.17206768               -0.02638004                0.28602800
               0.99720723                3.00448434               39.03297357                0.01000001               -0.18495514               -0.00485789                0.09573828               -0.10009398               -0.01402065                0.24132826
               1.99470193                3.00407940               39.03365669                0.01000000               -0.30155510                0.06603635                0.09758002                0.09151424                0.00007695                0.18292705
               2.99117613                3.00737964               39.03461553                0.01000000               -0.40773976                0.06330195                0.10816008                0.60625956                0.01700452                0.13070402
               3.98654714                3.01262241               39.03587272                0.01197051               -0.40781855               -0.09111478                0.11474340                0.86554691                0.01755312                0.11373755
               4.98301976                3.01775639               39.03703857                0.01000000               -0.51143633               -0.22279536                0.11848031                1.21074706               -0.00112277                0.10895638
               5.97631841                3.02705653               39.03811902                0.01000001               -0.51078655               -0.28831970                0.11733770                1.23949906               -0.01716946                0.13250157
               6.97280403                3.03129051               39.03937854                0.01000001               -0.56439509               -0.39246855                0.11673983                1.17667168               -0.05510573                0.16411382
               7.96503051                3.03677377               39.03998984                0.01277073               -0.44002159               -0.24572280                0.10866187                0.93714545               -0.07774458                0.14424684
               8.96400359                3.03861828               39.04134439                0.01076634               -0.06979851               -0.31608303                0.12003429                0.70272879               -0.01952731                0.12074207
               9.96363454                3.04029726               39.04306279                0.54411307               -0.03690544               -0.72900405                0.12581805                0.87369977               -0.00159922                0.12301610
               0.00119309                4.00975414               39.03480210                0.01325138               -0.09367009                0.20900270                0.04591774               -0.01226413               -0.02122552                0.22426171
               1.00025639                4.00416501               39.03520388                0.01000000               -0.16084541               -0.05194579                0.08662364                0.26903922               -0.03391301                0.20732010
               1.99797618                4.00386130               39.03516099                0.01000000               -0.27550429               -0.06155672                0.10568459                0.66581945               -0.03039368                0.16743346
               2.99474630                4.00691149               39.03582655                0.01197089               -0.33687729               -0.07909469                0.11029610                0.82606496                0.00210406                0.12151658
               3.99123864                4.01085416               39.03654953                0.01000000               -0.36130751               -0.21528434                0.11673784                1.06639538                0.01150592                0.10944756
               4.98752015                4.01631552               39.03760871                0.01000001               -0.36053051               -0.20781861                0.12213985                1.20435419                0.03768019                0.14401920
               5.98402803                4.02283458               39.03910619                0.01000001               -0.36727476               -0.41402222                0.12475178                1.34637332                0.04703343                0.21053645
               6.98017466                4.02775638               39.04064126                0.01175515               -0.32905178               -0.39771076                0.12564586                1.30430803               -0.00487567                0.23152761
               7.97744699                4.03237046               39.04144197                0.01003995               -0.19778724               -0.54435639                0.12457383                1.40605802               -0.04172399                0.29474283
               8.97621891                4.03265203               39.04254696                0.01000000                0.09982896               -0.73582277                0.12340815                0.96414621               -0.01645228                0.34902671
               9.97944357                4.02609141               39.04419203                0.01154926                0.32246564               -1.16113401                0.12657823                0.74788033                0.01526984                0.31438485
               0.00933401                5.01120574               39.03668109                0.01163351               -0.08531644               -0.06886275                0.03171233                0.31273433               -0.03487826                0.27629837
               1.00848085                5.00344543               39.03696993                0.01000000               -0.20310837               -0.00361165                0.06790695                0.70300904               -0.06937517                0.23040369
               2.00527184                5.00284827               39.03673946                0.01000001               -0.38881392               -0.09279260                0.10732154                0.99356323               -0.04879104                0.12821695
               3.00070457                5.00579774               39.03666241                0.01000000               -0.34004162               -0.25312031                0.11206233                1.17176773               -0.00251505                0.10649621
               3.99847101                5.00831673               39.03742814                0.01000001               -0.27890748               -0.23717955                0.11869471                1.21994433                0.06993494                0.12095705
               4.99512642                5.01360002               39.03892337                0.01000001               -0.33329993               -0.27735016                0.12475518                1.32101286                0.11722552                0.18711557
               5.99180501                5.01877609               39.04089256                0.01174604               -0.28860527               -0.37621881                0.13046368                1.28767527                0.09343163                0.21862637
               6.98935431                5.02333630               39.04220689                0.01000000               -0.17744928               -0.46756182                0.13393038                1.22173952                0.05935650                0.27530836
               7.98825603                5.02588664               39.04375433                0.01000001                0.01056258               -0.68963249                0.13710401                1.00352721                0.08434409                0.40849049
               8.98956557                5.02390183               39.04577984                0.01000000                0.17286773               -0.82634696                0.14010535                0.65641787                0.06742331                0.47794900
               9.99171338                5.01707458               39.04695403                0.01000001                0.21478170               -0.73244193                0.14561261                0.33038999                0.03989972                0.42570921
               0.02296840                6.00837688               39.04019450                0.54203610               -0.02943606               -0.15594969                0.09641205                0.46802742               -0.00332199                0.19070019
               1.02267404                6.00409277               39.03950097                0.01000001               -0.37366336                0.01719383                0.09922470                0.60529573               -0.05289224                0.12124117
               2.01549513                6.00200545               39.03780758                0.01142214               -0.49804183               -0.16731313                0.10164925                0.95655089               -0.05940473                0.08602745
               3.01271320                6.00184908               39.03773738                0.01000001               -0.38299421               -0.28541791                0.11095476                1.21872477                0.05725271                0.06951717
               4.00783525                6.00611057               39.03858166                0.01000001               -0.46160751               -0.22876960                0.11888850                1.34857718                0.14140153                0.11692193
               5.00348105                6.01076852               39.04057208                0.01174659               -0.38949959               -0.24478009                0.12709692                1.29535324                0.16837263                0.15017200
               6.00004526                6.01531021               39.04229808                0.01000000               -0.29910769               -0.31285954                0.13422425                1.14808224                0.17013162                0.21091293
               6.99749890                6.01840515               39.04461472                0.01000001               -0.15466259               -0.46519000                0.14242895                0.86683353                0.22968856                0.37354479
               7.99695200                6.01857781               39.04777918                0.01000000                0.03302173               -0.68000739                0.15009356                0.54571732                0.23379859                0.53086034
               8.99815933                6.01612509               39.05026446                0.01072456                0.13769323               -0.72030237                0.15755372                0.26756427                0.14194362                0.55475822
               9.99970587                6.01144257               39.05147230                0.01225600                0.15465363               -0.46578241                0.16310968                0.11547943                0.08750804                0.51920346
               0.02726277                7.00808674               39.04043749                1.00000000               -0.03045821               -0.02969001                0.10015136                0.00039118               -0.00857716                0.02310051
               1.02695819                7.00378930               39.03957263                1.00000000               -0.03081084               -0.03084006                0.10264079               -0.00014197               -0.00955652                0.00030808
               2.02664656                6.99950201               39.03868234                0.01000000               -0.29921236               -0.14128558                0.10527613                0.58689057                0.01074803                0.02787036
               3.02097395                7.00008938               39.03821912                0.01000001               -0.50617194               -0.34812236                0.11122669                1.10601793                0.09882131               -0.01334327
               4.01652312                7.00374133               39.03956982                0.01175907               -0.45700486               -0.19441231                0.11865299                1.29770557                0.19506153                0.04386371
               5.01183385                7.00870442               39.04136822                0.01000000               -0.46965460               -0.14142591                0.12737040                1.18728637                0.25124062                0.10263576
               6.00713003                7.01251890               39.04417595                0.01000001               -0.42052312               -0.18047338                0.13825646                0.83630444                0.35869165                0.26402559
               7.00342339                7.01403250               39.04845975                0.01000000               -0.28397962               -0.36389407                0.14998178                0.40655338                0.43417459                0.45152752
               8.00145043                7.01228649               39.05307469                0.01086042               -0.06856494               -0.50477082                0.16401331                0.09175565                0.34648287                0.53413216
               9.00205209                7.00949578               39.05579133                0.01000002                0.09687857               -0.65009006                0.17018508               -0.05169527                0.16915230                0.73414051
              10.00338801                7.00775893               39.05678232                0.01000001                0.13359193               -0.44020855                0.17399021               -0.06349273                0.09131056                0.75856385
               0.03157110                8.00778308               39.04059024                1.00000000               -0.03151681               -0.03092153                0.10352974                0.00062830               -0.00117533                0.02173938
               1.03125593                8.00347597               39.03967882                0.99999999               -0.03191206               -0.03188381                0.10631804                0.00008421               -0.00089403                0.00308253
               2.03093286                7.99917974               39.03877076                0.16764315               -0.03308514               -0.03279263                0.10908893               -0.00036135               -0.00650081               -0.01506023
               3.03059423                7.99488663               39.03774679                0.01277684               -0.28792679               -0.27684386                0.10956075                0.84776122                0.12530506               -0.05905610
               4.02517433                8.00222232               39.03947431                0.01004920               -0.60725072               -0.08991348                0.11744681                1.26453141                0.29898821               -0.01067846
               5.01844922                8.00794000               39.04226137                0.01000001               -0.68655301                0.03937639                0.12807813                0.90694388                0.42580146                0.12035504
               6.01144326                8.01170074               39.04686286                0.01000000               -0.62934235                0.00598017                0.14144521                0.46573615                0.55463266                0.26492045
               7.00586237                8.01112727               39.05272344                0.01087813               -0.40597166               -0.14380744                0.15629313                0.02331817                0.55053178                0.36371058
               8.00332383                8.00848239               39.05767902                0.01000002               -0.21046914               -0.36034063                0.16733103               -0.39770602                0.58640385                0.59583657
               9.00165299                8.00312329               39.06445610                0.01655176               -0.07070594               -0.45349878                0.19208044               -0.39060618                0.42918696                0.67980922
              10.00190971                8.00263840               39.06640428                0.01000000                0.02567259               -0.38072058                0.19210924               -0.24071882                0.18731371                0.62482080
               0.03588956                9.00746831               39.04080118                1.00000000               -0.03263386               -0.03206813                0.10724769                0.00063140                0.00231526                0.01973882
               1.03556322                9.00315163               39.03980286                0.99999998               -0.03304424               -0.03300778                0.11011021                0.00004529                0.00132820                0.00266964
               2.03522867                8.99884615               39.03878568                0.99999996               -0.03383166               -0.03387699                0.11292268                0.00002543               -0.00471198               -0.01099429
               3.03488659                8.99455251               39.03766999                0.01013651               -0.32341452               -0.03431264                0.11566464                0.58404687                0.14121170               -0.02188929
               4.02876038                9.00194307               39.03957754                0.01000000               -0.71961371                0.14193139                0.11666148                0.78770109                0.39959399                0.01545649
               5.02049431                9.00949194               39.04357275                0.01000000               -0.77514499                0.17619732                0.12762845                0.53795998                0.53894322                0.09058828
               6.01325748                9.01263850               39.04883341                0.01078601               -0.66931060                0.11614131                0.14563140                0.18721272                0.61740100                0.16257680
               7.00710810                9.01115635               39.05501156                0.01000002               -0.58785937                0.06133306                0.15713031               -0.16978654                0.80358958                0.17383320
               8.00150029                9.00507968               39.06442992                0.01668903               -0.35120726               -0.16919910                0.16573269               -0.50554554                0.72856043                0.44314242
               9.00008395                9.00042581               39.06944745                0.99999997               -0.09784451               -0.16191282                0.18043777               -0.31122478                0.25086796                0.24770463
               9.99954340                9.00014452               39.06944925                0.99999999               -0.05405497               -0.15164209                0.17988919               -0.13239114                0.00003743                0.15050075
               0.04021710               10.00714172               39.04091232                1.00000000               -0.03381037               -0.03265919                0.11098412                0.00016431                0.01336663                0.01467396
               1.03987900               10.00281582               39.03990164                1.00000000               -0.03423061               -0.03358076                0.11388177               -0.00039803                0.01654478                0.00118567
               2.03953249                9.99850220               39.03895895                0.99999997               -0.03503701               -0.03439533                0.11661907               -0.00039024                0.01637467               -0.00343891
               3.03917826                9.99420038               39.03795207                0.35175847               -0.67717902               -0.03521267                0.11933726                0.75710482                0.17701199               -0.00445447
               4.02598891               10.00506095               39.04023248                0.01192785               -1.03326377                0.31178874                0.11793848                0.58603095                0.40540068                0.04786613
               5.01851298               10.01146394               39.04382312                0.01160990               -0.62328960                0.19720000                0.13409491                0.24999775                0.52743641                0.04939825
               6.01352312               10.01402357               39.04939489                0.01000001               -0.42437611                0.13850660                0.15138235                0.07106263                0.62591846                0.09865144
               7.01002546               10.01235393               39.05545233                0.01582003               -0.47898270                0.11975803                0.15742153               -0.15452183                0.87265521                0.08553941
               8.00394346               10.00509841               39.06615456                0.01000002               -0.48309045                0.00187287                0.17075201               -0.37912806                0.71803186                0.19445278
               9.00036365                9.99988503               39.06948315                0.99999999               -0.20595007               -0.05407755                0.18002186               -0.24667283                0.16621367               -0.00012660
               9.99982446                9.99960556               39.06948494                1.00000000               -0.05391894               -0.05389624                0.17947327                0.00015846               -0.00008355                0.00008492
              -0.00483420                0.00678736               40.03121879                0.99194552               -0.02300528               -0.02138151                0.07066103                0.00218029               -0.00334104                0.00353832
               0.99493575                0.00507775               40.03223457                0.99999999               -0.02476366               -0.02510097                0.08262947                0.00188623               -0.00355671               -0.00139345
               1.99467053                0.00337473               40.03324375                0.08714322               -0.02642682               -0.02883729                0.09460677                0.00409660                0.01820899               -0.00141795
               2.99440721                0.00172322               40.03469608                0.01000001               -0.23815147               -0.03053230                0.10405771                0.31892962                0.05167021               -0.00122609
               3.98990750                0.00647302               40.03639588                0.01000000               -0.75654697                0.43140564                0.13075861                0.34235205                0.05828316               -0.00282884
               4.97927627                0.01982821               40.03842622                0.01297546               -1.07572567                0.27514287                0.12587781                0.77354652                0.03288753                0.04815423
               5.96839298                0.03562386               40.04093920                0.45326428               -0.55858409               -0.02854017                0.09355237                0.70400964                0.04770532               -0.00100207
               6.96810459                0.03736781               40.04272042                1.00000000               -0.02973657               -0.03025786                0.09934457                0.00086666                0.00858380               -0.00326609
               7.96779825                0.03912333               40.04444756                1.00000000               -0.03150670               -0.03207307                0.10517685                0.00091012                0.00717642               -0.00034678
               8.96747446                0.04088897               40.04619763                1.00000000               -0.03325703               -0.03384980                0.11106083                0.00091659                0.00673664                0.00103167
               9.96713311                0.04266581               40.04791361                1.00000000               -0.03413436               -0.03570059                0.11695692                0.00039680                0.00512062                0.00497708
              -0.00310280                1.00657354               40.03090610                0.96244323               -0.02362814               -0.02165232                0.07271027                0.00038004                0.00180277                0.00416231
               0.99666092                1.00482674               40.03192198                0.13862001               -0.02542227               -0.02550349                0.08471411                0.00008006                0.00374490               -0.00355271
               1.99638876                1.00308636               40.03297830                0.01000000               -0.03067803               -0.02903909                0.09671088                0.00354770                0.02840162                0.00568422
               2.99604736                1.00141790               40.03449273                0.01000001               -0.60551178                0.21158408                0.10589242                0.16464447                0.06020589                0.02988616
               3.98427852                1.01078707               40.03616457                0.01000000               -1.18055241                0.34428905                0.14218365                0.70691506                0.02947763                0.03974900
               4.97243631                1.02257964               40.03793616                0.01000000               -0.88076220                0.08685916                0.13507787                1.08484454               -0.02247947                0.06174487
               5.96666328                1.03533846               40.03983872                0.01000001               -0.30363967               -0.31035154                0.09689043                0.86231610                0.01023885                0.02501371
               6.96636352                1.03706523               40.04155791                0.99791205               -0.03082530               -0.03073167                0.10262930                0.00001257                0.00097218               -0.00342703
               7.96604677                1.03880260               40.04327386                1.00000000               -0.03255682               -0.03255936                0.10852158                0.00001154                0.00115133               -0.00023435
               8.96571238                1.04055048               40.04499607                0.99999999               -0.03432639               -0.03434723                0.11445911               -0.00001094                0.00097411                0.00086707
               9.96536025                1.04230880               40.04670862                0.99999998               -0.03521387               -0.03620013                0.12036827               -0.00050794                0.00044546                0.00635461
              -0.00133301                2.00635431               40.03060365                0.01000000               -0.02424597                0.03212014                0.07478247               -0.14797041                0.00195784                0.14434302
               0.99842453                2.00456768               40.03156775                0.01000000               -0.02583332               -0.00614404                0.08674764               -0.19070748                0.01810588                0.12868554
               1.99815033                2.00279395               40.03286022                0.01000001               -0.42125758                0.06161568                0.09778192               -0.06010968                0.07317701                0.10842681
               2.98999938                2.00595490               40.03493299                0.01000000               -0.76331343                0.31292872                0.11328735                0.23491411                0.06218874                0.08692594
               3.98288406                2.01335880               40.03638356                0.01000000               -0.67888030                0.11267857                0.12259081                0.84034061                0.01135357                0.09016575
               4.97642178                2.02156539               40.03778840                0.01000001               -0.58651733               -0.21398568                0.12364554                1.27340070                0.00386338                0.08066113
               5.97115371                2.02941683               40.03925570                0.01141867               -0.58905383               -0.37211637                0.10777397                1.17397275               -0.02770250                0.05809062
               6.96464070                2.03675318               40.04039011                0.01000000               -0.34202347               -0.24031199                0.10592871                0.69915678               -0.03243944                0.06242286
               7.96431324                2.03847215               40.04210097                0.03156717               -0.03363306               -0.04164478                0.11188497                0.03281287               -0.00480365                0.00859395
               8.96396804                2.04020203               40.04378987                0.99999997               -0.03534708               -0.03527938                0.11776533               -0.00000257               -0.00344352               -0.00114812
               9.96360630                2.04194181               40.04553025                1.00000000               -0.03617374               -0.03717194                0.12361846               -0.00047297               -0.00108109                0.00630445
              -0.00248895                3.00721594               40.03309590                0.01132763               -0.11039102                0.16774344                0.07530528               -0.16708011               -0.01350826                0.24933200
               0.99640714                3.00470386               40.03390539                0.01000001               -0.18558498               -0.00216487                0.08959452               -0.09889594               -0.00945142                0.24375149
               1.99379935                3.00431867               40.03466093                0.01000000               -0.31131718                0.06089937                0.09990900                0.10086648               -0.00543620                0.19167415
               2.99018079                3.00767647               40.03572434                0.01000000               -0.41622507                0.05703334                0.11097564                0.63621782                0.01660921                0.12524359
               3.98547484                3.01304065               40.03704584                0.01196990               -0.41672484               -0.11064372                0.11797355                0.90771526                0.01495471                0.10320002
               4.98184629                3.01829993               40.03823537                0.01000000               -0.52599479               -0.23890851                0.11988354                1.25094370               -0.00719732                0.10245393
               5.97495495                3.02789613               40.03929093                0.01000001               -0.52774769               -0.29437944                0.11745831                1.28807011               -0.02485191                0.13724169
               6.97129134                3.03225899               40.04054511                0.01000001               -0.58503841               -0.40578044                0.11716063                1.21845668               -0.06225595                0.17225125
               7.96325418                3.03796971               40.04110504                0.01280538               -0.45243337               -0.25246672                0.11295977                0.96597764               -0.07983753                0.14755080
               8.96224267                3.03984489               40.04254927                0.01106828               -0.06914736               -0.31281707                0.12094991                0.71297729               -0.01789134                0.12084357
               9.96187123                3.04156536               40.04432629                0.56060647               -0.03714404               -0.73061252                0.12687450                0.88614137               -0.00169261                0.12164843
               0.00034955                4.00970918               40.03519391                0.01209396               -0.10056615                0.21226703                0.04199546                0.04085889               -0.01757584                0.19843431
               0.99934389                4.00452439               40.03595121                0.01000000               -0.15772517               -0.05217253                0.07047645                0.27778924               -0.05015748                0.22409100
               1.99719505                4.00401193               40.03621669                0.01000000               -0.26710633               -0.07553253                0.10188342                0.67916218               -0.03724626                0.16976618
               2.99400176                4.00709557               40.03694033                0.01197134               -0.33900680               -0.08960926                0.11078288                0.86091132               -0.00388102                0.11890165
               3.99041491                4.01114593               40.03772893                0.01000000               -0.37083000               -0.22776192                0.11794185                1.11078290                0.00916947                0.10482385
               4.98658516                4.01678722               40.03884157                0.01000001               -0.37294326               -0.21684642                0.12370712                1.25377721                0.03471931                0.14151739
               5.98295604                4.02352924               40.04035953                0.01000001               -0.38244515               -0.42775670                0.12618707                1.39858085                0.04335141                0.21333260
               6.97893626                4.02863757               40.04190238                0.01176093               -0.34545720               -0.40892162                0.12736480                1.35482066               -0.00986697                0.23713101
               7.97604690                4.03342281               40.04269396                0.01006610               -0.21521655               -0.55879486                0.12653155                1.46680779               -0.04899584                0.30549671
               8.97463193                4.03394569               40.04378765                0.01000000                0.09206379               -0.75091896                0.12508764                1.01344496               -0.02525965                0.36197215
               9.97788818                4.02732956               40.04546141                0.01207696                0.32562495               -1.19370170                0.12759275                0.79034672                0.00541732                0.33020073
               0.00869781                5.01146128               40.03721344                0.01078907               -0.10376416               -0.06612012                0.06699447                0.38318218               -0.02117463                0.32113807
               1.00766016                5.00366041               40.03763992                0.01000000               -0.19431996               -0.02696082                0.07364414                0.76639226               -0.05759740                0.25145085
               2.00481141                5.00280802               40.03774972                0.01000001               -0.36975680               -0.10659280                0.09806458                1.03870199               -0.04189650                0.12426044
               3.00026503                5.00588429               40.03778668                0.01000000               -0.34062787               -0.26797892                0.11153995                1.22683868               -0.00395889                0.10143779
               3.99799885                5.00848541               40.03862525                0.01000001               -0.28632536               -0.24832348                0.11990540                1.27349798                0.06943958                0.11667850
               4.99453852                5.01396300               40.04018309                0.01000001               -0.34613149               -0.28843259                0.12699033                1.37799662                0.11812552                0.18447886
               5.99107622                5.01934100               40.04220980                0.01174916               -0.30221676               -0.38892553                0.13324510                1.34356234                0.09364463                0.21906597
               6.98849419                5.02408056               40.04355429                0.01000000               -0.18969999               -0.48225012                0.13634537                1.27771964                0.05782809                0.28029638
               7.98728222                5.02679381               40.04513117                0.01000001                0.00553224               -0.71042369                0.13926560                1.05719327                0.08119753                0.42002548
               8.98860483                5.02482651               40.04718625                0.01000000                0.18141068               -0.86426020                0.14220388                0.69880490                0.06465314                0.49626917
               9.99091043                5.01769133               40.04841549                0.01000001                0.23056027               -0.78095243                0.14745230                0.35959948                0.03948943                0.44435212
               0.02361493                6.00838678               40.04115066                0.52650168               -0.02899364               -0.16800358                0.09475575                0.52633484               -0.00325078                0.20981471
               1.02332500                6.00398517               40.04048673                0.01000001               -0.39348618                0.00122337                0.09795962                0.67796268               -0.05300630                0.13487627
               2.01574521                6.00188008               40.03881875                0.01142273               -0.52319258               -0.17636855                0.10144951                1.01782518               -0.05845142                0.08491068
               3.01286115                6.00173599               40.03884637                0.01000001               -0.39695253               -0.29802242                0.11060377                1.27678683                0.06080560                0.06363314
               4.00780616                6.00617946               40.03978061                0.01000001               -0.47858225               -0.23930955                0.12064698                1.40857835                0.14576444                0.11114648
               5.00328950                6.01101857               40.04185665                0.01175016               -0.40482164               -0.25566308                0.13008481                1.35339202                0.17310676                0.14593027
               5.99970973                6.01575073               40.04365434                0.01000000               -0.31258305               -0.32477094                0.13746609                1.20321334                0.17493773                0.20986478
               6.99703784                6.01899257               40.04605235                0.01000001               -0.16324539               -0.48041918                0.14562837                0.91396035                0.23438146                0.37800742
               7.99644482                6.01921434               40.04929311                0.01000000                0.03363329               -0.70643566                0.15343807                0.58127681                0.23774010                0.54273188
               8.99771051                6.01666048               40.05185404                0.01075791                0.14528530               -0.75456257                0.16096954                0.28847333                0.14447468                0.56888256
               9.99935053                6.01171051               40.05311576                0.01302788                0.16400190               -0.49103823                0.16596511                0.12426644                0.08877612                0.53133627
               0.02802771                7.00810121               40.04143346                1.00000000               -0.03015977               -0.02933603                0.09904692                0.00045286               -0.00889273                0.02286655
               1.02772611                7.00368488               40.04059490                1.00000000               -0.03053119               -0.03059224                0.10176457               -0.00014340               -0.00979393                0.00012870
               2.02741709                6.99928065               40.03973244                0.01000000               -0.31123634               -0.14602964                0.10462697                0.61568456                0.01252239                0.02796101
               3.02150139                6.99992384               40.03933621                0.01000001               -0.52646265               -0.35911218                0.11187202                1.15195119                0.10311713               -0.01879228
               4.01688784                7.00369922               40.04076719                0.01176505               -0.47331521               -0.20593838                0.12079575                1.35053861                0.20150138                0.03653116
               5.01203508                7.00884974               40.04265495                0.01000000               -0.48606729               -0.15174889                0.13040193                1.24430901                0.25978571                0.09610254
               6.00716649                7.01284558               40.04557288                0.01000001               -0.43626485               -0.18829682                0.14167849                0.88429803                0.36921456                0.26179993
               7.00330979                7.01447218               40.04997551                0.01000000               -0.29633249               -0.37628873                0.15375209                0.43722498                0.44613021                0.45461000
               8.00123984                7.01266510               40.05473213                0.01088884               -0.07158289               -0.52308674                0.16792497                0.10697793                0.35486297                0.54021931
               9.00187813                7.00973526               40.05750655                0.01000002                0.10279379               -0.67844113                0.17322786               -0.04620541                0.17177622                0.74975229
              10.00329572                7.00787057               40.05853064                0.01000001                0.14175873               -0.45801488                0.17599297               -0.06245007                0.09203255                0.77089202
               0.03245665                8.00780006               40.04162285                1.00000000               -0.03139604               -0.03075176                0.10297410                0.00079566               -0.00122744                0.02151103
               1.03214269                8.00337333               40.04074090                0.99999999               -0.03183561               -0.03182042                0.10608708                0.00019489               -0.00093746                0.00312481
               2.03181994                7.99895949               40.03986241                0.17445198               -0.03305465               -0.03283059                0.10918160               -0.00010953               -0.00720077               -0.01486057
               3.03148160                7.99455375               40.03885530                0.01281089               -0.29644533               -0.28550311                0.11124722                0.87442068                0.12676746               -0.06071331
               4.02589104                8.00206069               40.04065772                0.01007498               -0.62261422               -0.10527427                0.11963390                1.32441605                0.30558143               -0.02207701
               5.01902932                8.00798359               40.04355211                0.01000001               -0.70588953                0.03482712                0.13060343                0.96108321                0.44057734                0.10967229
               6.01177325                8.01198480               40.04829080                0.01000000               -0.65332467                0.00588931                0.14508198                0.50271705                0.57135015                0.26188186
               7.00596282                8.01146679               40.05430278                0.01090557               -0.42259731               -0.14812938                0.16022859                0.04065920                0.56392324                0.36300102
               8.00332130                8.00875260               40.05936554                0.01000002               -0.21909466               -0.36996467                0.17028095               -0.40211932                0.60388908                0.59420530
               9.00158093                8.00309166               40.06638400                0.01688846               -0.07451949               -0.46719460                0.19349961               -0.39974049                0.44097885                0.68410673
              10.00183091                8.00255021               40.06832707                0.01000000                0.02499789               -0.38796530                0.19243575               -0.24169535                0.18634587                0.62698875
               0.03689708                9.00748618               40.04187348                1.00000000               -0.03265019               -0.03205928                0.10717956                0.00077817                0.00237512                0.01969916
               1.03657058                9.00304847               40.04090606                0.99999998               -0.03313041               -0.03315123                0.11051040                0.00014383                0.00136824                0.00275217
               2.03623448                8.99862404               40.03991888                0.99538963               -0.03409912               -0.03419524                0.11396138                0.00015260               -0.00479439               -0.01091143
               3.03588860                8.99421378               40.03883166                0.01075910               -0.31440825               -0.03496912                0.11750242                0.58925160                0.13908143               -0.02112425
               4.02994631                9.00159373               40.04072965                0.01000000               -0.72779803                0.13291679                0.11581576                0.84083722                0.42606929               -0.00953994
               5.02133264                9.00954628               40.04485129                0.01000000               -0.81043395                0.18406536                0.13109804                0.58135915                0.56596338                0.08140071
               6.01373763                9.01296337               40.05030269                0.01081765               -0.69887379                0.12166338                0.14940425                0.20889065                0.63636129                0.16097391
               7.00735516                9.01150959               40.05659544                0.01000002               -0.60825227                0.06412222                0.16025870               -0.16410176                0.81491035                0.17011801
               8.00157259                9.00526580               40.06609630                0.01655326               -0.36347249               -0.17208880                0.16765067               -0.51665624                0.74067463                0.44308312
               9.00008571                9.00039137               40.07125321                0.99999997               -0.10139366               -0.16207845                0.18072127               -0.31860913                0.25818664                0.24186647
               9.99954471                9.00011126               40.07124807                0.99999999               -0.05410005               -0.14887125                0.17987680               -0.12832893                0.00003821                0.14457634
               0.04134763               10.00715887               40.04202472                1.00000000               -0.03399157               -0.03273076                0.11146879                0.00019761                0.01348131                0.01467219
               1.04100771               10.00271030               40.04104559                1.00000000               -0.03449692               -0.03381709                0.11483585               -0.00045140                0.01655773                0.00124488
               2.04065769                9.99827558               40.04013160                0.99999998               -0.03553869               -0.03484551                0.11829047               -0.00047538                0.01624395               -0.00352866
               3.04029694                9.99385437               40.03915329                0.38272964               -0.66412051               -0.03594115                0.12171426                0.76300601                0.17047931               -0.00455601
               4.02737528               10.00471902               40.04133656                0.01241278               -1.05050373                0.31252924                0.11249996                0.63342365                0.44879153                0.01369209
               5.01928686               10.01166490               40.04517311                0.01194282               -0.66937667                0.21186231                0.13786469                0.28037452                0.55884435                0.04849868
               6.01398775               10.01441806               40.05092070                0.01000001               -0.44542559                0.14546968                0.15483488                0.07922826                0.64010496                0.09835636
               7.01037835               10.01274924               40.05703637                0.01619843               -0.49406730                0.12396470                0.15986561               -0.15304293                0.88272045                0.08170891
               8.00410640               10.00531083               40.06786819                0.01000002               -0.50075297                0.00450240                0.17195879               -0.39157593                0.72856586                0.19780426
               9.00036329                9.99985009               40.07128345                0.99999999               -0.21409280               -0.05412734                0.18003761               -0.25914426                0.17088760               -0.00013256
               9.99982454                9.99957278               40.07127831                1.00000000               -0.05387487               -0.05384749                0.17919314                0.00025229               -0.00008678                0.00008819
              -0.00594342                0.00712521               41.03192208                0.99144466               -0.02289126               -0.02127155                0.07000238                0.00237173               -0.00337468                0.00354054
               0.99382767                0.00536602               41.03306059                0.99999999               -0.02473724               -0.02517772                0.08257159                0.00198337               -0.00358889               -0.00138726
               1.99356183                0.00361542               41.03419259                0.09653131               -0.02691847               -0.02910070                0.09514947                0.00355680                0.01700069               -0.00142850
               2.99328930                0.00190573               41.03574404                0.01000001               -0.23294654               -0.03148756                0.10536126                0.32508106                0.05879925               -0.00112484
               3.98890290                0.00670670               41.03772860                0.01000000               -0.73141023                0.42767325                0.12168389                0.32758034                0.12770790                0.01881261
               4.97866109                0.01978572               41.03994734                0.01000002               -1.11048157                0.29755600                0.09358095                0.80252383                0.23575179               -0.12542254
               5.96669327                0.03669794               41.04187143                0.44662654               -0.61272091               -0.02840433                0.09290802                0.75798705                0.01519088               -0.00097415
               6.96640667                0.03848106               41.04371100                1.00000000               -0.02956894               -0.03015743                0.09878248                0.00090750                0.00847293               -0.00330563
               7.96610189                0.04027686               41.04549705                1.00000000               -0.03136619               -0.03200065                0.10471566                0.00094193                0.00711215               -0.00036863
               8.96577935                0.04208413               41.04730632                1.00000000               -0.03314842               -0.03376183                0.11068345                0.00094476                0.00670532                0.00106039
               9.96543893                0.04390394               41.04908168                0.99999999               -0.03404256               -0.03561929                0.11667336                0.00035135                0.00510758                0.00503956
              -0.00416052                1.00691249               41.03163298                0.95798554               -0.02370919               -0.02163164                0.07267105                0.00048193                0.00183552                0.00417245
               0.99560239                1.00511424               41.03277195                0.14961003               -0.02559694               -0.02567793                0.08527903                0.00008978                0.00377321               -0.00356969
               1.99532755                1.00332441               41.03395129                0.01000000               -0.03039615               -0.02944703                0.09787708                0.00271407                0.02711928                0.00531196
               2.99499447                1.00159086               41.03556252                0.01000001               -0.60444161                0.21233099                0.10786685                0.16271427                0.07394213                0.03306644
               3.98323871                1.01098343               41.03766555                0.01000000               -1.16518807                0.34459067                0.12724498                0.69718147                0.10796454                0.00066050
               4.97169071                1.02276128               41.03937175                0.01000000               -0.91566202                0.11498611                0.11508391                1.08569162                0.15100064               -0.07555926
               5.96492547                1.03641390               41.04080620                0.01000001               -0.35322078               -0.31936794                0.09664646                0.91706718               -0.01617687                0.02837659
               6.96462629                1.03817948               41.04258370                0.99630673               -0.03078488               -0.03070223                0.10252211                0.00003403                0.00091174               -0.00346882
               7.96430978                1.03995685               41.04435899                1.00000000               -0.03255187               -0.03256220                0.10851331                0.00005787                0.00115913               -0.00024669
               8.96397526                1.04174651               41.04614104                0.99999999               -0.03435731               -0.03432992                0.11450474                0.00006128                0.00099918                0.00084421
               9.96362263                1.04354775               41.04791335                0.99989932               -0.03526261               -0.03620184                0.12050465               -0.00056549                0.00046887                0.00631438
              -0.00233728                2.00669257               41.03135434                0.01000000               -0.02451788                0.02547862                0.07536222               -0.15039124                0.00197743                0.14277369
               0.99741754                2.00485246               41.03244119                0.01000000               -0.02616081               -0.00691608                0.08793753               -0.19076582                0.01780419                0.12680506
               1.99713950                2.00302648               41.03385000                0.01000001               -0.42664857                0.06160013                0.09988780               -0.06266978                0.07462451                0.10709318
               2.98888457                2.00615235               41.03608088                0.01000000               -0.77316953                0.31431547                0.11046171                0.23504851                0.07670327                0.07883212
               3.98167611                2.01359851               41.03762328                0.01000000               -0.69700557                0.11788043                0.11718924                0.85147940                0.03179408                0.03863951
               4.97494446                2.02208544               41.03904637                0.01000001               -0.60298497               -0.20044865                0.11890638                1.28260406               -0.01830781                0.04478513
               5.96961641                2.03031058               41.04032563                0.01141954               -0.60400254               -0.38581807                0.10882663                1.21838646               -0.03319862                0.07309867
               6.96286441                2.03786701               41.04145114                0.01000000               -0.35401953               -0.24781109                0.10627552                0.72167663               -0.03580347                0.06639248
               7.96253602                2.03962561               41.04322196                0.03215443               -0.03373640               -0.04125296                0.11227974                0.03251747               -0.00477570                0.00794267
               8.96218968                2.04139753               41.04497017                0.99615698               -0.03554373               -0.03545685                0.11846461                0.00017763               -0.00347829               -0.00130422
               9.96182515                2.04317990               41.04676959                1.00000000               -0.03645311               -0.03743416                0.12455026               -0.00056282               -0.00114496                0.00616971
              -0.00348811                3.00742206               41.03383871                0.01136599               -0.10587190                0.14563540                0.07527977               -0.16140102               -0.01059652                0.23732986
               0.99545317                3.00497592               41.03476546                0.01000001               -0.18688145                0.00299198                0.08415897               -0.10263628               -0.00985821                0.23540234
               1.99277426                3.00455642               41.03565487                0.01000000               -0.31648793                0.05706830                0.09741127                0.10019398               -0.00307434                0.18859915
               2.98912341                3.00787716               41.03683504                0.01000000               -0.42195234                0.05374143                0.10887151                0.65282501                0.02078956                0.11379387
               3.98433521                3.01334104               41.03823219                0.01197033               -0.42463467               -0.11136412                0.11607935                0.93599093                0.01330857                0.08991404
               4.98063072                3.01875231               41.03943624                0.01000000               -0.54117909               -0.24436484                0.11895323                1.29979940               -0.01197366                0.09358234
               5.97351163                3.02869754               41.04046819                0.01000001               -0.54429597               -0.30641103                0.11824665                1.33443919               -0.03335081                0.14336907
               6.96974480                3.03322326               41.04172175                0.01000001               -0.60410128               -0.41885947                0.11899157                1.26063666               -0.06778306                0.18228771
               7.96142960                3.03913179               41.04224904                0.01284247               -0.46601410               -0.25856750                0.11508252                0.99299521               -0.08324227                0.15178948
               8.96042452                3.04103738               41.04376339                0.01139255               -0.06914866               -0.30715260                0.12257288                0.72119329               -0.01736614                0.12123771
               9.96004663                3.04279906               41.04560028                0.57743025               -0.03778842               -0.72868390                0.12858962                0.89513088               -0.00172064                0.12019888
              -0.00067302                4.00960528               41.03564201                0.01055252               -0.10965257                0.21248397                0.05587710                0.10798548               -0.00620410                0.20777838
               0.99823046                4.00491230               41.03661341                0.01000000               -0.15424248               -0.05184984                0.06777115                0.29510122               -0.03511100                0.22213788
               1.99624214                4.00416785               41.03719866                0.01000000               -0.25370065               -0.09125008                0.09592643                0.69138872               -0.02459413                0.16350950
               2.99315645                4.00722718               41.03804220                0.01197083               -0.33606731               -0.09783551                0.10884118                0.89149152               -0.00113984                0.11340877
               3.98952079                4.01137123               41.03890836                0.01000000               -0.37862507               -0.23712100                0.11728457                1.15495755                0.01023703                0.09952174
               4.98558394                4.01719814               41.04008285                0.01000001               -0.38432750               -0.22388969                0.12398352                1.30423957                0.03340747                0.13994143
               5.98183424                4.02418236               41.04162993                0.01000001               -0.39705292               -0.44174716                0.12811299                1.45433769                0.04100612                0.21796146
               6.97764289                4.02948982               41.04318855                0.01176840               -0.36262147               -0.42155010                0.13062347                1.40583053               -0.01443457                0.24437417
               7.97458181                4.03445426               41.04397260                0.01009516               -0.23483092               -0.57218964                0.12994080                1.52915346               -0.05638211                0.31624335
               8.97294627                4.03525448               41.04504871                0.01000000                0.08112886               -0.76382799                0.12726313                1.06508785               -0.03439248                0.37382908
               9.97620439                4.02860623               41.04674389                0.01262233                0.32581190               -1.22458951                0.12831942                0.83507780               -0.00441374                0.34325696
               0.00805756                5.01167174               41.03802098                0.01000206               -0.12649341               -0.06260601                0.09341098                0.47193188               -0.01050330                0.35528282
               1.00679263                5.00393892               41.03844282                0.01000000               -0.18852045               -0.05384901                0.08612742                0.83875180               -0.03936240                0.26655718
               2.00428715                5.00273142               41.03870075                0.01000001               -0.35213843               -0.12234556                0.09426085                1.08529268               -0.02694111                0.12150477
               2.99974986                5.00592045               41.03889320                0.01000000               -0.34118770               -0.28274824                0.11046745                1.28391079                0.00371266                0.09691922
               3.99746340                5.00859862               41.03982625                0.01000001               -0.29227427               -0.25898340                0.12005601                1.32867618                0.07320556                0.11339450
               4.99390437                5.01427451               41.04146318                0.01000001               -0.35783472               -0.29914425                0.12903466                1.43747437                0.12145227                0.18370866
               5.99030670                5.01986259               41.04355746                0.01175406               -0.31574320               -0.40189663                0.13663657                1.40159108                0.09506770                0.22128979
               6.98758951                5.02479226               41.04493380                0.01000000               -0.20293443               -0.49728718                0.14031700                1.33651343                0.05713589                0.28654836
               7.98624802                5.02768800               41.04653964                0.01000001               -0.00076009               -0.73113906                0.14342765                1.11459287                0.07906095                0.43211663
               8.98757431                5.02576082               41.04862392                0.01000000                0.18983408               -0.90360184                0.14641130                0.74495934                0.06252863                0.51451310
               9.99004470                5.01830727               41.04990307                0.01000001                0.24703897               -0.83260387                0.15031117                0.39232424                0.03899173                0.46252908
               0.02423126                6.00835316               41.04208961                0.51143576               -0.02854402               -0.17999290                0.09303639                0.58343914               -0.00307396                0.21406393
               1.02394582                6.00383532               41.04146016                0.01000001               -0.41324030               -0.02006093                0.09673368                0.75192371               -0.05233024                0.14089596
               2.01596646                6.00172094               41.03983657                0.01142249               -0.54891817               -0.18569225                0.10254865                1.08027202               -0.05363715                0.08612854
               3.01296746                6.00157221               41.03994945                0.01000001               -0.41131002               -0.31079217                0.11052295                1.33611553                0.06773792                0.05916976
               4.00774026                6.00619156               41.04099460                0.01000001               -0.49490014               -0.25018844                0.12257561                1.47070255                0.15337880                0.10713534
               5.00306946                6.01121526               41.04317378                0.01175500               -0.41959714               -0.26717516                0.13358235                1.41361848                0.17953462                0.14343644
               5.99934831                6.01614443               41.04504740                0.01000000               -0.32608518               -0.33720821                0.14159623                1.26079394                0.18057067                0.21021260
               6.99654775                6.01954408               41.04752728                0.01000001               -0.17216018               -0.49589986                0.14985843                0.96421361                0.24011253                0.38361822
               7.99590511                6.01983148               41.05084794                0.01000000                0.03392121               -0.73347745                0.15833981                0.62035012                0.24310143                0.55506632
               8.99722618                6.01718244               41.05348386                0.01079536                0.15264230               -0.78999730                0.16593809                0.31187338                0.14793063                0.58242866
               9.99895796                6.01195415               41.05479160                0.01000001                0.17317787               -0.51709035                0.16975555                0.13395948                0.09029131                0.54252935
               0.02876203                7.00807188               41.04241843                1.00000000               -0.02987020               -0.02899413                0.09788149                0.00054208               -0.00941014                0.02260771
               1.02846333                7.00353770               41.04160792                0.99554702               -0.03031659               -0.03040048                0.10112567               -0.00012547               -0.01027218               -0.00011524
               2.02815570                6.99901757               41.04077488                0.01000000               -0.32308911               -0.15124226                0.10447593                0.64374477                0.01439022                0.02717963
               3.02200154                6.99970461               41.04045656                0.01000001               -0.54606459               -0.36976463                0.11156017                1.19720468                0.10942824               -0.02322965
               4.01723441                7.00359485               41.04198574                0.01177302               -0.48888358               -0.21866201                0.12290157                1.40376407                0.21030703                0.03051590
               5.01222387                7.00893101               41.04397626                0.01000000               -0.50203216               -0.16390762                0.13446398                1.30409006                0.26945432                0.09121615
               6.00719376                7.01311843               41.04700952                0.01000001               -0.45185707               -0.19679352                0.14609674                0.93572681                0.38000595                0.26132944
               7.00318673                7.01487426               41.05153479                0.01000000               -0.30885545               -0.38883603                0.15854430                0.47091798                0.45844597                0.45877949
               8.00101665                7.01301845               41.05643319                0.01092221               -0.07488126               -0.54145759                0.17262870                0.12509469                0.36354489                0.54579059
               9.00168911                7.00996087               41.05925588                0.01000002                0.10819124               -0.70618400                0.17710595               -0.03840580                0.17432833                0.76356922
              10.00318048                7.00796547               41.06030218                0.01000001                0.14913715               -0.47467038                0.17879761               -0.05991311                0.09242989                0.78124706
               0.03331047                8.00777328               41.04264973                1.00000000               -0.03128384               -0.03057308                0.10236150                0.00089633               -0.00138888                0.02117324
               1.03299763                8.00322731               41.04180056                0.99999999               -0.03180106               -0.03178636                0.10597626                0.00023330               -0.00114066                0.00320287
               2.03267444                7.99869609               41.04095439                0.18184718               -0.03316768               -0.03294171                0.10953506                0.00005537               -0.00790388               -0.01430785
               3.03233427                7.99417692               41.03997173                0.01284919               -0.30426519               -0.29362890                0.10946587                0.89890647                0.12959736               -0.06277984
               4.02658914                8.00181832               41.04186699                0.01010379               -0.63532984               -0.12607150                0.12111386                1.38939557                0.31513346               -0.03068115
               5.01962768                8.00793711               41.04487344                0.01000001               -0.72347723                0.02839753                0.13398213                1.02034517                0.45495619                0.10439968
               6.01211960                8.01220856               41.04976450                0.01000000               -0.67807909                0.00548277                0.15049614                0.54385255                0.58666450                0.26119217
               7.00606609                8.01176736               41.05592802                0.01093952               -0.43996005               -0.15245703                0.16506434                0.06098667                0.57601143                0.36272697
               8.00332039                8.00900233               41.06108464                0.01000002               -0.22775270               -0.37898773                0.17373516               -0.40346154                0.61987226                0.59153478
               9.00151104                8.00305876               41.06832609                0.01723537               -0.07849479               -0.47985929                0.19471579               -0.40673886                0.45175759                0.68697174
              10.00175050                8.00246074               41.07025299                0.01000000                0.02394582               -0.39403337                0.19248985               -0.24110439                0.18481512                0.62828479
               0.03787189                9.00746042               41.04294477                1.00000000               -0.03267132               -0.03203003                0.10706211                0.00088193                0.00238833                0.01956041
               1.03754518                9.00290198               41.04201307                0.99999998               -0.03323513               -0.03328220                0.11090953                0.00019813                0.00152924                0.00278906
               2.03720719                8.99835874               41.04106491                0.99640116               -0.03438684               -0.03449480                0.11499079                0.00026417               -0.00431852               -0.01045256
               3.03685744                8.99383203               41.04002004                0.01127081               -0.29725296               -0.03554611                0.11927549                0.58816441                0.13645529               -0.01982668
               4.03126213                9.00107342               41.04189386                0.01000000               -0.73084537                0.11513249                0.11725402                0.90113492                0.43104023               -0.01939485
               5.02224054                9.00949896               41.04619471                0.01000000               -0.85107859                0.19265853                0.13704881                0.63163628                0.58429533                0.07847247
               6.01424056                9.01322809               41.05182150                0.01085370               -0.73139199                0.12730632                0.15480373                0.23342619                0.65049857                0.16079911
               7.00761270                9.01182512               41.05821674                0.01000002               -0.62922719                0.06694409                0.16427147               -0.15615575                0.82356140                0.16624173
               8.00165602                9.00543869               41.06778293                0.01644070               -0.37583903               -0.17458080                0.16951768               -0.52570672                0.75101256                0.44229113
               9.00009592                9.00036368               41.07306188                0.99999997               -0.10507902               -0.16184383                0.18102061               -0.32468261                0.26479014                0.23560278
               9.99955444                9.00008480               41.07304678                0.99999999               -0.05414799               -0.14569516                0.17986539               -0.12376332                0.00003900                0.13862708
               0.04244500               10.00713268               41.04314170                1.00000000               -0.03417205               -0.03277450                0.11186659                0.00020895                0.01344087                0.01462031
               1.04210328               10.00256167               41.04219836                1.00000000               -0.03476630               -0.03403114                0.11576225               -0.00051468                0.01673440                0.00123811
               2.04174967                9.99800619               41.04132476                0.99015467               -0.03601991               -0.03525418                0.11994849               -0.00053538                0.01660323               -0.00333509
               3.04138288                9.99346600               41.04038635                0.41646863               -0.64023787               -0.03660336                0.12404411                0.75828214                0.16451566               -0.00449382
               4.02894491               10.00412097               41.04248248                0.01291677               -1.06385710                0.30475504                0.11735441                0.68449193                0.45103616                0.00141577
               5.02010574               10.01179028               41.04658042                0.01229658               -0.72414782                0.22913182                0.14246536                0.31820573                0.57851831                0.04728120
               6.01446196               10.01475469               41.05249158                0.01000001               -0.46866818                0.15266008                0.15932471                0.08793780                0.64923191                0.09839453
               7.01073237               10.01310624               41.05864964                0.01659219               -0.50971301                0.12811194                0.16286499               -0.15023118                0.88979869                0.07738735
               8.00426770               10.00551071               41.06959374                0.01000002               -0.51805456                0.00720192                0.17279149               -0.40304966                0.73772493                0.20065588
               9.00037128                9.99982189               41.07308391                0.99999999               -0.22173476               -0.05417968                0.18005241               -0.27065723                0.17512484               -0.00013863
               9.99983300                9.99954684               41.07306881                1.00000000               -0.05382796               -0.05379620                0.17889719                0.00035153               -0.00009012                0.00009143
              -0.00717871                0.00743637               42.03261884                0.99096237               -0.02278371               -0.02116419                0.06935576                0.00255831               -0.00341888                0.00354483
               0.99259346                0.00562728               42.03388600                0.99999999               -0.02471016               -0.02525286                0.08250866                0.00208075               -0.00362058               -0.00138084
               1.99232709                0.00382875               42.03514674                0.10625481               -0.02731361               -0.02935687                0.09566371                0.00317173                0.01579071               -0.00143768
               2.99204718                0.00206375               42.03680331                0.01000001               -0.20343712               -0.03213628                0.10624955                0.33380771                0.05338826               -0.00108280
               3.98825835                0.00697538               42.03882956                0.01000000               -0.60993536                0.39302330                0.09002648                0.25738337                0.08031493                0.00391406
               4.97984848                0.01847094               42.04029784                0.01000000               -1.16626032                0.34984831                0.07594007                0.78469296                0.17491251               -0.05116654
               5.96493314                0.03773484               42.04279736                0.44009766               -0.76000213               -0.02830431                0.09235087                0.87373346                0.04083957               -0.00093566
               6.96464843                0.03955630               42.04469607                1.00000000               -0.02939814               -0.03005803                0.09826447                0.00091480                0.00833452               -0.00335807
               7.96434518                0.04139207               42.04654187                1.00000000               -0.03122551               -0.03193216                0.10427434                0.00096510                0.00701501               -0.00038417
               8.96402392                0.04324073               42.04841130                1.00000000               -0.03303215               -0.03372275                0.11030868                0.00096827                0.00664309                0.00100552
               9.96368454                0.04510327               42.05024708                0.99999999               -0.03393888               -0.03560817                0.11638308                0.00030083                0.00507988                0.00494072
              -0.00534403                1.00722472               42.03235952                0.95348801               -0.02378969               -0.02161592                0.07264291                0.00058007                0.00187169                0.00417697
               0.99441807                1.00537475               42.03362756                0.16104977               -0.02576980               -0.02584969                0.08583973                0.00009802                0.00380229               -0.00358519
               1.99414057                1.00353518               42.03493584                0.01000000               -0.03030608               -0.02982609                0.09902129                0.00218366                0.02585411                0.00496249
               2.99381195                1.00174238               42.03665007                0.01000001               -0.57559933                0.20976400                0.10950321                0.15417062                0.06365678                0.03064325
               3.98262859                1.01090561               42.03870947                0.01000000               -1.07481375                0.32947849                0.08756639                0.62615671                0.08029085               -0.00279188
               4.97231567                1.02196942               42.04023783                0.01000000               -0.97503958                0.19628367                0.08535342                1.00254903                0.09172093               -0.02228011
               5.96312779                1.03745180               42.04177165                0.01000001               -0.47433539               -0.32590101                0.09649778                1.02190679               -0.01427681                0.03345525
               6.96282897                1.03925572               42.04360835                0.99463857               -0.03075899               -0.03066623                0.10240720                0.00004055                0.00084102               -0.00351967
               7.96251261                1.04107275               42.04544413                1.00000000               -0.03254788               -0.03255604                0.10849295                0.00006493                0.00112717               -0.00031063
               8.96217801                1.04290351               42.04728617                0.99999999               -0.03438017               -0.03435686                0.11459025                0.00006803                0.00095352                0.00092902
               9.96182501                1.04474719               42.04911871                0.99976214               -0.03529987               -0.03625003                0.12068280               -0.00063030                0.00043863                0.00646109
              -0.00346715                2.00700405               42.03211090                0.01000000               -0.02478929                0.02250741                0.07595567               -0.14989352                0.00199888                0.14159721
               0.99628496                2.00511028               42.03332650                0.01000000               -0.02648622               -0.00675298                0.08911684               -0.18980390                0.01751782                0.12217559
               1.99600313                2.00323223               42.03485798                0.01000001               -0.42623932                0.06034074                0.10148666               -0.06617775                0.07059280                0.10256891
               2.98776017                2.00625903               42.03714222                0.01000000               -0.77243413                0.31243215                0.10229873                0.22700153                0.07157461                0.07375206
               3.98055444                2.01356495               42.03872734                0.01000000               -0.72034510                0.13241157                0.10449796                0.83244114                0.02464529                0.04202968
               4.97335327                2.02239661               42.04016653                0.01000001               -0.62347338               -0.14171639                0.10395515                1.23535140               -0.01936173                0.05564016
               5.96808498                2.03121682               42.04143223                0.01141992               -0.61624884               -0.39962936                0.11186071                1.27104958               -0.04356148                0.07795455
               6.96102829                2.03894298               42.04251562                0.01000000               -0.36931415               -0.25441958                0.10657420                0.74249958               -0.04092336                0.07132684
               7.96069869                2.04074095               42.04434656                0.03263978               -0.03387216               -0.04089444                0.11269164                0.03228504               -0.00458524                0.00754533
               8.96035085                2.04255360               42.04615916                0.99999995               -0.03570608               -0.03562013                0.11898348                0.00017078               -0.00322003               -0.00085530
               9.95998457                2.04437827               42.04802126                1.00000000               -0.03662780               -0.03760740                0.12515055               -0.00063164               -0.00085418                0.00657100
              -0.00455437                3.00767487               42.03460150                0.01131391               -0.10518200                0.13392157                0.07638549               -0.15602783               -0.01164365                0.23749954
               0.99439381                3.00523969               42.03558857                0.01000001               -0.18886794                0.00897523                0.08195234               -0.10664047               -0.01048938                0.22185022
               1.99166827                3.00474200               42.03660916                0.01000000               -0.31872730                0.05020084                0.09474643                0.10112930                0.00201288                0.17894632
               2.98801926                3.00799103               42.03790177                0.01000000               -0.42642246                0.05232794                0.10477023                0.66604639                0.02338226                0.10991293
               3.98313982                3.01355384               42.03936742                0.01197091               -0.43242183               -0.10113213                0.11128003                0.95843122                0.01351225                0.08876475
               4.97937083                3.01913509               42.04061443                0.01000000               -0.55687017               -0.24187489                0.11699724                1.35419214               -0.01540870                0.09525033
               5.97200242                3.02945921               42.04165586                0.01000001               -0.56080003               -0.32088096                0.11914913                1.38088635               -0.03701313                0.14905581
               6.96815483                3.03416733               42.04292494                0.01000001               -0.62273614               -0.43149847                0.12152829                1.30361294               -0.07471484                0.19146097
               7.95954770                3.04025486               42.04340669                0.01288243               -0.48053593               -0.26419359                0.11725489                1.01920917               -0.08706865                0.15740974
               8.95854411                3.04219110               42.04500072                0.01173689               -0.06923290               -0.29959276                0.12351836                0.72810576               -0.01663500                0.12192682
               9.95816304                3.04399504               42.04689809                0.59462475               -0.03810708               -0.72431820                0.12959217                0.90164195               -0.00154645                0.11780472
              -0.00171733                4.00968248               42.03631145                0.01000003               -0.11976429                0.22222328                0.07486566                0.17065261                0.00020476                0.24457330
               0.99708502                4.00528979               42.03730663                0.01000000               -0.15041465               -0.05474394                0.07498083                0.31765507               -0.01435238                0.21386045
               1.99527437                4.00423625               42.03813522                0.01000000               -0.24078828               -0.10708965                0.09349292                0.70848614               -0.00318656                0.15410849
               2.99226926                4.00730559               42.03911715                0.01197155               -0.33476861               -0.10378018                0.10721103                0.92502877                0.00752189                0.11089376
               3.98857900                4.01154230               42.04007462                0.01000000               -0.38687573               -0.24433874                0.11614015                1.20033478                0.01422798                0.09889349
               4.98453174                4.01755911               42.04132124                0.01000001               -0.39542673               -0.22944238                0.12372371                1.35612135                0.03552008                0.14233443
               5.98067047                4.02479920               42.04292179                0.01000001               -0.41134213               -0.45549398                0.13033813                1.51292145                0.04165403                0.22453975
               6.97630490                4.03031301               42.04451485                0.01177564               -0.38056812               -0.43472655                0.13511689                1.45788867               -0.01596615                0.25212358
               7.97305910                4.03545708               42.04529278                0.01012487               -0.25660558               -0.58470301                0.13519764                1.59371766               -0.06269632                0.32815678
               8.97117279                4.03656174               42.04633291                0.01000000                0.06752197               -0.77547396                0.13119349                1.11913421               -0.04352522                0.38457758
               9.97440954                4.02989190               42.04802780                0.01318409                0.32367546               -1.25504184                0.12757308                0.88146208               -0.01401119                0.35280178
               0.00764407                5.01211934               42.03908166                0.01000003               -0.14509254               -0.07059370                0.10571522                0.52903170               -0.00885236                0.37395498
               1.00619314                5.00414481               42.03936247                0.01000000               -0.19109373               -0.08258997                0.09488746                0.89636426               -0.01696478                0.26051506
               2.00382220                5.00260021               42.03963493                0.01000001               -0.34896803               -0.13538628                0.09538380                1.13397091               -0.01081717                0.12228173
               2.99921378                5.00591542               42.03999603                0.01000000               -0.34646031               -0.29747772                0.11050130                1.34277389                0.01593441                0.09507730
               3.99689299                5.00866707               42.04102637                0.01000001               -0.29887132               -0.26898142                0.12056749                1.38506174                0.08025379                0.11363314
               4.99323636                5.01454625               42.04276378                0.01000001               -0.36930179               -0.30924468                0.13115470                1.49889575                0.12783054                0.18637069
               5.98950695                5.02034933               42.04494254                0.01175874               -0.32908174               -0.41481389                0.14042102                1.46118610                0.09923436                0.22565407
               6.98665472                5.02547280               42.04636063                0.01000000               -0.21668182               -0.51245374                0.14529585                1.39730591                0.05924331                0.29304475
               7.98517332                5.02856080               42.04799972                0.01000000               -0.00813766               -0.75174837                0.14965815                1.17499988                0.08074447                0.44317107
               8.98649197                5.02668163               42.05011448                0.01000000                0.19793204               -0.94423253                0.15382647                0.79430366                0.06366898                0.53179968
               9.98913196                5.01889420               42.05142171                0.01000001                0.26399881               -0.88649563                0.15458431                0.42782373                0.03941465                0.48056850
               0.02481236                6.00827061               42.04301139                0.49665344               -0.02809190               -0.20630422                0.09132685                0.62756116               -0.00299922                0.20454256
               1.02453144                6.00363799               42.04242140                0.01000001               -0.43145919               -0.04013172                0.09562089                0.81144963               -0.05066524                0.14036302
               2.01618318                6.00152852               42.04086973                0.01142294               -0.57367832               -0.19468931                0.10439268                1.13760503               -0.04762784                0.08814675
               3.01305787                6.00135603               42.04105683                0.01000001               -0.42668823               -0.32392264                0.11375511                1.39497329                0.07623674                0.05704721
               4.00764941                6.00616268               42.04223212                0.01000001               -0.51152410               -0.26149620                0.12513103                1.53497409                0.16364128                0.10590514
               5.00282739                6.01137422               42.04452830                0.01176159               -0.43408886               -0.27859227                0.13756344                1.47521389                0.18726716                0.14421669
               5.99896763                6.01650292               42.04648626                0.01000000               -0.33939227               -0.34971325                0.14618188                1.31954158                0.18730214                0.21250436
               6.99603955                6.02006393               42.04904952                0.01000001               -0.18086791               -0.51128824                0.15457367                1.01597499                0.24788625                0.38974799
               7.99535028                6.02042211               42.05245991                0.01000000                0.03429572               -0.76082956                0.16446757                0.66147447                0.25150517                0.56580507
               8.99672546                6.01767709               42.05517281                0.01083944                0.15952942               -0.82586081                0.17320325                0.33718104                0.15352333                0.59198828
               9.99854086                6.01216199               42.05651087                0.01000001                0.18154033               -0.54300451                0.17562448                0.14447848                0.09272202                0.55023194
               0.02946053                7.00799325               42.04339109                1.00000000               -0.02963098               -0.02867146                0.09670730                0.00063416               -0.00968746                0.02240925
               1.02916422                7.00334217               42.04261742                0.99095757               -0.03021396               -0.03028750                0.10076575               -0.00015277               -0.01054317               -0.00026762
               2.02885625                6.99870642               42.04182196                0.01000000               -0.33425623               -0.15726130                0.10488957                0.67011595                0.01542360                0.02538495
               3.02247910                6.99943697               42.04156742                0.01000001               -0.56409852               -0.38106771                0.10987100                1.24168977                0.11802607               -0.03386912
               4.01757428                7.00343714               42.04322522                0.01177955               -0.50393546               -0.23118667                0.12666829                1.45900096                0.22068524                0.02690623
               5.01240039                7.00897440               42.04534423                0.01000000               -0.51831051               -0.17605436                0.13959307                1.36607299                0.27997034                0.08846637
               6.00720807                7.01335507               42.04849481                0.01000001               -0.46726766               -0.20531314                0.15122393                0.98784769                0.39034998                0.26381746
               7.00305503                7.01524704               42.05314639                0.01000000               -0.32092109               -0.40122726                0.16366198                0.50562556                0.47106177                0.46393218
               8.00078965                7.01334421               42.05818471                0.01096129               -0.07796610               -0.55942776                0.17753805                0.14438847                0.37286793                0.54976624
               9.00149571                7.01016441               42.06104867                0.01000002                0.11310399               -0.73259946                0.18134554               -0.02939160                0.17727638                0.77335591
              10.00305173                7.00803411               42.06210659                0.01000001                0.15560172               -0.48953459                0.18193529               -0.05640293                0.09265984                0.78770893
               0.03412720                8.00769718               42.04367008                1.00000000               -0.03119830               -0.03039214                0.10172341                0.00089278               -0.00146892                0.02090681
               1.03381522                8.00303224               42.04286042                0.99999999               -0.03182522               -0.03178588                0.10600725                0.00014628               -0.00127017                0.00317795
               2.03349070                7.99838330               42.04205311                0.19084639               -0.03271365               -0.03309051                0.11014701               -0.00063379               -0.01135186               -0.01410598
               3.03316095                7.99373468               42.04104462                0.01288732               -0.30993495               -0.30171745                0.09517101                0.92326544                0.12887948               -0.06218475
               4.02729200                8.00153894               42.04308000                0.01013412               -0.64650094               -0.14234009                0.11939234                1.44683080                0.33516242               -0.03733616
               5.02023093                8.00785313               42.04623175                0.01000000               -0.74200228                0.02171731                0.14129324                1.07741193                0.46853826                0.10338836
               6.01245195                8.01239666               42.05130073                0.01000000               -0.70340073                0.00486004                0.15645676                0.58518804                0.60024994                0.26349987
               7.00616291                8.01203939               42.05760407                0.01097720               -0.45656410               -0.15671165                0.17010043                0.08234091                0.58586195                0.36338290
               8.00332067                8.00923356               42.06284025                0.01000002               -0.23575925               -0.38708418                0.17707571               -0.40281187                0.63374501                0.58745672
               9.00144773                8.00302510               42.07027832                0.01757972               -0.08236353               -0.49094022                0.19516788               -0.41201504                0.46112180                0.68799345
              10.00167340                8.00237130               42.07217686                0.01000000                0.02256730               -0.39830617                0.19179482               -0.23918265                0.18277932                0.62825893
               0.03880827                9.00738541               42.04401472                1.00000000               -0.03272383               -0.03198778                0.10694891                0.00090063                0.00240278                0.01943439
               1.03848103                9.00270646               42.04312425                0.99999998               -0.03335650               -0.03338814                0.11130443                0.00016574                0.00158284                0.00280847
               2.03814114                8.99804461               42.04221870                0.99561430               -0.03461341               -0.03470588                0.11580932                0.00036143               -0.00417482               -0.01022978
               3.03778876                8.99340262               42.04121717                0.01154047               -0.28743476               -0.03514105                0.12044563                0.59071581                0.13376680               -0.01617941
               4.03239244                9.00059034               42.04307473                0.01000000               -0.73489263                0.10155751                0.11736372                0.94580329                0.43022045               -0.01978886
               5.02309091                9.00940875               42.04759227                0.01000000               -0.88334322                0.19929909                0.14227254                0.67395633                0.59818496                0.07948442
               6.01472558                9.01345227               42.05339877                0.01089550               -0.76129754                0.13245611                0.16081043                0.25776303                0.66056848                0.16194699
               7.00786496                9.01211280               42.05988087                0.01000002               -0.64889385                0.06958958                0.16850212               -0.14702417                0.82853454                0.16280448
               8.00174770                9.00560253               42.06948666                0.01633308               -0.38736433               -0.17656116                0.17063732               -0.53306187                0.75926352                0.44076624
               9.00011767                9.00034560               42.07487362                0.99999997               -0.10860078               -0.16109205                0.18133641               -0.32957723                0.27085237                0.22913258
               9.99957568                9.00006799               42.07484538                0.99999999               -0.05419858               -0.14203683                0.17985511               -0.11878479                0.00003953                0.13292151
               0.04350313               10.00705742               42.04426206                0.99999999               -0.03437881               -0.03279906                0.11222344                0.00019133                0.01348778                0.01454750
               1.04315934               10.00236447               42.04336083                0.99999998               -0.03506816               -0.03419826                0.11662993               -0.00058110                0.01682623                0.00127990
               2.04280176                9.99768918               42.04253057                0.99243592               -0.03649026               -0.03554309                0.12134309               -0.00056820                0.01669731               -0.00318452
               3.04242953                9.99303186               42.04163417                0.44651871               -0.62999116               -0.03707656                0.12595958                0.75812302                0.16020984               -0.00441063
               4.03020194               10.00357009               42.04368365                0.01344321               -1.07907018                0.29797517                0.11950529                0.72131290                0.44122864                0.00398848
               5.02084813               10.01183912               42.04802242                0.01266958               -0.76493897                0.24303678                0.14503703                0.34950678                0.59152506                0.04630934
               6.01490316               10.01504578               42.05410719                0.01000000               -0.48879792                0.15935164                0.16351783                0.09736169                0.65488020                0.09860161
               7.01107217               10.01343118               42.06029367                0.01699248               -0.52382635                0.13183785                0.16574081               -0.14645098                0.89309265                0.07294766
               8.00442663               10.00570233               42.07132402                0.01000002               -0.53407237                0.00998071                0.17244666               -0.41350256                0.74568421                0.20327512
               9.00039072                9.99980326               42.07488450                0.99999999               -0.22868469               -0.05423431                0.18006634               -0.28128319                0.17929125               -0.00014510
               9.99985294                9.99953056               42.07485626                1.00000000               -0.05377837               -0.05374257                0.17858468                0.00045568               -0.00009315                0.00009510
              -0.00854612                0.00771473               43.03330919                0.99050298               -0.02265225               -0.02107623                0.06873138                0.00275256               -0.00346701                0.00357982
               0.99122736                0.00585529               43.03471076                0.99999999               -0.02467678               -0.02532549                0.08242801                0.00216228               -0.00369055               -0.00137430
               1.99096034                0.00400846               43.03610587                0.11625761               -0.02765569               -0.02960328                0.09612771                0.00294097                0.01439907               -0.00144665
               2.99067424                0.00219055               43.03786903                0.01000001               -0.19728345               -0.03257482                0.10638754                0.33280796                0.02697133               -0.00132860
               3.98701467                0.00702515               43.03952913                0.01000000               -0.62413489                0.40046638                0.08075156                0.25880072                0.02584175                0.00252888
               4.97819154                0.01888239               43.04146614                0.01017902               -1.19514217                0.35645918                0.10634114                0.81241490                0.00355937                0.03555516
               5.96311183                0.03873064               43.04371845                0.43371093               -0.76813451               -0.02825064                0.09191832                0.90110617                0.02529382               -0.00087709
               6.96282885                0.04058933               43.04567629                1.00000000               -0.02924328               -0.02997915                0.09783870                0.00087961                0.00813527               -0.00339967
               7.96252696                0.04246466               43.04758253                1.00000000               -0.03109266               -0.03187117                0.10386878                0.00101259                0.00687488               -0.00042158
               8.96220700                0.04435451               43.04951249                1.00000000               -0.03290037               -0.03372752                0.10990020                0.00101626                0.00654107                0.00105076
               9.96186896                0.04625950               43.05140934                0.99999999               -0.03380433               -0.03567010                0.11601336                0.00023491                0.00501944                0.00499768
              -0.00665915                1.00750397               43.03308584                0.94905043               -0.02387326               -0.02160952                0.07263919                0.00068616                0.00190534                0.00420363
               0.99310212                1.00560203               43.03448875                0.17284677               -0.02593657               -0.02601660                0.08638012                0.00009542                0.00385842               -0.00360770
               1.99282212                1.00371242               43.03593172                0.01000000               -0.03040711               -0.03019562                0.10017594                0.00190365                0.02451278                0.00439080
               2.99249398                1.00186481               43.03775259                0.01000001               -0.57826778                0.20925647                0.11067001                0.15449230                0.03555580                0.02342300
               3.98125676                1.01102981               43.03941688                0.01000000               -1.10155138                0.33780037                0.07850418                0.63561044               -0.00050028                0.03563315
               4.97046295                1.02244698               43.04107882                0.01000000               -0.99936713                0.19696291                0.08688625                1.05395533               -0.05173418                0.05655303
               5.96126942                1.03844813               43.04273616                0.01000001               -0.47461538               -0.33725867                0.09652705                1.05634114               -0.01120965                0.03960567
               6.96097064                1.04028954               43.04463184                0.99294688               -0.03074585               -0.03061862                0.10228729                0.00002842                0.00075170               -0.00357981
               7.96065450                1.04214594               43.04652885                0.99999999               -0.03254487               -0.03253514                0.10846466                0.00007489                0.00116174               -0.00033744
               8.96031974                1.04401723               43.04843285                0.99999999               -0.03440944               -0.03443171                0.11472578                0.00002168                0.00098956                0.00093482
               9.95996631                1.04590280               43.05032700                0.99961545               -0.03534279               -0.03637741                0.12089124               -0.00069748                0.00045746                0.00644386
              -0.00472852                2.00728254               43.03287346                0.01000000               -0.02506667                0.02337633                0.07655090               -0.14655814                0.00199499                0.13989009
               0.99502081                2.00533496               43.03422353                0.01000000               -0.02679189               -0.00846165                0.09023287               -0.18721996                0.01707866                0.11629326
               1.99473564                2.00340454               43.03587974                0.01000001               -0.42870567                0.05728394                0.10243250               -0.06400378                0.06165194                0.09610136
               2.98644670                2.00637568               43.03812685                0.01000000               -0.77954672                0.31178427                0.09893376                0.23577139                0.04957733                0.07310755
               3.97914471                2.01378115               43.03971324                0.01000000               -0.72971844                0.13696200                0.09891562                0.85410014               -0.00422068                0.08334075
               4.97185233                2.02282165               43.04112548                0.01000001               -0.63743067               -0.14721885                0.09899109                1.28877322               -0.01824934                0.08571041
               5.96639609                2.03198546               43.04256284                0.01141991               -0.63603611               -0.41295164                0.11271639                1.31733741               -0.05346833                0.07999894
               6.95913161                2.03997696               43.04358262                0.01000000               -0.37976607               -0.26181475                0.10675151                0.76787617               -0.04703478                0.07707938
               7.95880077                2.04181395               43.04547580                0.03305242               -0.03405128               -0.04060880                0.11311944                0.03234293               -0.00446552                0.00818913
               8.95845058                2.04366587               43.04734984                0.99999999               -0.03584480               -0.03575338                0.11938838               -0.00006629               -0.00319498               -0.00099053
               9.95808388                2.04553195               43.04927260                1.00000000               -0.03667064               -0.03770924                0.12543621               -0.00065918               -0.00096870                0.00642574
              -0.00569514                3.00797150               43.03536642                0.01117915               -0.10691448                0.13670190                0.07612695               -0.15040742               -0.01389634                0.24216799
               0.99323572                3.00543280               43.03640450                0.01000001               -0.19017744                0.00403275                0.08305423               -0.10072831               -0.01048820                0.20977376
               1.99050131                3.00485810               43.03754980                0.01000000               -0.32014634                0.04098506                0.09493609                0.11499656                0.00591233                0.16872556
               2.98683279                3.00810049               43.03893045                0.01000000               -0.43042562                0.04875562                0.10324438                0.69158669                0.02210723                0.11460889
               3.98189280                3.01376905               43.04045779                0.01197066               -0.43993444               -0.10455002                0.10953965                0.99293346                0.01334993                0.09963318
               4.97803410                3.01950260               43.04177618                0.01000000               -0.57159726               -0.24630841                0.11616401                1.40074495               -0.01693150                0.10901138
               5.97046086                3.03018910               43.04285117                0.01000001               -0.57672145               -0.32994887                0.11995190                1.43141259               -0.03775427                0.15487836
               6.96649967                3.03505325               43.04415232                0.01000001               -0.64242033               -0.44401777                0.12323019                1.34828180               -0.08182920                0.20128842
               7.95761245                3.04133377               43.04459414                0.01292527               -0.49496261               -0.26947944                0.12110700                1.04789850               -0.09305441                0.16570622
               8.95660042                3.04330216               43.04623376                0.01210060               -0.06957370               -0.29167984                0.12383346                0.73524988               -0.01725994                0.12482588
               9.95622098                3.04514861               43.04819212                0.61215564               -0.03794454               -0.71966582                0.12995642                0.90717010               -0.00170092                0.11402174
              -0.00265927                4.01001658               43.03713933                0.01000003               -0.12210848                0.22397019                0.08517294                0.19060473                0.00504314                0.27296826
               0.99611964                4.00541561               43.03811303                0.01000000               -0.14864238               -0.06991731                0.08554200                0.34360037                0.00288245                0.20315289
               1.99436788                4.00422424               43.03906852                0.01000000               -0.23760799               -0.12077791                0.09532096                0.74355591                0.01343017                0.14913653
               2.99136748                4.00735080               43.04018642                0.01197194               -0.33833083               -0.11090847                0.10768553                0.96551151                0.01675398                0.11213975
               3.98760126                4.01169015               43.04123117                0.01000000               -0.39601505               -0.25276347                0.11609903                1.24763033                0.01905347                0.10348393
               4.98344718                4.01789548               43.04255733                0.01000001               -0.40637797               -0.23538703                0.12415681                1.41035235                0.04016040                0.14852827
               5.97947370                4.02538649               43.04423670                0.01000001               -0.42473043               -0.46889500                0.13235626                1.57174056                0.04592043                0.23322574
               6.97495257                4.03109660               43.04589089                0.01178494               -0.39819398               -0.44673780                0.13928344                1.51276962               -0.01248073                0.26131276
               7.97150982                4.03642437               43.04667655                0.01015717               -0.28059182               -0.59747420                0.14305680                1.66161384               -0.06161102                0.33766314
               8.96934074                4.03783227               43.04767258                0.01000000                0.05122780               -0.78726241                0.14164440                1.17697712               -0.04666563                0.40125446
               9.97253438                4.03113863               43.04929535                0.01376342                0.31936436               -1.28565190                0.12545519                0.93051307               -0.01896276                0.36377537
               0.00731890                5.01245090               43.04013528                0.01000003               -0.14188367               -0.09409973                0.09879417                0.55888204               -0.01484746                0.36667767
               1.00590006                5.00403445               43.04034056                0.01000000               -0.19408264               -0.10139890                0.09725757                0.94730904               -0.00666886                0.24900610
               2.00343725                5.00244254               43.04060843                0.01000001               -0.36114755               -0.14637025                0.09984879                1.19292284                0.00006605                0.12460993
               2.99867711                5.00588232               43.04110323                0.01000000               -0.35682608               -0.31045100                0.11199676                1.40167778                0.02724562                0.09775829
               3.99630072                5.00871378               43.04223760                0.01000001               -0.30661474               -0.27896713                0.12181665                1.44264458                0.08901251                0.11739326
               4.99254482                5.01479486               43.04408627                0.01000001               -0.38030910               -0.31881684                0.13326437                1.56054457                0.13619765                0.19282213
               5.98869454                5.02081120               43.04636588                0.01176653               -0.34138146               -0.42721227                0.14353843                1.52115296                0.10643183                0.23204375
               6.98571719                5.02611849               43.04783971                0.01000000               -0.22927434               -0.52716642                0.14991110                1.45761724                0.06665663                0.29897450
               7.98410906                5.02938428               43.04953280                0.01000000               -0.01457458               -0.77308844                0.15604667                1.23702619                0.09129668                0.45007317
               8.98542570                5.02755691               43.05170045                0.01000000                0.20547327               -0.98721266                0.16917909                0.84781158                0.07506120                0.53690209
               9.98821852                5.01943557               43.05299476                0.01000001                0.27928256               -0.94323608                0.17012017                0.46795998                0.04793152                0.48497057
               0.02535127                6.00813459               43.04391615                0.48180618               -0.02770834               -0.22947614                0.08975100                0.66514072               -0.00294554                0.19442441
               1.02507418                6.00338763               43.04337258                0.01000001               -0.44863989               -0.04705626                0.09474482                0.85418892               -0.04785113                0.13623098
               2.01637847                6.00129684               43.04192442                0.01142278               -0.59721911               -0.20503290                0.10624210                1.19155342               -0.03898813                0.08798803
               3.01312980                6.00114178               43.04222456                0.01000001               -0.44184272               -0.34214392                0.11583088                1.45478357                0.08569253                0.05657587
               4.00754161                6.00611081               43.04349722                0.01000001               -0.52845716               -0.27143406                0.12895648                1.59739674                0.17197517                0.11022683
               5.00256066                6.01151914               43.04592505                0.01176656               -0.44842380               -0.28989918                0.14109210                1.53701503                0.19591784                0.14868600
               5.99857314                6.01684224               43.04797104                0.01000000               -0.35144126               -0.36154412                0.15009269                1.37690949                0.19474495                0.21723546
               6.99553183                6.02055328               43.05061876                0.01000001               -0.18806071               -0.52600687                0.15828892                1.06606188                0.25860338                0.39577194
               7.99481192                6.02096260               43.05413729                0.01000000                0.03569240               -0.78754251                0.17021464                0.69987137                0.26589480                0.57177261
               8.99624568                6.01808802               43.05694792                0.01088799                0.16621695               -0.86172186                0.18064700                0.35991852                0.16386151                0.59068150
               9.99813626                6.01227391               43.05830409                0.01000000                0.18905828               -0.56909594                0.18166101                0.15355436                0.09642945                0.54953422
               0.03011562                7.00786138               43.04435258                1.00000000               -0.02940338               -0.02834041                0.09558825                0.00065207               -0.00990869                0.02237434
               1.02982159                7.00309333               43.04362323                0.98651319               -0.03007257               -0.03018011                0.10035106               -0.00022406               -0.01071506               -0.00031437
               2.02951417                6.99834189               43.04287267                0.01000000               -0.34313889               -0.16398021                0.10519747                0.69154307                0.01485084                0.02236644
               3.02295881                6.99903944               43.04265398                0.01000001               -0.58214387               -0.39291500                0.12421281                1.28491977                0.12156138               -0.04687123
               4.01787129                7.00328510               43.04451910                0.01178786               -0.52025614               -0.24443643                0.12934156                1.52605366                0.23301259                0.02193049
               5.01255369                7.00899688               43.04676812                0.01000000               -0.53363469               -0.18811519                0.14598629                1.42561339                0.28741275                0.09267214
               6.00719860                7.01358032               43.05003400                0.01000001               -0.48178087               -0.21338204                0.15557378                1.03903066                0.39946034                0.26917969
               7.00291807                7.01559835               43.05480803                0.01000000               -0.33134308               -0.41263654                0.16781370                0.53825504                0.48376462                0.47017325
               8.00057174                7.01363343               43.05998395                0.01100439               -0.08026593               -0.57565405                0.18116760                0.16166247                0.38294149                0.55112793
               9.00131275                7.01032248               43.06288279                0.01000002                0.11730459               -0.75471693                0.18411196               -0.02142997                0.18049750                0.77654050
              10.00291783                7.00805366               43.06394088                0.01000001                0.16050781               -0.49933902                0.18389595               -0.05324579                0.09244191                0.78731213
               0.03490041                8.00756778               43.04468419                1.00000000               -0.03112142               -0.03021206                0.10108887                0.00088849               -0.00149318                0.02079603
               1.03458919                8.00278403               43.04392071                0.99999999               -0.03185978               -0.03177972                0.10601000                0.00003656               -0.00137304                0.00313436
               2.03426321                7.99801724               43.04315733                0.19976737               -0.03521074               -0.03326012                0.11072572                0.00080295               -0.02734542               -0.01403537
               3.03388498                7.99328348               43.04187515                0.01293010               -0.30789815               -0.30602757                0.03239269                0.94613921                0.15563165               -0.07488168
               4.02810525                8.00122208               43.04425484                0.01016655               -0.65536353               -0.16055582                0.13966631                1.50467551                0.35799932               -0.04311893
               5.02077771                8.00775684               43.04769930                0.01000000               -0.76764860                0.01505510                0.14829480                1.13395151                0.48155367                0.10453072
               6.01275228                8.01257460               43.05289364                0.01000000               -0.72669479                0.00401227                0.16266740                0.62542188                0.60857049                0.26935114
               7.00624381                8.01230055               43.05933003                0.01101897               -0.47156155               -0.16033707                0.17419528                0.10261722                0.59335174                0.36577535
               8.00332105                8.00944952               43.06462615                0.01000002               -0.24234770               -0.39315962                0.17915436               -0.40150327                0.64490839                0.58201016
               9.00139686                8.00299368               43.07222945                0.01791462               -0.08560279               -0.49911623                0.19377610               -0.41604482                0.46898736                0.68757113
              10.00160899                8.00228713               43.07408889                0.01000000                0.02121319               -0.39949093                0.18960930               -0.23596149                0.18067580                0.62723194
               0.03970089                9.00725714               43.04508375                1.00000000               -0.03280255               -0.03194073                0.10684084                0.00089890                0.00237717                0.01944149
               1.03937286                9.00245773               43.04423915                0.99999998               -0.03350524               -0.03349632                0.11171958                0.00008187                0.00164076                0.00278273
               2.03903078                8.99767668               43.04338110                1.00000000               -0.03480582               -0.03492360                0.11649563                0.00041143               -0.00393563               -0.01003270
               3.03867675                8.99291889               43.04242895                0.01194684               -0.27696716               -0.03698467                0.12115518                0.59731565                0.12928014               -0.00016527
               4.03349144                9.00007398               43.04424113                0.01000000               -0.73982730                0.08804082                0.12120762                0.98275374                0.43783796               -0.02574365
               5.02388020                9.00929798               43.04904016                0.01000000               -0.91640548                0.20496605                0.14992894                0.71607831                0.61545526                0.07824535
               6.01516333                9.01366056               43.05503771                0.01094188               -0.78923503                0.13676361                0.16785466                0.28148302                0.66636130                0.16561460
               7.00809550                9.01239161               43.06158678                0.01000002               -0.66573981                0.07195209                0.17206566               -0.13783695                0.82876621                0.16067166
               8.00184853                9.00577024               43.07119568                0.01621561               -0.39706302               -0.17740172                0.16978389               -0.53909775                0.76569704                0.43901652
               9.00015424                9.00034015               43.07668860                0.99999997               -0.11184152               -0.15982303                0.18166926               -0.33391971                0.27697646                0.22303248
               9.99961170                9.00006384               43.07664388                0.99301663               -0.05425352               -0.13800732                0.17984468               -0.11370005                0.00004134                0.12795974
               0.04451720               10.00692896               43.04538617                0.99999999               -0.03459084               -0.03281740                0.11256388                0.00014468                0.01349164                0.01456293
               1.04417129               10.00211410               43.04453096                0.99999998               -0.03534563               -0.03436298                0.11744048               -0.00066764                0.01708047                0.00127447
               2.04381028                9.99731876               43.04375163                0.99512164               -0.03686478               -0.03579199                0.12245546               -0.00056613                0.01720727               -0.00295443
               3.04343399                9.99254378               43.04290554                0.47813576               -0.62145238               -0.03751096                0.12745425                0.75893132                0.15417031               -0.00430428
               4.03138124               10.00298290               43.04487259                0.01400186               -1.09606465                0.29089152                0.11959949                0.75459833                0.44907538               -0.00352715
               5.02151270               10.01185616               43.04948116                0.01306249               -0.80464627                0.25581778                0.14871130                0.37959846                0.60827272                0.04561802
               6.01528831               10.01530987               43.05576194                0.01000000               -0.50676524                0.16493114                0.16860561                0.10666926                0.65720815                0.09957087
               7.01137739               10.01373959               43.06196446                0.01738533               -0.53488799                0.13479762                0.16764440               -0.14223022                0.89173376                0.06897961
               8.00459055               10.00590148               43.07304267                0.01000002               -0.54762613                0.01312386                0.16987924               -0.42291670                0.75315891                0.20637420
               9.00042487                9.99979722               43.07668523                0.99301846               -0.23514632               -0.05429307                0.18007798               -0.29166168                0.18421392               -0.00015018
               9.99988762                9.99952698               43.07664050                1.00000000               -0.05372474               -0.05368521                0.17825697                0.00056813               -0.00009812                0.00009688
              -0.01005118                0.00795468               44.03399347                0.99005689               -0.02258509               -0.02101431                0.06814425                0.00285661               -0.00378183                0.00375831
               0.98972297                0.00604381               44.03553456                0.99999999               -0.02460104               -0.02539873                0.08217960                0.00230988               -0.00370806               -0.00141866
               1.98945680                0.00414811               44.03706929                0.12725364               -0.02798147               -0.02989808                0.09666828                0.00233005                0.01214830               -0.00143729
               2.98916334                0.00227005               44.03893106                0.01000001               -0.21393691               -0.03170333                0.10359081                0.34257406                0.00996153               -0.00233600
               3.98517807                0.00725046               44.04044459                0.01000000               -0.67164987                0.41837039                0.09639233                0.29576001               -0.01664430                0.00623245
               4.97573035                0.01995669               44.04242466                0.01097581               -1.19745979                0.34844618                0.10096749                0.84470740               -0.05523697                0.07601003
               5.96122887                0.03968188               44.04463572                0.42756465               -0.73916448               -0.02823648                0.09158243                0.89319662                0.02003935               -0.00072802
               6.96094706                0.04157720               44.04665284                1.00000000               -0.02911974               -0.02994068                0.09744522                0.00088136                0.00788801               -0.00361864
               7.96064647                0.04349101               44.04861925                1.00000000               -0.03095618               -0.03182702                0.10343628                0.00102888                0.00665953               -0.00054944
               8.96032793                0.04542104               44.05060930                1.00000000               -0.03276272               -0.03361854                0.10943467                0.00101580                0.00638433                0.00113581
               9.95999122                0.04736790               44.05256735                1.00000000               -0.03367132               -0.03550908                0.11552338                0.00014859                0.00494447                0.00507576
              -0.00811174                1.00774453               44.03381231                0.94517229               -0.02388991               -0.02167069                0.07275646                0.00071860                0.00206476                0.00418921
               0.99164936                1.00578983               44.03535516                0.18500954               -0.02606347               -0.02617111                0.08690067                0.00009370                0.00396481               -0.00365457
               1.99136699                1.00384913               44.03693936                0.01000000               -0.03057238               -0.03059676                0.10143764                0.00196123                0.02276731                0.00313255
               2.99103791                1.00195302               44.03886347                0.01000001               -0.60373193                0.21366341                0.10907682                0.16699551                0.01402930                0.01618842
               3.97929235                1.01143417               44.04027956                0.01000000               -1.15380987                0.34701909                0.09513989                0.68907364               -0.05159172                0.05744713
               4.96796171                1.02344115               44.04197556                0.01000000               -0.99708848                0.17283865                0.09608328                1.11868412               -0.09774772                0.09456165
               5.95935058                1.03939952               44.04370220                0.01000001               -0.44552009               -0.34900481                0.09675188                1.05831225               -0.01095877                0.04516433
               6.95905131                1.04127780               44.04565410                0.98753372               -0.03078658               -0.03065549                0.10242500                0.00004015                0.00058563               -0.00384048
               7.95873485                1.04317274               44.04761342                0.99999999               -0.03258321               -0.03257806                0.10859761                0.00013723                0.00127718               -0.00044759
               8.95839964                1.04508485               44.04958068                0.99999999               -0.03445002               -0.03440815                0.11479573                0.00011443                0.00105715                0.00095907
               9.95804585                1.04701281               44.05153654                0.99946109               -0.03537994               -0.03631195                0.12090170               -0.00078122                0.00046012                0.00640409
              -0.00612739                2.00752126               44.03364191                0.01000000               -0.02523614                0.02539158                0.07701926               -0.13992280                0.00197855                0.13731873
               0.99362025                2.00552039               44.03513116                0.01000000               -0.02698882               -0.01220832                0.09108198               -0.18168886                0.01606039                0.11106963
               1.99333284                2.00353618               44.03690663                0.01000001               -0.43510178                0.05393006                0.10116199               -0.05417424                0.05247876                0.08932037
               2.98491822                2.00654332               44.03912090                0.01000000               -0.79307156                0.31353091                0.10211547                0.25850904                0.03023571                0.07168872
               3.97747141                2.01419085               44.04070565                0.01000000               -0.73897695                0.12972035                0.10398884                0.90694410               -0.02425447                0.10806757
               4.97013868                2.02341346               44.04214635                0.01000001               -0.64564701               -0.17788382                0.10601507                1.35940268               -0.02634597                0.10872157
               5.96455847                2.03270179               44.04368656                0.01141934               -0.64820180               -0.42582971                0.11212771                1.35356278               -0.06265685                0.08711825
               6.95717464                2.04096409               44.04465065                0.01000000               -0.38581519               -0.26964843                0.10742304                0.79308128               -0.05256988                0.08284441
               7.95684216                2.04283945               44.04660895                0.03422886               -0.03422462               -0.04022532                0.11375241                0.03195523               -0.00414111                0.01066803
               8.95649015                2.04473288               44.04854693                0.99475967               -0.03612386               -0.03599853                0.12028715                0.00017467               -0.00311827               -0.00119485
               9.95611968                2.04664166               44.05052998                1.00000000               -0.03704643               -0.03800453                0.12646309               -0.00079953               -0.00112900                0.00622708
              -0.00690846                3.00825237               44.03612404                0.01097907               -0.10908776                0.14258604                0.07593488               -0.14249534               -0.01300084                0.24473769
               0.99200067                3.00554566               44.03724966                0.01000001               -0.19154858               -0.00518038                0.08592106               -0.08657029               -0.00874944                0.20306058
               1.98926057                3.00492773               44.03850788                0.01000000               -0.32236241                0.03120892                0.09722606                0.14073599                0.00746334                0.16224790
               2.98555342                3.00822363               44.03996666                0.01000000               -0.43497429                0.04161404                0.10565782                0.73121556                0.02003697                0.11872048
               3.98056109                3.01402857               44.04155822                0.01197177               -0.44572984               -0.11793341                0.11209381                1.03887990                0.01152230                0.11037748
               4.97663882                3.01988347               44.04293771                0.01000000               -0.58449443               -0.25969336                0.11766981                1.45225476               -0.01820576                0.12052551
               5.96887120                3.03088292               44.04405490                0.01000001               -0.59317732               -0.33763901                0.12089343                1.48490999               -0.03903437                0.16172114
               6.96477528                3.03588483               44.04538954                0.01000001               -0.66330156               -0.45561126                0.12393460                1.39630460               -0.08652840                0.21407225
               7.95560517                3.04236823               44.04582883                0.01296916               -0.50871767               -0.27838843                0.12380634                1.08415446               -0.10281110                0.17790396
               8.95460092                3.04436488               44.04747739                0.01248274               -0.06964413               -0.28063676                0.12592227                0.75075085               -0.01977626                0.13455411
               9.95421228                3.04625272               44.04949721                0.63007702               -0.03886374               -0.71384425                0.13200679                0.92203655               -0.00180331                0.10815429
              -0.00356388                4.01037298               44.03801491                0.01000003               -0.12226383                0.22118505                0.08847289                0.19663068                0.00698872                0.28123485
               0.99521348                4.00541678               44.03901747                0.01000000               -0.14832690               -0.08401391                0.09257179                0.36866630                0.00796383                0.20094170
               1.99346958                4.00416035               44.04004164                0.01000000               -0.23858984               -0.13456153                0.09957519                0.78795466                0.02077704                0.14722831
               2.99044168                4.00737560               44.04127086                0.01197216               -0.34402076               -0.11955884                0.10989373                1.01239647                0.02317336                0.11430915
               3.98658917                4.01183218               44.04239660                0.01000000               -0.40561309               -0.26398462                0.11775907                1.29865531                0.02343160                0.10829335
               4.98232942                4.01821959               44.04380437                0.01000001               -0.41669285               -0.24242509                0.12566917                1.46550195                0.04497240                0.15581279
               5.97825531                4.02594901               44.04556891                0.01000001               -0.43569977               -0.48135292                0.13345010                1.63216121                0.05174697                0.24297167
               6.97361543                4.03185187               44.04730052                0.01179334               -0.41050568               -0.45802013                0.14060980                1.56841630               -0.00344178                0.27167928
               7.97004520                4.03727168               44.04815391                0.01019221               -0.29973750               -0.61333528                0.14775771                1.74008108               -0.04363253                0.35396818
               8.96762068                4.03912014               44.04916580                0.01000000                0.03697743               -0.81102790                0.15674801                1.25117069               -0.00419134                0.34574797
               9.97078474                4.03236478               44.05053691                0.01000001                0.31640674               -1.33339221                0.17040856                0.98894748                0.03490626                0.26139380
               0.00693656                5.01267607               44.04105755                0.01000003               -0.13499370               -0.12155904                0.09069117                0.58915506               -0.01496841                0.36018664
               1.00558662                5.00386538               44.04130762                0.01000000               -0.19378553               -0.11684228                0.09627291                0.99565509               -0.00474587                0.24573788
               2.00306085                5.00223650               44.04163191                0.01000001               -0.37285494               -0.15681570                0.10327745                1.25244665                0.00676961                0.12473809
               2.99812952                5.00583246               44.04223597                0.01000000               -0.36853252               -0.32194003                0.11386701                1.46348125                0.03548383                0.09837575
               3.99569020                5.00874888               44.04346270                0.01000001               -0.31487471               -0.28732340                0.12346810                1.50008850                0.09717634                0.12306432
               4.99183203                5.01503497               44.04542907                0.01000001               -0.39040267               -0.32767495                0.13471499                1.62247464                0.14524560                0.20059181
               5.98788215                5.02125587               44.04781330                0.01177263               -0.35055496               -0.43847469                0.14471438                1.58014843                0.11509249                0.23956988
               6.98482093                5.02672443               44.04935885                0.01000000               -0.23718151               -0.54204081                0.15151491                1.51377943                0.07792028                0.30550578
               7.98313852                5.03010153               44.05112066                0.01000000               -0.01448474               -0.79326318                0.15810462                1.28568565                0.12178265                0.44795990
               8.98453124                5.02814433               44.05349806                0.01000000                0.21817242               -1.04058835                0.18036120                0.88492845                0.11201291                0.50349052
               9.98750196                5.01958488               44.05482412                0.01000001                0.29707278               -1.00791122                0.17907879                0.49267362                0.06197569                0.46018159
               0.02584059                6.00794180               44.04480641                0.46707223               -0.02744428               -0.25016846                0.08845385                0.70303735               -0.00293832                0.19004636
               1.02556615                6.00307994               44.04431630                0.01000001               -0.46445773               -0.05388115                0.09406238                0.89627180               -0.04425968                0.13205506
               2.01655144                6.00102404               44.04299457                0.01142297               -0.61836108               -0.21578300                0.10678788                1.24592661               -0.03109266                0.08594650
               3.01319893                6.00093680               44.04337345                0.01000001               -0.45815069               -0.34917533                0.11651968                1.50980186                0.09534412                0.06908585
               4.00738842                6.00608571               44.04481125                0.01000001               -0.54634983               -0.28153743                0.13076538                1.65797457                0.18289335                0.11508034
               5.00227193                6.01166609               44.04735014                0.01177290               -0.46098006               -0.29906898                0.14328381                1.59477597                0.20360328                0.15738948
               5.99816882                6.01717951               44.04948812                0.01000000               -0.36132871               -0.37199040                0.15167061                1.43100870                0.20255283                0.22360053
               6.99504536                6.02101105               44.05221530                0.01000000               -0.19149070               -0.53925966                0.15932810                1.10931702                0.27176347                0.40167092
               7.99433901                6.02140641               44.05586420                0.01000000                0.03952695               -0.81118088                0.17181185                0.72662624                0.28511104                0.57233139
               8.99583590                6.01830838               44.05878575                0.01094030                0.17090546               -0.88653163                0.18217142                0.37088175                0.17576797                0.57320452
               9.99775712                6.01220655               44.06014409                0.01000000                0.19212220               -0.57946616                0.18396529                0.15393912                0.09871157                0.53067751
               0.03072104                7.00767270               44.04530285                0.99986428               -0.02912162               -0.02799411                0.09441852                0.00069207               -0.01007480                0.02240669
               1.03042982                7.00278776               44.04462444                0.98196713               -0.02992593               -0.03004668                0.09987075               -0.00016899               -0.01084675               -0.00037922
               2.03012252                6.99792084               44.04392591                0.01000000               -0.35829654               -0.17149395                0.10539482                0.72495524                0.02940455                0.01848418
               3.02326389                6.99884895               44.04405167                0.01000001               -0.60010626               -0.42373612                0.12491115                1.35872187                0.12941082               -0.09691358
               4.01812040                7.00311813               44.04581205                0.01179829               -0.53150735               -0.25655886                0.13643459                1.57220259                0.22816900                0.04322986
               5.01263375                7.00905359               44.04826396                0.01000000               -0.54815174               -0.19971946                0.14934220                1.48245971                0.29471806                0.10033287
               6.00715736                7.01381606               44.05160629                0.01000000               -0.49266872               -0.21997694                0.15754364                1.08547289                0.40625755                0.27889581
               7.00278037                7.01593923               44.05650267                0.01000000               -0.33918212               -0.42174513                0.16932513                0.56569617                0.49603770                0.47811793
               8.00037372                7.01387791               44.06180806                0.01105404               -0.08158192               -0.58721907                0.18157465                0.17274355                0.39239876                0.55105787
               9.00114873                7.01041369               44.06473091                0.01000002                0.12053365               -0.76688305                0.18313730               -0.01767556                0.18326180                0.77493854
              10.00278439                7.00799555               44.06578451                0.01000001                0.16356588               -0.49968086                0.18209619               -0.05126851                0.09167100                0.78195002
               0.03562431                8.00738192               44.04569186                1.00000000               -0.03096857               -0.03002152                0.10044191                0.00090642               -0.00146558                0.02081447
               1.03531463                8.00247900               44.04498062                0.99999999               -0.03174817               -0.03179486                0.10594533               -0.00005450               -0.00144662                0.00316413
               2.03498935                7.99759416               44.04426763                0.03377492               -0.00692772               -0.03355913                0.11151504               -0.01334100               -0.09469176               -0.01419872
               3.03517607                7.99246208               44.04169247                0.01297384               -0.31807565               -0.32400145                0.10826338                0.98054028                0.13054140               -0.04638844
               4.02862784                8.00095453               44.04587332                0.01020119               -0.69764359               -0.18302095                0.14855765                1.58136092                0.40789441               -0.04554216
               5.02122320                8.00767170               44.04919765                0.01000000               -0.78175986                0.00691040                0.15402830                1.18975676                0.47193013                0.11402291
               6.01299264                8.01277997               44.05455408                0.01000000               -0.74628849                0.00400983                0.16696564                0.66266339                0.61394884                0.28211106
               7.00629743                8.01257615               44.06108798                0.01106664               -0.48366099               -0.16237137                0.17600764                0.11919965                0.59696162                0.37098501
               8.00331942                8.00966203               44.06642333                0.01000002               -0.24663454               -0.39557845                0.17878082               -0.40096701                0.65295942                0.57607937
               9.00136474                8.00297071               44.07415384                0.01820027               -0.08756945               -0.50316125                0.18916421               -0.41944176                0.47542577                0.68799924
              10.00156803                8.00221294               44.07596905                0.01000000                0.02032900               -0.39599898                0.18522205               -0.23169986                0.17940807                0.62660680
               0.04054500                9.00707227               44.04615154                1.00000000               -0.03285088               -0.03190388                0.10672585                0.00091270                0.00243863                0.01955583
               1.04021649                9.00215186               44.04535865                0.99999998               -0.03361870               -0.03363250                0.11214185               -0.00008724                0.00154149                0.00282719
               2.03987263                8.99724966               44.04454861                0.99999999               -0.03510835               -0.03525614                0.11739792               -0.00004821               -0.00445973               -0.01009706
               3.03951433                8.99236892               44.04364027                0.01241154               -0.26673214               -0.02347487                0.12243158                0.57119797                0.12848785                0.06661421
               4.03453799                8.99945771               44.04549889                0.01000000               -0.74554446                0.06410537                0.13813307                1.04014377                0.45316956               -0.04818806
               5.02460344                9.00919180               44.05059085                0.01000000               -0.95159015                0.20988911                0.16549904                0.76697853                0.61949010                0.08741777
               6.01550618                9.01389625               44.05675586                0.01099322               -0.81605659                0.14043793                0.17457040                0.30356954                0.66171599                0.17434338
               7.00828231                9.01269181               44.06332218                0.01000002               -0.67731841                0.07396357                0.17354078               -0.13006167                0.82229922                0.16062083
               8.00195981                9.00596634               44.07288233                0.01603890               -0.40366556               -0.17630999                0.16522580               -0.54458605                0.77170155                0.43815578
               9.00020900                9.00035047               44.07850700                0.99999997               -0.11469313               -0.15818556                0.18201785               -0.33891658                0.28457768                0.21861795
               9.99966595                9.00007557               44.07844227                0.99320947               -0.05430429               -0.13368345                0.17984268               -0.10886903                0.00003584                0.12474411
               0.04548338               10.00674384               44.04651333                1.00000000               -0.03478878               -0.03284233                0.11284513                0.00008859                0.01360737                0.01464914
               1.04513549               10.00180635               44.04570964                0.99999138               -0.03560279               -0.03455069                0.11825536               -0.00084062                0.01712475                0.00128348
               2.04477132                9.99688904               44.04497968                0.99825145               -0.03717579               -0.03606200                0.12343245               -0.00081935                0.01719705               -0.00294280
               3.04439198                9.99199258               44.04418325                0.51141243               -0.60817441               -0.03763436                0.12860526                0.75514486                0.14795098               -0.00400224
               4.03260783               10.00223664               44.04607564                0.01000001               -1.11338722                0.27789249                0.11965292                0.80083026                0.46173400               -0.01177677
               5.02212423               10.01186949               44.05099665                0.01345712               -0.85219059                0.26776875                0.16534741                0.41968397                0.61169814                0.05150235
               6.01556402               10.01558873               44.05747930                0.01000000               -0.52490587                0.16924785                0.17349682                0.11508076                0.65099316                0.10217062
               7.01162611               10.01405542               44.06364656                0.01000001               -0.53974941                0.13636163                0.16767678               -0.13826431                0.88335633                0.06562911
               8.00476903               10.00613583               44.07472161                0.01000002               -0.55744697                0.01694943                0.16417698               -0.43149894                0.76184470                0.21153138
               9.00047717                9.99980700               44.07848606                0.99321133               -0.24142971               -0.05434656                0.18009613               -0.30301043                0.19129640               -0.00016384
               9.99994044                9.99953927               44.07842140                1.00000000               -0.05367334               -0.05363064                0.17790315                0.00067520               -0.00009335                0.00010851
              -0.01170395                0.00815222               45.03467208                0.98965363               -0.02186843               -0.02129122                0.06753982                0.00338847               -0.00152809                0.00218318
               0.98807737                0.00618572               45.03635435                0.99999999               -0.02446202               -0.02533767                0.08237241                0.00206642               -0.00414704               -0.00065688
               1.98780681                0.00423957               45.03803923                0.13741785               -0.02895968               -0.03018321                0.09707973                0.00089951                0.00611518               -0.00204209
               2.98749817                0.00227902               45.03994084                0.01000001               -0.23093127               -0.02802791                0.09650323                0.35563377               -0.00361238               -0.00311517
               3.98318819                0.00747986               45.04145698                0.01000002               -0.73012522                0.44378311                0.10524328                0.34355363               -0.02305099                0.00775843
               4.97289567                0.02130079               45.04348549                0.01155819               -1.19518772                0.33157329                0.10232271                0.87413246               -0.06293135                0.07343992
               5.95928443                0.04058314               45.04555010                0.42163820               -0.69462885               -0.02825528                0.09134364                0.86941077                0.00951776               -0.00065142
               6.95900309                0.04251445               45.04762520                1.00000000               -0.02903682               -0.02995260                0.09708482                0.00091250                0.00762935               -0.00370931
               7.95870370                0.04446532               45.04965126                1.00000000               -0.03082548               -0.03180291                0.10299686                0.00097713                0.00647619               -0.00059364
               8.95838658                0.04643446               45.05170119                1.00000000               -0.03259707               -0.03356771                0.10890097                0.00098481                0.00624547                0.00108616
               9.95805175                0.04842264               45.05371981                1.00000000               -0.03348291               -0.03543915                0.11487356                0.00002337                0.00487018                0.00494285
              -0.00970356                1.00793931               45.03454097                0.93917890               -0.02420822               -0.02175151                0.07258733                0.00112847                0.00125709                0.00452276
               0.99005436                1.00593234               45.03622676                0.19784891               -0.02636411               -0.02619331                0.08748717               -0.00008161                0.00391065               -0.00351527
               1.98976916                1.00393774               45.03796047                0.01000000               -0.03099956               -0.03085684                0.10267448                0.00275340                0.01823488               -0.00103559
               2.98943437                1.00199874               45.03993413                0.01000001               -0.63281605                0.22136238                0.10284629                0.18670857               -0.00016274                0.01231892
               3.97711284                1.01191769               45.04131968                0.01000000               -1.21745048                0.35919935                0.11061840                0.75318799               -0.06503791                0.05988694
               4.96508536                1.02461652               45.04300049                0.01000000               -0.98705644                0.13665703                0.10645484                1.19158633               -0.10659904                0.09416993
               5.95737171                1.04030058               45.04467120                0.01000001               -0.40071147               -0.36040072                0.09717074                1.04763168               -0.01687820                0.04996195
               6.95707113                1.04221493               45.04668034                0.98143107               -0.03091230               -0.03080259                0.10288702                0.00007158                0.00045300               -0.00395917
               7.95675346                1.04414729               45.04870080                0.99999999               -0.03266784               -0.03267070                0.10888984                0.00009164                0.00127265               -0.00055263
               8.95641777                1.04609879               45.05072876                0.99999999               -0.03448252               -0.03445985                0.11492026                0.00007819                0.00100754                0.00110465
               9.95606381                1.04806825               45.05274504                0.99929583               -0.03539592               -0.03634136                0.12093476               -0.00088166                0.00041185                0.00661351
              -0.00766744                2.00771719               45.03441384                0.01000000               -0.02552498                0.02769743                0.07791052               -0.13067567                0.00249946                0.13504112
               0.99207731                2.00566185               45.03604517                0.01000000               -0.02685364               -0.01623175                0.09204569               -0.17361152                0.01324436                0.10628937
               1.99179548                2.00362243               45.03790298                0.01000001               -0.44124577                0.05151560                0.09072783               -0.03955842                0.04434633                0.08306989
               2.98325239                2.00670626               45.04016916                0.01000000               -0.80806607                0.31630991                0.10952161                0.28951227                0.02179494                0.06745219
               3.97563416                2.01466385               45.04179301                0.01000000               -0.74539430                0.11839794                0.11240699                0.96835148               -0.03277223                0.11069934
               4.96834450                2.02403393               45.04324578                0.01000001               -0.64977507               -0.21807139                0.11367759                1.43996098               -0.03328412                0.11426770
               5.96263866                2.03337512               45.04480540                0.01141903               -0.65933425               -0.43797077                0.11204732                1.38605495               -0.07005421                0.09528104
               6.95515782                2.04189840               45.04573108                0.01000000               -0.39084956               -0.27650542                0.10866879                0.81804155               -0.05740488                0.08800838
               7.95482167                2.04381190               45.04775085                0.03640228               -0.03453160               -0.04002015                0.11476428                0.02808926               -0.00380125                0.01273648
               8.95446719                2.04574527               45.04975558                0.99970151               -0.03632363               -0.03622051                0.12102915                0.00013260               -0.00272831               -0.00058529
               9.95409520                2.04769581               45.05180186                1.00000000               -0.03719913               -0.03817388                0.12707776               -0.00087263               -0.00082516                0.00675960
              -0.00820640                3.00849326               45.03688512                0.01073152               -0.11167196                0.14952897                0.07636464               -0.13141346               -0.01082404                0.24695678
               0.99067688                3.00560770               45.03812292                0.01000001               -0.19300136               -0.01426850                0.08816477               -0.06751608               -0.00665346                0.19966550
               1.98793358                3.00496805               45.03949432                0.01000000               -0.32468440                0.02111763                0.10210131                0.17258869                0.00934064                0.15724027
               2.98418320                3.00832493               45.04104361                0.01000000               -0.43906879                0.03307054                0.10951169                0.77705996                0.01963945                0.11700049
               3.97915220                3.01428565               45.04269967                0.01197120               -0.45049469               -0.13561551                0.11646978                1.09161912                0.00998584                0.11200357
               4.97517330                3.02025509               45.04412958                0.01000000               -0.59619327               -0.27567766                0.12062966                1.50426673               -0.02098207                0.12540736
               5.96722833                3.03154117               45.04526904                0.01000001               -0.60890626               -0.34438016                0.12188464                1.54017801               -0.04223940                0.16838048
               6.96299518                3.03668482               45.04663101                0.01000001               -0.68799767               -0.46687595                0.12420046                1.44733176               -0.09064128                0.22651196
               7.95346838                3.04334689               45.04707026                0.01301331               -0.52293314               -0.28000002                0.12322543                1.13198925               -0.11094612                0.18906423
               8.95253651                3.04537438               45.04875220                0.01000001               -0.06615581               -0.35093509                0.12722516                0.81823070               -0.02127450                0.15053595
               9.95214526                3.04730477               45.05083226                0.64865324               -0.03912485               -0.83281039                0.13318375                1.01279431               -0.00170449                0.14723226
              -0.00452461                4.01070777               45.03890878                0.01000000               -0.12231970                0.21849391                0.09032080                0.20316004                0.00613609                0.28544583
               0.99425219                4.00537648               45.03996447                0.01000000               -0.14726805               -0.09786600                0.09581676                0.39454581                0.00830379                0.20037229
               1.99253003                4.00404478               45.04106002                0.01000000               -0.23881015               -0.14918365                0.10286515                0.83509549                0.02425689                0.14426655
               2.98947599                4.00736767               45.04238430                0.01197310               -0.34968209               -0.12888411                0.11257866                1.06397764                0.02726796                0.11285531
               3.98553638                4.01195154               45.04358635                0.01000000               -0.41508334               -0.27626152                0.12032676                1.35258259                0.02664434                0.10949083
               4.98117432                4.01852038               45.04507071                0.01000001               -0.42619447               -0.24970800                0.12765404                1.52309027                0.04806089                0.16012765
               5.97701250                4.02648752               45.04690570                0.01000001               -0.44377920               -0.49288891                0.13341929                1.69393904                0.05526985                0.25153022
               6.97229874                4.03256088               45.04870309                0.01180437               -0.41202998               -0.46854931                0.13820495                1.63487245                0.00311568                0.28086602
               7.96877190                4.03821190               45.04963171                0.01023121               -0.27124104               -0.63568463                0.14179273                1.75514009               -0.02114452                0.37468402
               8.96687392                4.03872656               45.05080754                0.01000000                0.08591981               -0.86837986                0.15359726                1.21268404                0.09704404                0.26679830
               9.97049029                4.03103960               45.05270352                0.01000001                0.36163758               -1.41363759                0.17222567                0.96433701                0.19177774                0.11280074
               0.00651938                5.01286313               45.04194911                0.01000003               -0.12885965               -0.15087807                0.08881924                0.61859243               -0.01293237                0.35509798
               1.00523078                5.00365038               45.04226602                0.01000000               -0.19375439               -0.13322815                0.09603836                1.04349415               -0.00202824                0.24015938
               2.00264429                5.00198438               45.04267398                0.01000001               -0.38373940               -0.16615100                0.10486717                1.31331513                0.01165147                0.12161048
               2.99755600                5.00574725               45.04338057                0.01000000               -0.37965710               -0.33299418                0.11582348                1.52600290                0.04225653                0.09697461
               3.99505115                5.00876042               45.04470696                0.01000001               -0.32284348               -0.29442341                0.12510026                1.56000421                0.10446071                0.12477091
               4.99109913                5.01526093               45.04678057                0.01000001               -0.39922702               -0.33441656                0.13514937                1.68522525                0.15294533                0.20682395
               5.98706661                5.02168339               45.04926017                0.01177932               -0.35654425               -0.44831249                0.14369814                1.63997212                0.12166292                0.24658006
               6.98396824                5.02731383               45.05087001                0.01000000               -0.23305546               -0.55590011                0.14841095                1.56210409                0.08581147                0.31299641
               7.98240550                5.03063319               45.05269489                0.01000000               -0.00028738               -0.82450416                0.15378960                1.29323718                0.15052885                0.44663320
               8.98396249                5.02800678               45.05530767                0.01000000                0.22002115               -1.02036488                0.16539066                0.85030288                0.13992731                0.46450885
               9.98680592                5.01903202               45.05657633                0.01000001                0.28434306               -0.95562677                0.16895272                0.44769945                0.05490479                0.39991652
               0.02627273                6.00769021               45.04568523                0.45257350               -0.02719026               -0.27195341                0.08738214                0.73974986               -0.00300742                0.18629305
               1.02600083                6.00271192               45.04525383                0.01000001               -0.47866362               -0.06144838                0.09342505                0.93911840               -0.04089421                0.12775156
               2.01669946                6.00072176               45.04406018                0.01142212               -0.63904152               -0.22729317                0.10624617                1.30133047               -0.02342275                0.08073980
               3.01322000                6.00070779               45.04455495                0.01000001               -0.47383368               -0.34825505                0.11558344                1.57230995                0.10319512                0.06018234
               4.00722279                6.00606307               45.04611252                0.01000001               -0.56320726               -0.28363961                0.13003483                1.71477454                0.19452373                0.12152720
               5.00195586                6.01183204               45.04879072                0.01178058               -0.47318743               -0.30524523                0.14340857                1.65064433                0.21236145                0.16478380
               5.99775904                6.01752127               45.05100445                0.01000000               -0.36824199               -0.37955579                0.15027893                1.48146328                0.20904045                0.23047982
               6.99459102                6.02144288               45.05380532                0.01000000               -0.19076733               -0.55129003                0.15729300                1.14346806                0.28256646                0.40909793
               7.99394369                6.02172182               45.05757353                0.01000000                0.04450659               -0.82688665                0.16658137                0.73311804                0.29984217                0.57601649
               8.99548115                6.01831927               45.06059135                0.01099789                0.17250536               -0.87768114                0.17492802                0.36221471                0.18458379                0.56027329
               9.99739380                6.01192707               45.06198339                0.01000000                0.19126521               -0.55821600                0.17852839                0.15268638                0.10181830                0.51943652
               0.03127096                7.00742407               45.04624095                0.99685229               -0.02893625               -0.02774132                0.09358004                0.00077719               -0.01010462                0.02235451
               1.03098159                7.00242142               45.04562065                0.97734797               -0.02979640               -0.02994062                0.09951340               -0.00009439               -0.01096057               -0.00055706
               2.03067503                6.99743851               45.04498057                0.01000000               -0.36603521               -0.18056013                0.10549346                0.76594016                0.02868521                0.01484529
               3.02366089                6.99878215               45.04515220                0.01000001               -0.62263208               -0.39703403                0.11281265                1.36596137                0.14963404               -0.04956191
               4.01822239                7.00308763               45.04724779                0.01180818               -0.55035386               -0.27193319                0.14210420                1.59545238                0.24401947                0.04881501
               5.01265381                7.00915603               45.04975496                0.01000000               -0.55686732               -0.20608172                0.14769881                1.52921743                0.30047719                0.11220962
               6.00708504                7.01409227               45.05318487                0.01000000               -0.50083809               -0.22270109                0.15649610                1.12569462                0.41349826                0.29136956
               7.00263705                7.01628803               45.05819454                0.01000000               -0.34467831               -0.42710723                0.16722899                0.58629779                0.50609123                0.48875908
               8.00019147                7.01409546               45.06361545                0.01110882               -0.08177562               -0.59124953                0.17789632                0.17679018                0.39934802                0.55435924
               9.00100154                7.01045316               45.06654554                0.01000002                0.12262855               -0.76708473                0.17803846               -0.01746248                0.18355540                0.77603917
              10.00264405                7.00786770               45.06758280                0.01000001                0.16425069               -0.48827830                0.17624132               -0.04989910                0.08881883                0.77743970
               0.03629357                8.00713538               45.04669303                1.00000000               -0.03090779               -0.02986418                0.09998425                0.00099716               -0.00144736                0.02098218
               1.03598450                8.00211310               45.04603961                0.99999999               -0.03180219               -0.03180806                0.10598458                0.00001050               -0.00134459                0.00325221
               2.03565753                7.99711056               45.04538763                0.03051916               -0.05471917               -0.03379114                0.11216006                0.03194712               -0.03615025               -0.01417222
               3.03489011                7.99276711               45.04404042                0.01301942               -0.34497862               -0.35108791                0.21102240                1.00745920                0.10297685               -0.02369153
               4.02875796                8.00062441               45.04722599                0.01023734               -0.66772776               -0.20898631                0.13870429                1.61625847                0.37138515               -0.03247123
               5.02153556                8.00771041               45.05077987                0.01000000               -0.78085144                0.00456571                0.15335058                1.24010279                0.47631966                0.14619252
               6.01314093                8.01306725               45.05623295                0.01000000               -0.76108857                0.00649630                0.16702758                0.68858007                0.61265733                0.30133365
               7.00631379                8.01290073               45.06285018                0.01111970               -0.49132789               -0.16212928                0.17395183                0.13037720                0.59894486                0.37916932
               8.00331437                8.00989683               45.06820177                0.01000002               -0.24770635               -0.39301876                0.17568683               -0.40084478                0.65777039                0.57055365
               9.00135966                8.00297757               45.07601273                0.01834713               -0.08738201               -0.50364320                0.18102161               -0.42255056                0.48127434                0.69345837
              10.00156673                8.00216150               45.07779333                0.01000000                0.02070720               -0.38806637                0.17929847               -0.22671500                0.18046156                0.62973327
               0.04133545                9.00682678               45.04721827                1.00000000               -0.03288282               -0.03185095                0.10656659                0.00100480                0.00242112                0.01971114
               1.04100662                9.00178526               45.04648199                0.99999999               -0.03377423               -0.03376634                0.11256021               -0.00005758                0.00158139                0.00293444
               2.04065997                8.99676269               45.04572906                0.99999999               -0.03551961               -0.03563945                0.11859203               -0.00008893               -0.00438498               -0.01022563
               3.04029623                8.99176039               45.04487758                0.01288267               -0.25278551               -0.06946693                0.12453928                0.62760731                0.13905641                0.00808361
               4.03560426                8.99890790               45.04700379                0.01000000               -0.76416021                0.04847220                0.16235510                1.12657578                0.39604182               -0.00209503
               5.02501303                9.00924734               45.05235014                0.01000000               -0.99689694                0.21820995                0.17635936                0.80608705                0.58305701                0.12461827
               6.01566632                9.01422220               45.05852911                0.01104772               -0.82990069                0.14195770                0.17542490                0.31577168                0.64213785                0.18700581
               7.00841501                9.01304545               45.06505760                0.01000002               -0.67842878                0.07513391                0.17153633               -0.12493430                0.81082967                0.16220216
               8.00209774                9.00623508               45.07450020                0.01571076               -0.40645795               -0.17216345                0.15601814               -0.54957918                0.78112113                0.43962506
               9.00028585                9.00038029               45.08032896                0.99999997               -0.11779297               -0.15708690                0.18236673               -0.34686815                0.29590709                0.21775314
               9.99974188                9.00010637               45.08024074                0.99340908               -0.05439714               -0.12952979                0.17982643               -0.10497447                0.00006873                0.12453180
               0.04639672               10.00649836               45.04764307                1.00000000               -0.03492851               -0.03284203                0.11304225                0.00006887                0.01365337                0.01469209
               1.04604744               10.00143778               45.04689607                0.99982832               -0.03580538               -0.03474777                0.11905763               -0.00094792                0.01711846                0.00132012
               2.04568061                9.99639777               45.04622027                1.00000000               -0.03751950               -0.03649166                0.12481108               -0.00093546                0.01706073               -0.00321392
               3.04529705                9.99137777               45.04547765                0.54795873               -0.59390454               -0.03826219                0.13053251                0.75988552                0.13965207               -0.00459576
               4.03380252               10.00159385               45.04726565                0.01000001               -1.14770235                0.26859474                0.16634703                0.85466872                0.35477296                0.03640351
               5.02234300               10.01207461               45.05278810                0.01351530               -0.90721318                0.28272661                0.17596008                0.44862502                0.58434731                0.06674879
               6.01565826               10.01590640               45.05923188                0.01000000               -0.52703920                0.16842006                0.17494632                0.11563455                0.62660217                0.10443694
               7.01180222               10.01440341               45.06531799                0.01000001               -0.53351592                0.13579675                0.16475580               -0.13392162                0.87008026                0.06258081
               8.00498794               10.00645356               45.07632621                0.01000000               -0.56256033                0.02184760                0.15635797               -0.43935889                0.77433690                0.22088820
               9.00055101                9.99983583               45.08028715                0.99340924               -0.24864298               -0.05444579                0.18009635               -0.31761702                0.20232224               -0.00013280
              10.00001508                9.99957091               45.08019856                1.00000000               -0.05359273               -0.05354641                0.17755248                0.00082743               -0.00013538                0.00007356
              -0.01344628                0.00826057               46.03534426                0.98970751               -0.02808396               -0.01673410                0.06700874                0.00133780               -0.00624155                0.00615111
               0.98627288                0.00628586               46.03718201                0.99999999               -0.02805526               -0.02571509                0.08258907                0.00372906               -0.00658750               -0.00124966
               1.98599262                0.00426478               46.03901089                0.13917782               -0.02997658               -0.03001118                0.09701431               -0.00006340               -0.00587421               -0.00293286
               2.98567335                0.00222118               46.04086112                0.01000000               -0.24101103               -0.02501069                0.09074940                0.37098294               -0.01272292               -0.00269663
               3.98117239                0.00768024               46.04254946                0.01000002               -0.76473743                0.46156318                0.10966798                0.38399913               -0.01943708                0.00887307
               4.97037860                0.02239550               46.04447111                0.01190616               -1.19464361                0.31687632                0.09723166                0.89728210               -0.04059931                0.05274140
               5.95727952                0.04142666               46.04646260                0.41593507               -0.66900580               -0.02832017                0.09122628                0.85522445                0.00275475               -0.00062439
               6.95699848                0.04339272               46.04859454                1.00000000               -0.02897567               -0.02999928                0.09685404                0.00089715                0.00743468               -0.00374882
               7.95670001                0.04538005               46.05067918                1.00000000               -0.03070977               -0.03179509                0.10261512                0.00093174                0.00632710               -0.00064569
               8.95638429                0.04738761               46.05278732                1.00000000               -0.03243186               -0.03350620                0.10837224                0.00093976                0.00610467                0.00114372
               9.95605137                0.04941631               46.05486482                1.00000000               -0.03329172               -0.03532719                0.11418042               -0.00011486                0.00475813                0.00502570
              -0.01145819                1.00809323               46.03526405                0.93861799               -0.02337470               -0.01913179                0.07237153               -0.00114022                0.00184635                0.00702622
               0.98830806                1.00602870               46.03710490                0.17996711               -0.02587454               -0.02679209                0.08789056               -0.00027133                0.00417155               -0.00400234
               1.98802432                1.00396467               46.03899285                0.01000000               -0.03163054               -0.03005316                0.10331769                0.00227604                0.00846667               -0.01556511
               2.98767545                1.00197107               46.04092039                0.01000001               -0.65495456                0.22808504                0.09745830                0.20609631               -0.00784011                0.01485886
               3.97492523                1.01229587               46.04249193                0.01000000               -1.25986205                0.36722993                0.11943220                0.80800692               -0.05630533                0.04785544
               4.96247821                1.02556426               46.04410466                0.01000000               -0.97960357                0.10871119                0.11254349                1.24648009               -0.09016754                0.07551644
               5.95533316                1.04114346               46.04564561                0.01000001               -0.37237238               -0.37085481                0.09777419                1.04605114               -0.02640992                0.05423713
               6.95503076                1.04309273               46.04771184                0.97537481               -0.03106372               -0.03095616                0.10339311                0.00006238                0.00032060               -0.00405744
               7.95471188                1.04506210               46.04979122                0.99999999               -0.03276022               -0.03276675                0.10920630                0.00007233                0.00128038               -0.00059288
               8.95437556                1.04705255               46.05187909                0.99999999               -0.03451761               -0.03449401                0.11503531                0.00006079                0.00105708                0.00104360
               9.95402153                1.04906303               46.05395523                0.99911861               -0.03540292               -0.03633363                0.12087585               -0.00098858                0.00047029                0.00645381
              -0.00934004                2.00787793               46.03520013                0.01000000               -0.02639508                0.03016679                0.07887135               -0.11990924                0.00281184                0.13356029
               0.99039601                2.00575001               46.03697208                0.01000000               -0.02820955               -0.02045176                0.09317761               -0.16319380                0.00153109                0.10178608
               1.99009577                2.00366372               46.03872119                0.01000001               -0.44659644                0.04754100                0.09756573               -0.02323722                0.04124202                0.07655576
               2.98146408                2.00678288               46.04131133                0.01000000               -0.81782103                0.31887174                0.11327112                0.32132636                0.02955434                0.06296623
               3.97373935                2.01502484               46.04295379                0.01000000               -0.75017321                0.10897200                0.11864205                1.02682220               -0.03494713                0.09610257
               4.96646061                2.02456972               46.04441990                0.01000001               -0.65336333               -0.24987870                0.11931105                1.50781651               -0.04221729                0.10784677
               5.96067208                2.03400957               46.04592751                0.01142049               -0.66897592               -0.44966133                0.11276353                1.41978497               -0.07835960                0.10270628
               6.95308109                2.04277360               46.04682402                0.01000000               -0.39652222               -0.28248334                0.10988779                0.84228047               -0.06175393                0.09230002
               7.95274163                2.04472471               46.04890424                0.03874956               -0.03482629               -0.03967217                0.11576144                0.02386516               -0.00373237                0.01306814
               8.95238457                2.04669773               46.05096751                0.99445485               -0.03655013               -0.03644506                0.12179080                0.00013984               -0.00278883               -0.00094215
               9.95201063                2.04868963               46.05307153                0.99999999               -0.03739371               -0.03836654                0.12766628               -0.00098231               -0.00096500                0.00635054
              -0.00960054                3.00869656               46.03765133                0.01045788               -0.11410631                0.15699919                0.07683629               -0.11831318               -0.00813420                0.24942497
               0.98925839                3.00561967               46.03901295                0.01000001               -0.19363763               -0.02344415                0.08987289               -0.04743769               -0.00157325                0.19665082
               1.98652671                3.00491549               46.04054991                0.01000000               -0.32587661                0.01011553                0.10404870                0.20839796                0.01280328                0.15906717
               2.98274086                3.00834851               46.04215690                0.01000000               -0.44259374                0.02564289                0.11327613                0.82782273                0.01975153                0.10724205
               3.97767483                3.01447531               46.04388761                0.01197268               -0.45455250               -0.15050676                0.12007580                1.14572371                0.00921695                0.10557854
               4.97364981                3.02056669               46.04535030                0.01000000               -0.60749254               -0.28992840                0.12317015                1.55928007               -0.02500071                0.12300356
               5.96552498                3.03215023               46.04649260                0.01000001               -0.62442941               -0.35105409                0.12285307                1.59663116               -0.04739303                0.17311890
               6.96116122                3.03744306               46.04787355                0.01000001               -0.71299643               -0.47717051                0.12442230                1.49945284               -0.09672571                0.23446945
               7.95126505                3.04426865               46.04829334                0.01306436               -0.53738942               -0.27919929                0.12169791                1.18284030               -0.11449609                0.19339381
               8.95041344                3.04632365               46.05002190                0.01000001               -0.06234858               -0.43985455                0.12864445                0.90661110               -0.02180860                0.15509197
               9.95001808                3.04829570               46.05216089                0.67069223               -0.03953562               -0.99064571                0.13442915                1.13809058               -0.00176518                0.14126530
              -0.00555252                4.01101791               46.03982133                0.01000000               -0.12191560                0.21525101                0.09188283                0.20855293                0.00500924                0.28833909
               0.99322832                4.00528113               46.04093380                0.01000000               -0.14562953               -0.11202314                0.09742862                0.42054566                0.00841562                0.19825895
               1.99153489                4.00386603               46.04209894                0.01000000               -0.23838033               -0.16234706                0.10484059                0.88336178                0.02722272                0.13736351
               2.98846071                4.00729574               46.04352244                0.01197199               -0.35496224               -0.13736046                0.11465656                1.11747395                0.03117259                0.10840683
               3.98443564                4.01201470               46.04480314                0.01000000               -0.42447110               -0.28785932                0.12266406                1.40899994                0.02904699                0.10596027
               4.97997129                4.01877115               46.04635745                0.01000001               -0.43536562               -0.25576249                0.12937759                1.58308505                0.04860864                0.16036966
               5.97572833                4.02698848               46.04823730                0.01000001               -0.45097806               -0.50307580                0.13286580                1.75800081                0.05378005                0.25696076
               6.97095173                4.03323019               46.05006462                0.01181543               -0.41052373               -0.47804688                0.13465700                1.70467261               -0.00170859                0.28830466
               7.96751785                4.03914073               46.05098977                0.01026901               -0.22309941               -0.65881438                0.13250643                1.75584171               -0.02895127                0.37829119
               8.96648974                4.03790064               46.05223774                0.01000000                0.16552402               -0.93364769                0.14114891                1.13854489                0.05452804                0.32895875
               9.97082833                4.02887672               46.05398142                0.01000001                0.43385919               -1.49961841                0.15137342                0.89984053                0.12590531                0.21089094
               0.00604408                5.01300158               46.04283393                0.01000003               -0.12228940               -0.18210437                0.08841240                0.64755100               -0.01113345                0.34786121
               1.00482119                5.00337921               46.04322839                0.01000000               -0.19323761               -0.15003940                0.09646295                1.09059828                0.00102691                0.23233197
               2.00217933                5.00166855               46.04372925                0.01000001               -0.39397593               -0.17668935                0.10606269                1.37345340                0.01725498                0.11596464
               2.99694167                5.00560130               46.04455244                0.01000000               -0.38999585               -0.34634639                0.11747994                1.58996706                0.04807069                0.08977223
               3.99437941                5.00871812               46.04596471                0.01000001               -0.33019695               -0.30196411                0.12664720                1.62288107                0.10966687                0.12274347
               4.99033773                5.01545144               46.04813206                0.01000001               -0.40767258               -0.33918884                0.13503751                1.75132689                0.15778178                0.20929320
               5.98622596                5.02208872               46.05068727                0.01178795               -0.36176498               -0.45620393                0.14152549                1.70186960                0.12286477                0.25179069
               6.98310243                5.02788212               46.05232707                0.01000000               -0.22572649               -0.56808507                0.14360247                1.60897607                0.08453472                0.31979782
               7.98171143                5.03109237               46.05419645                0.01000000                0.01729552               -0.85672675                0.14701822                1.29002691                0.14187525                0.46100021
               8.98344834                5.02765069               46.05680588                0.01000000                0.21756502               -0.98123338                0.14348986                0.79194661                0.13404618                0.49340998
               9.98606273                5.01830333               46.05820317                0.01000000                0.26143906               -0.86439528                0.15396218                0.37431696                0.06644969                0.43651383
               0.02664325                6.00737583               46.04655406                0.43835700               -0.02699297               -0.29447994                0.08661336                0.77622444               -0.00292962                0.18213178
               1.02637332                6.00228034               46.04618480                0.01000001               -0.49306924               -0.06941891                0.09287727                0.98031093               -0.03759165                0.12278122
               2.01678186                6.00033225               46.04511949                0.01142240               -0.65814164               -0.23891284                0.10698867                1.35369041               -0.02047085                0.07203419
               3.01321048                6.00036881               46.04568512                0.01000001               -0.48693680               -0.36145278                0.11775747                1.63454254                0.11118613                0.04947727
               4.00704312                6.00597542               46.04741195                0.01000001               -0.57916228               -0.28685775                0.13009134                1.78185893                0.20729544                0.12113906
               5.00162724                6.01198738               46.05021831                0.01178934               -0.48540448               -0.30713991                0.14176576                1.71287325                0.21999078                0.16793794
               5.99733503                6.01786441               46.05249370                0.01000000               -0.37498169               -0.38368851                0.14737798                1.53214483                0.21281843                0.23579932
               6.99412760                6.02186849               46.05536116                0.01000000               -0.18926064               -0.56062840                0.15360178                1.17554880                0.28541229                0.41883380
               7.99354982                6.02200619               46.05919583                0.01000000                0.04950519               -0.83777574                0.15845336                0.73528642                0.30206509                0.59105578
               8.99511771                6.01827597               46.06228431                0.01106172                0.17297857               -0.85687992                0.16444975                0.34933793                0.18566906                0.57556523
               9.99700939                6.01158881               46.06371466                0.01000000                0.18916863               -0.52844622                0.17036979                0.15245922                0.10102566                0.52685489
               0.03175954                7.00711198               46.04717445                0.99376455               -0.02885510               -0.02757923                0.09321367                0.00083240               -0.01033873                0.02221662
               1.03147099                7.00199083               46.04661471                0.97257726               -0.02974354               -0.02988185                0.09927252               -0.00009319               -0.01124687               -0.00071836
               2.03116467                6.99689030               46.04603578                0.01000000               -0.37408216               -0.18850095                0.10537276                0.79325483                0.03046861                0.01130055
               3.02398935                6.99837224               46.04630792                0.01000001               -0.63833214               -0.40529713                0.11270671                1.41387203                0.16263744               -0.05041290
               4.01839803                7.00298097               46.04865413                0.01181807               -0.56415674               -0.27131571                0.14005991                1.66046804                0.26776154                0.04556181
               5.01270621                7.00930864               46.05121793                0.01000000               -0.57051381               -0.19935019                0.14445831                1.57746865                0.31013088                0.11689592
               6.00698775                7.01441495               46.05473621                0.01000000               -0.51172956               -0.22010008                0.15365920                1.16006771                0.42043335                0.30247432
               7.00247162                7.01666956               46.05984725                0.01000000               -0.34890378               -0.42860045                0.16232797                0.60509038                0.51327023                0.49995917
               8.00000968                7.01433685               46.06536599                0.01116365               -0.08095697               -0.59089188                0.17168664                0.18029959                0.40304071                0.56408162
               9.00085248                7.01051310               46.06829168                0.01000002                0.12382810               -0.76097563                0.17084665               -0.01607415                0.18094520                0.78455565
              10.00248624                7.00773441               46.06930934                0.01000001                0.16337559               -0.47195719                0.16894082               -0.04753529                0.08432242                0.78131516
               0.03690220                8.00682424               46.04769155                1.00000000               -0.03090616               -0.02977659                0.09979623                0.00116824               -0.00151319                0.02084380
               1.03659314                8.00168271               46.04710031                0.99999999               -0.03183298               -0.03183653                0.10608705                0.00021630               -0.00145052                0.00332151
               2.03626554                7.99656223               46.04651083                0.02863890               -0.05979452               -0.03388979                0.11245329                0.04024171               -0.00184605               -0.01400140
               3.03539725                7.99226287               46.04591292                0.01306968               -0.34747256               -0.36394408                0.19218821                1.05091255                0.19061108               -0.12917688
               4.02931609                8.00054911               46.04864741                0.01027679               -0.68273081               -0.18024071                0.12961155                1.61628684                0.39418366                0.00674361
               5.02174263                8.00800037               46.05226466                0.01000000               -0.80703084                0.01836434                0.15071616                1.24731716                0.48190049                0.17560621
               6.01317547                8.01346240               46.05789463                0.01000000               -0.77175630                0.01112482                0.16114942                0.69749190                0.61705656                0.31748339
               7.00630751                8.01329648               46.06456701                0.01117609               -0.49315996               -0.16007603                0.16834288                0.13910741                0.60165224                0.38749369
               8.00331227                8.01018836               46.06993707                0.01000002               -0.24544201               -0.38512267                0.17019767               -0.39694111                0.66056092                0.56429168
               9.00139867                8.00305646               46.07777427                0.01820532               -0.08481072               -0.50409942                0.17274927               -0.42522858                0.48716856                0.70621023
              10.00161606                8.00214967               46.07955502                0.01000000                0.02173934               -0.37867164                0.17571051               -0.22280218                0.18558170                0.63861165
               0.04206598                9.00651645               46.04828287                1.00000000               -0.03286470               -0.03180822                0.10641419                0.00117758                0.00246747                0.01962910
               1.04173733                9.00135410               46.04760985                0.99999999               -0.03383194               -0.03390498                0.11295133                0.00017836                0.00162467                0.00299639
               2.04138934                8.99621250               46.04692045                0.99517961               -0.03583073               -0.03599501                0.11988204                0.00023391               -0.00435075               -0.01015831
               3.04102072                8.99109336               46.04613106                0.01000001               -0.32015404               -0.07811724                0.12719608                0.69530254                0.16053384               -0.02598687
               4.03498626                8.99937616               46.04874599                0.01000000               -0.81407300                0.09459495                0.16097244                1.08296561                0.31642180                0.10448629
               5.02473926                9.00967593               46.05411803                0.01000000               -0.96723869                0.21640819                0.16262482                0.76818012                0.54047695                0.16063663
               6.01564149                9.01463744               46.06026436                0.01110693               -0.81057199                0.14047723                0.16820895                0.30914070                0.62716600                0.19664150
               7.00852782                9.01346804               46.06675291                0.01000002               -0.66653075                0.07448843                0.16577906               -0.11885845                0.80003227                0.16317652
               8.00231087                9.00663440               46.07600270                0.01512306               -0.40706110               -0.16433951                0.14582307               -0.55312962                0.79707243                0.44155936
               9.00038660                9.00043111               46.08215434                1.00000000               -0.12335477               -0.15842495                0.18259019               -0.36104098                0.31344939                0.22223401
               9.99984378                9.00016098               46.08203880                0.99361365               -0.05428204               -0.12622918                0.17979690               -0.10207023                0.00007628                0.12758339
               0.04725046               10.00618808               46.04877418                1.00000000               -0.03497996               -0.03283727                0.11317199                0.00010059                0.01369362                0.01464566
               1.04690066               10.00100461               46.04809080                0.99965839               -0.03597514               -0.03494922                0.11979584               -0.00095507                0.01703685                0.00135592
               2.04653095                9.99584233               46.04747590                0.99999999               -0.03805071               -0.03701734                0.12669026               -0.00104267                0.01679971               -0.00331108
               3.04613964                9.99070052               46.04679390                0.58438577               -0.70690580               -0.03928383                0.13347609                0.84182652                0.17728460               -0.00453915
               4.03239284               10.00244101               46.04940258                0.01000001               -1.21473485                0.30648499                0.18110029                0.82205853                0.20769671                0.18660897
               5.02184495               10.01232854               46.05451585                0.01282567               -0.84133299                0.26526112                0.16595834                0.40211602                0.52164733                0.06408661
               6.01556618               10.01627195               46.06097823                0.01000000               -0.49557819                0.16345046                0.17005879                0.11535469                0.61015327                0.10855125
               7.01193338               10.01478625               46.06694167                0.01000001               -0.51397847                0.13182109                0.15961611               -0.12796269                0.85743185                0.05751859
               8.00528661               10.00690156               46.07784877                0.01000000               -0.56410575                0.02671666                0.15076072               -0.44734043                0.79336041                0.23518897
               9.00065127                9.99988796               46.08208799                0.99361585               -0.25858468               -0.05431465                0.18009482               -0.33735680                0.21762984               -0.00010821
              10.00011492                9.99962509               46.08197245                1.00000000               -0.05363521               -0.05358916                0.17733781                0.00082645               -0.00009501                0.00009666
              -0.01550427                0.00843566               47.03601225                0.98926628               -0.02167351               -0.02116913                0.06692948                0.00352144               -0.01084789                0.01026697
               0.98427899                0.00631493               47.03800613                0.99999999               -0.02427571               -0.02527096                0.08183067                0.00206556               -0.00897816               -0.00165635
               1.98401021                0.00421698               47.03997952                0.13080625               -0.02869231               -0.03008448                0.09658368                0.00085895               -0.01900334               -0.00369337
               2.98370515                0.00210654               47.04175583                0.01000000               -0.24103800               -0.02608339                0.09194428                0.38510439               -0.02095350               -0.00222455
               3.97918945                0.00777238               47.04365034                0.01000002               -0.77673024                0.46980830                0.11033823                0.41040057               -0.01358870                0.00870472
               4.96817054                0.02308853               47.04543013                0.01199426               -1.19866772                0.30895301                0.09578705                0.91739012               -0.01915974                0.02874373
               5.95521610                0.04220462               47.04737462                0.41044184               -0.66176704               -0.02842054                0.09124166                0.85784043               -0.00255104               -0.00060594
               6.95493520                0.04420488               47.04956228                1.00000000               -0.02893224               -0.03005875                0.09672219                0.00085858                0.00729462               -0.00380488
               7.95463745                0.04622833               47.05170356                1.00000000               -0.03060813               -0.03179564                0.10229257                0.00088266                0.00623371               -0.00066087
               8.95432304                0.04827381               47.05386863                1.00000000               -0.03227670               -0.03343385                0.10788078                0.00088588                0.00603594                0.00106729
               9.95399192                0.05034233               47.05600342                1.00000000               -0.03311179               -0.03517225                0.11349638               -0.00024632                0.00471164                0.00486938
              -0.01334833                1.00822397               47.03598840                0.94797553               -0.02426785               -0.02172702                0.07266204                0.00128388                0.00235058                0.00955269
               0.98640899                1.00606223               47.03798457                0.17702441               -0.02643333               -0.02627068                0.08756242                0.00000204                0.00441787               -0.00414580
               1.98612300                1.00391613               47.04002683                0.01000000               -0.03152492               -0.03102441                0.10273883                0.00271695               -0.00249594               -0.01454828
               2.98577849                1.00184571               47.04188329                0.01000001               -0.66602672                0.23112713                0.09875169                0.22300267               -0.01278835                0.01699043
               3.97280247                1.01247046               47.04370832                0.01000000               -1.28250841                0.37089158                0.12218260                0.84847703               -0.04013696                0.03133401
               4.96012832                1.02617806               47.04525136                0.01000000               -0.97830691                0.09283442                0.11584865                1.29029289               -0.07594000                0.05266030
               5.95323633                1.04192042               47.04662668                0.01000001               -0.35981952               -0.38111809                0.09845388                1.05887411               -0.03765283                0.05838127
               6.95293193                1.04390429               47.04874821                0.96916713               -0.03122546               -0.03110982                0.10390210                0.00003845                0.00021033               -0.00413279
               7.95261182                1.04591038               47.05088493                0.99999999               -0.03285167               -0.03285955                0.10951426                0.00006264                0.00123243               -0.00067442
               8.95227490                1.04793947               47.05302947                0.99999999               -0.03454438               -0.03450952                0.11511808                0.00006526                0.00099592                0.00116194
               9.95192093                1.04999061               47.05516256                0.99893081               -0.03539672               -0.03625839                0.12073299               -0.00108919                0.00043577                0.00664163
              -0.01115511                2.00800112               47.03599127                0.01000000               -0.02580242                0.03182922                0.07845015               -0.10835958                0.00323790                0.13188531
               0.98858687                2.00578952               47.03790872                0.01000000               -0.02819100               -0.02416163                0.09298096               -0.15333884                0.00516372                0.09793635
               1.98828107                2.00359649               47.03985429                0.01000001               -0.44879978                0.04277498                0.10912024               -0.00688701                0.03823734                0.06888209
               2.97961087                2.00672908               47.04243459                0.01000000               -0.82272139                0.32064799                0.11365691                0.35278763                0.02931442                0.05898407
               3.97182664                2.01519021               47.04416586                0.01000000               -0.75422129                0.10387056                0.12163223                1.07783996               -0.03142851                0.07493079
               4.96452645                2.02494522               47.04563200                0.01000001               -0.65796479               -0.27002227                0.12204728                1.56660161               -0.05104816                0.09515648
               5.95866735                2.03458226               47.04706067                0.01142024               -0.67902175               -0.46133323                0.11383992                1.45791816               -0.08744465                0.10855252
               6.95094601                2.04358268               47.04792884                0.01000000               -0.40319072               -0.28853412                0.11104071                0.86584336               -0.06604851                0.09585273
               7.95060353                2.04557114               47.05006607                0.04105246               -0.03509494               -0.03905740                0.11667858                0.02096156               -0.00351815                0.01199031
               8.95024411                2.04758362               47.05219140                0.99953968               -0.03678405               -0.03667425                0.12251652                0.00019578               -0.00244476               -0.00032501
               9.94986785                2.04961716               47.05435519                0.99999999               -0.03762597               -0.03852094                0.12822953               -0.00109296               -0.00064382                0.00690714
              -0.01109233                3.00886055               47.03842185                0.01017308               -0.11608313                0.16454143                0.07798705               -0.10286953               -0.00473725                0.25299585
               0.98774684                3.00557899               47.03992038                0.01000001               -0.19309863               -0.03316492                0.09138029               -0.02664486                0.00149709                0.19410875
               1.98504570                3.00477163               47.04157530                0.01000000               -0.32531588                0.00081099                0.10374430                0.24422262                0.01807450                0.14799863
               2.98124052                3.00825867               47.04330913                0.01000000               -0.44512829                0.02055925                0.11524234                0.87803072                0.02395580                0.09711152
               3.97614313                3.01454788               47.04510119                0.01197348               -0.45861085               -0.15982818                0.12176023                1.19873046                0.00867309                0.09414516
               4.97206830                3.02077761               47.04659298                0.01000000               -0.61929542               -0.29996012                0.12475036                1.61658836               -0.02974768                0.11645025
               5.96375722                3.03269375               47.04772610                0.01000001               -0.64041937               -0.35750999                0.12385043                1.65347902               -0.05377161                0.17544934
               6.95925992                3.03813361               47.04911945                0.01000001               -0.73635527               -0.48546142                0.12497342                1.55007810               -0.10410151                0.23933349
               7.94903012                3.04512923               47.04950422                0.01311498               -0.55135625               -0.28482626                0.12204257                1.22442928               -0.11573702                0.19312878
               8.94823279                3.04720598               47.05132509                0.01000001               -0.05990725               -0.45309286                0.13010916                0.94098369               -0.02019143                0.15659058
               9.94783197                3.04922019               47.05352084                0.69170270               -0.04008191               -1.02010125                0.13570082                1.18408067               -0.00166129                0.15763852
              -0.00664938                4.01129195               47.04074644                0.01000000               -0.12077324                0.21135386                0.09233680                0.21343377                0.00322012                0.28997257
               0.99214289                4.00512622               47.04191304                0.01000000               -0.14323853               -0.12664807                0.09779584                0.44649629                0.00913541                0.19565009
               1.99048585                4.00361271               47.04315683                0.01000000               -0.23738211               -0.17442581                0.10553986                0.93168452                0.03073610                0.13198900
               2.98739524                4.00714027               47.04467743                0.01197183               -0.36017714               -0.14393259                0.11562187                1.17111853                0.03511275                0.10124016
               3.98328231                4.01199365               47.04603963                0.01000000               -0.43414554               -0.29706978                0.12406755                1.46637408                0.03109931                0.09990684
               4.97871233                4.01894601               47.04765826                0.01000001               -0.44506878               -0.25958370                0.13037265                1.64511544                0.04722989                0.15744078
               5.97438093                4.02743206               47.04956301                0.01000001               -0.46001191               -0.51154742                0.13266918                1.82495539                0.04853014                0.25934752
               6.96951210                4.03387346               47.05139623                0.01182657               -0.41805921               -0.48601788                0.13309430                1.76661960               -0.01324128                0.29253474
               7.96601975                4.03987462               47.05228184                0.01030867               -0.22696359               -0.67410481                0.13205862                1.81911936               -0.04730606                0.38067377
               8.96497282                4.03852176               47.05363052                0.01000000                0.17506508               -0.96887835                0.14107572                1.18722109                0.01058526                0.40138884
               9.96952105                4.02921514               47.05573099                0.01000001                0.45482238               -1.55955686                0.16711530                0.94475560                0.06670647                0.33672271
               0.00550779                5.01308763               47.04371736                0.01000003               -0.11517936               -0.21498142                0.08812192                0.67594221               -0.00899851                0.33930794
               1.00435600                5.00304603               47.04419528                0.01000000               -0.19212261               -0.16724995                0.09665194                1.13680813                0.00469760                0.22375225
               2.00166534                5.00128312               47.04479523                0.01000001               -0.40370234               -0.18783970                0.10695086                1.43189295                0.02276221                0.11061400
               2.99628195                5.00538002               47.04573017                0.01000000               -0.40002374               -0.35992101                0.11885927                1.65396930                0.05366164                0.08614414
               3.99366487                5.00860648               47.04723991                0.01000001               -0.33748770               -0.30986137                0.12765213                1.68795597                0.11346716                0.11897739
               4.98953220                5.01558594               47.04948132                0.01000001               -0.41679889               -0.34205443                0.13494660                1.82089572                0.15895196                0.20872279
               5.98532889                5.02246281               47.05209068                0.01179673               -0.36912236               -0.46218745                0.13968894                1.76594740                0.11964101                0.25446241
               6.98214975                5.02841325               47.05374206                0.01000000               -0.22823436               -0.57870383                0.14121654                1.66346804                0.07624154                0.32577122
               7.98076420                5.03164713               47.05563526                0.01000000                0.02434698               -0.87506104                0.14325479                1.32286296                0.11834093                0.48016125
               8.98263669                5.02782842               47.05817747                0.01000000                0.22880600               -1.00884948                0.14221654                0.80423969                0.10665843                0.54006276
               9.98534032                5.01802905               47.05965558                0.01000000                0.27036300               -0.89285685                0.15313212                0.37169168                0.06061632                0.46874526
               0.02695266                6.00699232               47.04741749                0.42448540               -0.02690992               -0.31783611                0.08614843                0.81268460               -0.00270581                0.17747225
               1.02668356                6.00178122               47.04711137                0.01000001               -0.50814681               -0.07772496                0.09284252                1.02014626               -0.03295219                0.11726377
               2.01678972                5.99985592               47.04619995                0.01142362               -0.67661457               -0.25049648                0.10908697                1.40432320               -0.01118066                0.06500101
               3.01315127                5.99994185               47.04691010                0.01000001               -0.49771111               -0.39169615                0.12003197                1.69769180                0.11747162                0.03958369
               4.00683550                6.00579642               47.04871435                0.01000001               -0.59386733               -0.29215376                0.13224811                1.85829086                0.21164101                0.12126024
               5.00127392                6.01210493               47.05162604                0.01179854               -0.49814684               -0.30691709                0.13956263                1.78170233                0.22358612                0.16716936
               5.99687256                6.01818831               47.05395201                0.01000000               -0.38383974               -0.38609878                0.14503003                1.58649784                0.21297897                0.23876962
               6.99359713                6.02229938               47.05687735                0.01000000               -0.19053609               -0.56659479                0.15030343                1.21540040                0.28242794                0.42726418
               7.99306184                6.02237340               47.06074260                0.01000000                0.05392849               -0.85056416                0.15321830                0.75445233                0.29556031                0.60988822
               8.99467570                6.01834477               47.06388034                0.01112801                0.17458809               -0.85870560                0.15803948                0.35125026                0.18210076                0.60181385
               9.99655360                6.01135800               47.06539079                0.01000000                0.18779070               -0.51877052                0.16575762                0.14906596                0.10097265                0.54599062
               0.03218368                7.00673091               47.04810522                0.99114100               -0.02883487               -0.02742409                0.09306696                0.00071823               -0.01060618                0.02179128
               1.03189533                7.00149153               47.04760610                0.96771818               -0.02962475               -0.02984166                0.09897113               -0.00025375               -0.01154764               -0.00087590
               2.03159118                6.99627319               47.04708802                0.01000000               -0.38000212               -0.19550268                0.10488060                0.80364211                0.02929962                0.00691820
               3.02429529                6.99754609               47.04740634                0.01000001               -0.64617872               -0.47907037                0.13501446                1.49523509                0.17262589               -0.01748975
               4.01866761                7.00276340               47.05004899                0.01182814               -0.57604653               -0.25644985                0.13156785                1.76779455                0.28134674                0.03214253
               5.01277436                7.00944760               47.05264413                0.01000000               -0.59016070               -0.18912452                0.14356285                1.63149251                0.31276480                0.11809978
               6.00686439                7.01474083               47.05625805                0.01000000               -0.52508392               -0.21497745                0.15062779                1.19704524                0.42565448                0.30492922
               7.00227268                7.01708136               47.06144110                0.01000000               -0.35282670               -0.42772143                0.15699829                0.63011397                0.51771897                0.50773764
               7.99980786                7.01463585               47.06704918                0.01122782               -0.07977922               -0.59137221                0.16561367                0.19147169                0.40344181                0.57462787
               9.00067709                7.01065430               47.06996247                0.01000002                0.12436573               -0.75528272                0.16397173               -0.00864114                0.17568481                0.79600916
              10.00229517                7.00765364               47.07096162                0.01000000                0.16180816               -0.45768662                0.16286391               -0.04190276                0.07850706                0.78940858
               0.03744577                8.00644384               47.04868896                1.00000000               -0.03095705               -0.02970884                0.09967441                0.00141371               -0.00174369                0.02035858
               1.03713620                8.00118439               47.04816136                1.00000000               -0.03188845               -0.03184159                0.10619240                0.00041171               -0.00163627                0.00331552
               2.03680801                7.99594586               47.04763669                0.22897296               -0.02852244               -0.03393692                0.11247741               -0.01816927                0.03698018               -0.01319016
               3.03656576                7.99036044               47.04788418                0.01312113               -0.32590591               -0.35932115                0.05821029                1.10538237                0.20413321               -0.12110085
               4.03028989                8.00066742               47.04981822                0.01031765               -0.73197038               -0.12604767                0.14502878                1.66200504                0.36380823               -0.00083883
               5.02192635                8.00832244               47.05379419                0.01000000               -0.85550888                0.03806463                0.14716002                1.23755882                0.50212707                0.16852164
               6.01317971                8.01388876               47.05945594                0.01000000               -0.78109805                0.01652986                0.15417654                0.70664427                0.62374023                0.32022649
               7.00630439                8.01374495               47.06621704                0.01123654               -0.49306896               -0.15735216                0.16184329                0.15309164                0.60717632                0.39094423
               8.00331833                8.01054595               47.07160572                0.01000002               -0.24096522               -0.37406375                0.16352595               -0.38379692                0.66304882                0.55536038
               9.00148508                8.00323911               47.07946772                0.01800818               -0.08007304               -0.50715237                0.16901921               -0.42500201                0.49370500                0.72066474
              10.00171687                8.00220427               47.08130754                0.01000001                0.02317875               -0.37065158                0.17640240               -0.21951914                0.19414526                0.65050033
               0.04273084                9.00613673               47.04934655                1.00000000               -0.03293083               -0.03175875                0.10623815                0.00137619                0.00240006                0.01925474
               1.04240154                9.00085470               47.04874102                0.99999999               -0.03395492               -0.03406934                0.11346530                0.00039840                0.00188325                0.00297193
               2.04205175                8.99559445               47.04812670                1.00000000               -0.03600820               -0.03626042                0.12080670                0.00052326               -0.00334060               -0.00958502
               3.04168137                8.99035967               47.04742150                0.01000001               -0.40530160               -0.01995749                0.12833981                0.74991506                0.16723469               -0.06401375
               4.03394571                9.00024245               47.05022324                0.01000000               -0.86885899                0.16727057                0.14328342                0.98969240                0.37965617                0.08404224
               5.02430419                9.01020889               47.05560264                0.01000000               -0.91854751                0.21191391                0.14413007                0.70514641                0.56427568                0.15266193
               6.01557476                9.01507143               47.06189329                0.01117241               -0.78134359                0.13804606                0.15898567                0.29906063                0.63614889                0.19907348
               7.00867732                9.01393431               47.06837318                0.01000002               -0.64685033                0.07156494                0.15870116               -0.10704611                0.79255443                0.16043731
               8.00263776                9.00715458               47.07741666                0.01455375               -0.40792926               -0.15403772                0.14156489               -0.55162758                0.81347245                0.43838844
               9.00051874                9.00051126               47.08398077                1.00000000               -0.13316388               -0.16363711                0.18257628               -0.38095596                0.33553310                0.23021320
               9.99997448                9.00024061               47.08383668                0.99382765               -0.05442557               -0.12493594                0.17978768               -0.10069479                0.00008374                0.13112448
               0.04803736               10.00580866               47.04990651                1.00000000               -0.03509064               -0.03280681                0.11317270                0.00008559                0.01361688                0.01445334
               1.04768645               10.00050300               47.04929198                0.99947553               -0.03619284               -0.03516965                0.12048524               -0.00090873                0.01732074                0.00136028
               2.04731350                9.99522066               47.04875408                0.99999998               -0.03851982               -0.03737954                0.12819007               -0.00091003                0.01733195               -0.00301168
               3.04691606                9.98996129               47.04814717                0.61921742               -0.85394935               -0.03983782                0.13580920                0.96307746                0.18079624               -0.00498513
               4.03023452               10.00401284               47.05088765                0.01000001               -1.28578781                0.37703850                0.16596757                0.75885123                0.30352057                0.13888108
               5.02120030               10.01256071               47.05610727                0.01315542               -0.73995082                0.23518237                0.15314127                0.32145323                0.54614222                0.07526060
               6.01543550               10.01664969               47.06263305                0.01000000               -0.45599920                0.15782580                0.16404770                0.11685027                0.61118702                0.10848279
               7.01208032               10.01517625               47.06851031                0.01000001               -0.48633309                0.12419353                0.15489396               -0.11892477                0.85132951                0.05159365
               8.00570884               10.00746520               47.07934143                0.01000000               -0.56501945                0.03106232                0.15164176               -0.45338589                0.81196621                0.24718225
               9.00077993                9.99996637               47.08388905                0.99382956               -0.27322872               -0.05448839                0.18014245               -0.36186321                0.23450609               -0.00008345
              10.00024426                9.99970555               47.08374532                1.00000000               -0.05356644               -0.05350604                0.17735026                0.00089621               -0.00005455                0.00011957
              -0.01765099                0.00851362               48.03668285                0.98886890               -0.02229528               -0.02083564                0.06723551                0.00296950               -0.00848253                0.00874703
               0.98212605                0.00629585               48.03881862                0.99999999               -0.02430786               -0.02526469                0.08131703                0.00232748               -0.00936989               -0.00082889
               1.98186285                0.00409630               48.04094256                0.11857779               -0.02712979               -0.02973643                0.09581103                0.00257898               -0.02800053               -0.00430617
               2.98158346                0.00192177               48.04270001                0.01000000               -0.23182626               -0.02896409                0.09644480                0.39757701               -0.02911468               -0.00259582
               3.97722632                0.00773837               48.04475622                0.01000000               -0.76561690                0.46686629                0.11107045                0.42311702               -0.01067722                0.00833879
               4.96627112                0.02332791               48.04638685                0.01183441               -1.20649865                0.30876811                0.09681804                0.93559610                0.00170306                0.00439289
               5.95309635                0.04291043               48.04828743                0.40515564               -0.67278399               -0.02853903                0.09134240                0.87953225               -0.00756870               -0.00060038
               6.95281544                0.04494476               48.05052898                1.00000000               -0.02890109               -0.03012519                0.09662895                0.00081128                0.00720458               -0.00383025
               7.95251833                0.04700410               48.05272503                1.00000000               -0.03051463               -0.03180020                0.10200082                0.00081984                0.00618677               -0.00068116
               8.95220515                0.04908728               48.05494494                1.00000000               -0.03211523               -0.03342637                0.10739694                0.00083632                0.00600205                0.00109750
               9.95187602                0.05119542               48.05713475                1.00000000               -0.03291229               -0.03513212                0.11279605               -0.00038145                0.00469092                0.00492581
              -0.01540353                1.00830526               48.03671729                0.95737254               -0.02384825               -0.02157167                0.07258925                0.00083457                0.00138118                0.00978609
               0.98435799                1.00604320               48.03885615                0.17077162               -0.02603961               -0.02614599                0.08670714                0.00019384                0.00427177               -0.00384123
               1.98407568                1.00379893               48.04104763                0.01000000               -0.03098987               -0.03017033                0.10129958                0.00303605               -0.00993290               -0.01640080
               2.98373819                1.00163213               48.04289543                0.01000001               -0.66606286                0.23074792                0.10265172                0.23817216               -0.01684373                0.01997105
               3.97075442                1.01240703               48.04493558                0.01000000               -1.28485706                0.36961077                0.12230049                0.87352513               -0.02427069                0.01362310
               4.95804105                1.02641559               48.04642163                0.01000000               -0.98355868                0.09016572                0.11745283                1.32458631               -0.06151872                0.02827951
               5.95108325                1.04262504               48.04761469                0.01000001               -0.36321648               -0.39146186                0.09916156                1.08789570               -0.04959434                0.06239524
               6.95077672                1.04464351               48.04978988                0.96285739               -0.03139901               -0.03126794                0.10443338                0.00001648                0.00012258               -0.00419580
               7.95045527                1.04668610               48.05198150                0.99999999               -0.03294363               -0.03294362                0.10981236               -0.00000569                0.00122881               -0.00069389
               8.95011785                1.04875302               48.05418145                0.99999999               -0.03455995               -0.03458372                0.11523283               -0.00002894                0.00101539                0.00113127
               9.94976407                1.05084410               48.05636989                0.99873827               -0.03537787               -0.03629675                0.12064901               -0.00118360                0.00045587                0.00657756
              -0.01311018                2.00808219               48.03676913                0.01000001               -0.02535593                0.03480227                0.07739822               -0.09536710                0.00364586                0.13025218
               0.98663626                2.00577293               48.03883169                0.01000000               -0.02775869               -0.02728389                0.09160980               -0.14061992                0.00443689                0.09500704
               1.98633465                2.00349289               48.04090359                0.01000001               -0.44487293                0.03869956                0.10436881                0.00937839                0.03569057                0.06532205
               2.97773880                2.00653673               48.04358447                0.01000000               -0.82106423                0.32078836                0.11356371                0.37967972                0.03440108                0.05351663
               3.96991336                2.01513059               48.04538644                0.01000000               -0.75969816                0.10387024                0.12128302                1.12022583               -0.02725906                0.05263311
               4.96254484                2.02513123               48.04686085                0.01000001               -0.66435062               -0.27730820                0.12253860                1.61697517               -0.05930153                0.08034398
               5.95662635                2.03508120               48.04820430                0.01142192               -0.68950605               -0.47340843                0.11486176                1.50140010               -0.09657725                0.11380153
               6.94875472                2.04431940               48.04904484                0.01000000               -0.41088196               -0.29405855                0.11218174                0.88941897               -0.07015641                0.09891632
               7.94840871                2.04634522               48.05123781                0.04336052               -0.03540771               -0.03853135                0.11762105                0.01828041               -0.00351153                0.01112739
               8.94804656                2.04839561               48.05341784                1.00000000               -0.03692613               -0.03683382                0.12295982               -0.00002999               -0.00249858               -0.00050973
               9.94767019                2.05046949               48.05563613                0.99999999               -0.03763765               -0.03857171                0.12831342               -0.00114795               -0.00069829                0.00669402
              -0.01269236                3.00900131               48.03921107                0.01000005               -0.11727576                0.17198352                0.07957240               -0.08593520               -0.00311314                0.25874163
               0.98613489                3.00549753               48.04084056                0.01000001               -0.19040965               -0.04268484                0.09175658               -0.00320031                0.00479036                0.19216485
               1.98349945                3.00457293               48.04262479                0.01000000               -0.32203970               -0.01035059                0.10373008                0.28004704                0.02298693                0.14156519
               2.97969409                3.00804790               48.04446174                0.01000000               -0.44675056                0.01813871                0.11424397                0.92264413                0.02772926                0.08598669
               3.97456444                3.01448444               48.04632282                0.01197370               -0.46320730               -0.16282334                0.12150541                1.24924844                0.00884109                0.08215803
               4.97042995                3.02086943               48.04784531                0.01000000               -0.63206823               -0.30497979                0.12517112                1.67600518               -0.03439844                0.10858662
               5.96192307                3.03315687               48.04896960                0.01000001               -0.65644370               -0.36351690                0.12477891                1.71137635               -0.06013349                0.17649661
               6.95730107                3.03876234               48.05037302                0.01000001               -0.75892000               -0.49305637                0.12607091                1.59859799               -0.11039422                0.24372866
               7.94674467                3.04591547               48.05073419                0.01316978               -0.56540427               -0.28610292                0.12378068                1.25913678               -0.11811799                0.19423809
               8.94599299                3.04801634               48.05262408                0.01000001               -0.05756620               -0.46597835                0.13054061                0.96814643               -0.01949075                0.15918094
               9.94559335                3.05007267               48.05487491                0.71103844               -0.03996357               -1.04965248                0.13595190                1.22019917               -0.00164143                0.16568324
              -0.00782132                4.01152186               48.04166806                0.01000000               -0.11780456                0.20576879                0.09016264                0.21976860                0.00062168                0.28835573
               0.99100064                4.00491923               48.04288972                0.01000000               -0.13967335               -0.14208038                0.09655758                0.47332027                0.00993223                0.19285389
               1.98938522                4.00328588               48.04420974                0.01000000               -0.23602335               -0.18676064                0.10488236                0.97902534                0.03432687                0.12625700
               2.98628017                4.00689950               48.04583487                0.01197412               -0.36542106               -0.14781904                0.11549360                1.22321892                0.03935156                0.09529596
               3.98207679                4.01187412               48.04728449                0.01000000               -0.44438315               -0.30307442                0.12423164                1.52326497                0.03294009                0.09319617
               4.97739251                4.01903163               48.04896491                0.01000001               -0.45579145               -0.26056558                0.13061323                1.70863964                0.04512287                0.15340048
               5.97296097                4.02781086               48.05089068                0.01000001               -0.47122121               -0.51839511                0.13312713                1.89308069                0.04260347                0.25994721
               6.96796808                4.03445828               48.05272651                0.01183896               -0.43117610               -0.49229592                0.13414575                1.82969590               -0.02152505                0.29473344
               7.96433744                4.04062317               48.05363094                0.01035149               -0.23578950               -0.68403191                0.13635868                1.87579666               -0.05594898                0.38830158
               8.96325229                4.03907604               48.05505926                0.01000000                0.18120379               -0.99071092                0.14295150                1.22107392                0.00818237                0.40426148
               9.96796152                4.02947644               48.05732373                0.01000000                0.47092264               -1.60271135                0.15601141                0.97631430                0.06468462                0.34444244
               0.00490826                5.01311668               48.04459637                0.01000003               -0.10709950               -0.24922240                0.08731079                0.70505787               -0.00700732                0.33011259
               1.00383727                5.00265592               48.04516143                0.01000000               -0.19042870               -0.18522162                0.09632451                1.18261035                0.00843086                0.21568991
               2.00109969                5.00083771               48.04586827                0.01000001               -0.41335188               -0.19732034                0.10714224                1.49049515                0.02880059                0.10729535
               2.99557023                5.00509151               48.04692962                0.01000000               -0.41010405               -0.37075920                0.11921105                1.71752913                0.05850907                0.08048607
               3.99289761                5.00842295               48.04851775                0.01000001               -0.34521147               -0.31412910                0.12796869                1.75249074                0.11531888                0.11673167
               4.98866600                5.01565812               48.05083099                0.01000001               -0.42697824               -0.34318373                0.13486535                1.89174090                0.15835546                0.20599224
               5.98435804                5.02278897               48.05348105                0.01180671               -0.37916599               -0.46692195                0.13924356                1.83203175                0.11538455                0.25489192
               6.98108268                5.02891642               48.05515140                0.01000000               -0.23575992               -0.58717712                0.14149700                1.72316736                0.06806206                0.33010426
               7.97964284                5.03223483               48.05706154                0.01000000                0.02392559               -0.89165646                0.14373167                1.37031485                0.10719774                0.48922547
               8.98156119                5.02820212               48.05965021                0.01000000                0.23379982               -1.02743976                0.14863144                0.83214235                0.09609867                0.55494458
               9.98431884                5.01801844               48.06126582                0.01000000                0.27576481               -0.91369282                0.16016477                0.38395344                0.05356098                0.48096075
               0.02720137                6.00653741               48.04827702                0.41103681               -0.02695584               -0.34201695                0.08587278                0.84960894               -0.00214941                0.17288120
               1.02693182                6.00121480               48.04804165                0.01000001               -0.52209266               -0.08662952                0.09337076                1.06110155               -0.02748411                0.11163383
               2.01675952                5.99933947               48.04730123                0.01142428               -0.69431509               -0.26228985                0.10964809                1.45601262               -0.00331544                0.05966980
               3.01304551                5.99948432               48.04808576                0.01000001               -0.50997582               -0.40215743                0.12104572                1.75813652                0.12343487                0.05642887
               4.00656001                6.00559154               48.05005691                0.01000001               -0.60921051               -0.29514994                0.13222079                1.92866027                0.21507926                0.11569343
               5.00086130                6.01216796               48.05300956                0.01180643               -0.51083539               -0.30778174                0.13862993                1.84836628                0.22224101                0.16578404
               5.99634330                6.01847242               48.05539430                0.01000000               -0.39378661               -0.38896856                0.14396356                1.64463037                0.21170821                0.23879414
               6.99298557                6.02271473               48.05836722                0.01000000               -0.19426291               -0.57158971                0.14866836                1.26349074                0.27846751                0.43137604
               7.99245804                6.02279004               48.06226020                0.01000000                0.05629789               -0.86342739                0.15132478                0.78634004                0.28913192                0.62178424
               8.99411153                6.01852725               48.06544510                0.01119848                0.17749578               -0.86781081                0.15606335                0.36525436                0.17716398                0.61422675
               9.99600795                6.01120258               48.06702981                0.01000000                0.18964250               -0.52063051                0.16273987                0.15449570                0.09914293                0.54842973
               0.03254566                7.00627635               48.04903579                0.98933868               -0.02884236               -0.02736639                0.09277085                0.00075592               -0.01157289                0.02129095
               1.03225723                7.00092333               48.04859413                0.94822801               -0.02976168               -0.03003517                0.09964439               -0.00017844               -0.01260364               -0.00115449
               2.03195042                6.99559192               48.04813339                0.01000000               -0.38881694               -0.20398631                0.10625520                0.83239183                0.05269472                0.00149254
               3.02448090                6.99704837               48.04900821                0.01000001               -0.65816256               -0.48293141                0.13175002                1.55904548                0.17486231               -0.09143181
               4.01878717                7.00251995               48.05128549                0.01183985               -0.58642250               -0.26167301                0.13124028                1.82881799                0.25835988                0.04854274
               5.01275245                7.00950248               48.05408919                0.01000000               -0.60416501               -0.18778308                0.14255475                1.68879000                0.31634360                0.11023542
               6.00670387                7.01500960               48.05774876                0.01000000               -0.53587843               -0.21203623                0.14877471                1.24331392                0.42633943                0.30216740
               7.00203488                7.01748463               48.06298721                0.01000000               -0.35733690               -0.42657270                0.15328474                0.66361782                0.52034738                0.50994047
               7.99955713                7.01496628               48.06867826                0.01129233               -0.07905709               -0.59309771                0.16080334                0.21129051                0.40102343                0.57952683
               9.00045374                7.01084591               48.07157111                0.01000002                0.12504733               -0.75378916                0.15812135                0.00494835                0.16922229                0.80399495
              10.00205808                7.00760583               48.07256662                0.01000000                0.16043461               -0.44589801                0.15760546               -0.03343976                0.07359654                0.79618742
               0.03792253                8.00599008               48.04968503                1.00000000               -0.03098529               -0.02961771                0.09937116                0.00137120               -0.00220197                0.01957878
               1.03761268                8.00061410               48.04922416                0.99999999               -0.03201056               -0.03202087                0.10675217                0.00036416               -0.00237926                0.00365864
               2.03728232                7.99525975               48.04876038                0.03780012               -0.01571449               -0.03442509                0.11392679               -0.00483935               -0.06389640               -0.01197846
               3.03729839                7.98982569               48.04707712                0.01317422               -0.33000361               -0.37491336                0.07070772                1.14431509                0.16142903               -0.05848088
               4.03068225                8.00035808               48.05154798                0.01036028               -0.75754660               -0.12661925                0.14441066                1.70988399                0.42755417               -0.02448707
               5.02214746                8.00841230               48.05520786                0.01000000               -0.87274075                0.04568000                0.14526123                1.27379458                0.49176436                0.14591242
               6.01322743                8.01423169               48.06097816                0.01000000               -0.79231045                0.02160988                0.15097880                0.73305187                0.63453984                0.31339661
               7.00630125                8.01418328               48.06780388                0.01130257               -0.49524309               -0.15505624                0.15740550                0.17585274                0.60975456                0.38768019
               8.00332257                8.01092808               48.07320759                0.01000002               -0.23651488               -0.36499090                0.15768745               -0.36581110                0.66668370                0.54492234
               9.00157095                8.00345146               48.08115466                0.01801270               -0.07516281               -0.51159354                0.16859889               -0.42099779                0.50028641                0.73130370
              10.00181931                8.00228462               48.08308307                0.01000001                0.02483648               -0.36300707                0.17607987               -0.21290653                0.20149189                0.66017562
               0.04332505                9.00568399               48.05040764                1.00000000               -0.03301980               -0.03164279                0.10591019                0.00135793                0.00263186                0.01873649
               1.04299485                9.00028291               48.04987916                0.99999999               -0.03415020               -0.03421083                0.11401125                0.00031250                0.00191401                0.00305032
               2.04264205                8.99490341               48.04933659                0.99999999               -0.03629924               -0.03662086                0.12191421                0.00036380               -0.00392254               -0.00870828
               3.04226887                8.98955010               48.04869785                0.01000000               -0.41218996               -0.03381033                0.12952416                0.77038803                0.16821240                0.03695636
               4.03439825                8.99998757               48.05161166                0.01000000               -0.89570727                0.17658654                0.14261707                1.03434440                0.45065288                0.01878949
               5.02435472                9.01041608               48.05700063                0.01000000               -0.94021604                0.22060944                0.14480561                0.71645832                0.60308622                0.12511799
               6.01559393                9.01544180               48.06344407                0.01123957               -0.77495891                0.13651961                0.15521734                0.30634319                0.65174317                0.19512038
               7.00885554                9.01438350               48.06992693                0.01000002               -0.63105968                0.06802822                0.15436191               -0.09124908                0.78613688                0.15367549
               8.00297273                9.00766646               48.07883399                0.01423537               -0.40891510               -0.14662058                0.14481770               -0.54724203                0.82349587                0.43016343
               9.00067724                9.00061404               48.08580586                1.00000000               -0.14195503               -0.16908708                0.18243634               -0.39771138                0.35723170                0.23822577
              10.00013363                9.00034569               48.08563456                0.99405056               -0.05436098               -0.12372169                0.17976522               -0.09773607                0.00011642                0.13344311
               0.04875185               10.00535723               48.05103763                1.00000000               -0.03523474               -0.03267660                0.11282411               -0.00005414                0.01372604                0.01426613
               1.04839950                9.99992988               48.05050050                0.99928068               -0.03647233               -0.03530288                0.12106604               -0.00102939                0.01754927                0.00125601
               2.04802241                9.99452733               48.05003970                0.99999997               -0.03887549               -0.03760836                0.12915147               -0.00098386                0.01765318               -0.00277505
               3.04762200                9.98914948               48.04951009                0.65879421               -0.87596278               -0.04006163                0.13718097                1.00343678                0.20078592               -0.00417242
               4.03050315               10.00388981               48.05272193                0.01000000               -1.32998021                0.39022418                0.17376313                0.79424050                0.42628758                0.08426666
               5.02102239               10.01282448               48.05757867                0.01350630               -0.75581368                0.24084008                0.15595929                0.32038086                0.56936369                0.06784798
               6.01538688               10.01696209               48.06425918                0.01000000               -0.43853959                0.15202882                0.16294277                0.11526314                0.61998081                0.10820018
               7.01225160               10.01554385               48.07003955                0.01000001               -0.46198400                0.11603421                0.15329801               -0.10871512                0.84720001                0.04546263
               8.00614720               10.00799567               48.08088160                0.01000000               -0.56570509                0.03292073                0.15713112               -0.45625979                0.82163758                0.25153165
               9.00093750               10.00006972               48.08569084                0.99405208               -0.28729542               -0.05443160                0.18018820               -0.38324856                0.24897447               -0.00005203
              10.00040129                9.99981019               48.08551945                1.00000000               -0.05362093               -0.05355007                0.17749924                0.00081243               -0.00009634                0.00008422
              -0.01994546                0.00854172               49.03735696                0.98865500               -0.02226507               -0.02083024                0.06750673                0.00286218               -0.00878210                0.00881816
               0.97983189                0.00622330               49.03963247                1.00000000               -0.02428598               -0.02509712                0.08123289                0.00217035               -0.00938649               -0.00099453
               1.97956882                0.00392072               49.04189574                0.10525697               -0.02613467               -0.02936304                0.09493726                0.00364928               -0.03362348               -0.00422862
               2.97930919                0.00166379               49.04368473                0.01000000               -0.21398772               -0.03031169                0.09909914                0.40743342               -0.03548085               -0.00318226
               3.97528906                0.00758044               49.04587175                0.01000000               -0.73179002                0.45322684                0.11096689                0.42233099               -0.00745217                0.00782790
               4.96467339                0.02310683               49.04736649                0.01144230               -1.21832341                0.31628183                0.10119359                0.95242758                0.02239005               -0.02026278
               5.95092260                0.04353810               49.04920147                0.40006382               -0.70158519               -0.02866524                0.09145814                0.92034199               -0.01354772               -0.00059903
               6.95064169                0.04560648               49.05149486                0.99992325               -0.02886798               -0.03019615                0.09654239                0.00077147                0.00714733               -0.00383862
               7.95034524                0.04770177               49.05374358                1.00000000               -0.03041619               -0.03180470                0.10169797                0.00077138                0.00619857               -0.00067819
               8.95003337                0.04982273               49.05601657                1.00000000               -0.03195583               -0.03335451                0.10689557                0.00078470                0.00603652                0.00111422
               9.94970612                0.05197056               49.05825934                1.00000000               -0.03272463               -0.03497794                0.11207911               -0.00051226                0.00472194                0.00497094
              -0.01759842                1.00833341               49.03744018                0.96380328               -0.02374875               -0.02146645                0.07226050                0.00079828                0.00149566                0.00960645
               0.98216409                1.00597233               49.03971871                0.16444292               -0.02582546               -0.02590221                0.08593875                0.00014652                0.00438265               -0.00403010
               1.98188507                1.00362709               49.04205282                0.01000000               -0.03052110               -0.02974757                0.09980446                0.00308178               -0.01504146               -0.01729709
               2.98155367                1.00136067               49.04393633                0.01000001               -0.65471087                0.22846566                0.10404699                0.24962373               -0.02039516                0.02184090
               3.96879085                1.01211271               49.04615433                0.01000000               -1.26674142                0.36375974                0.11848507                0.88124994               -0.00886271               -0.00227871
               4.95621884                1.02626965               49.04760041                0.01000000               -0.99573294                0.10107902                0.11696569                1.34939478               -0.04476770                0.00307215
               5.94887619                1.04325145               49.04860991                0.01000001               -0.38256351               -0.40173633                0.09989107                1.13320436               -0.06146671                0.06625284
               6.94856757                1.04530452               49.05083687                0.95646070               -0.03156829               -0.03143080                0.10496983               -0.00000167                0.00006493               -0.00422889
               7.94824482                1.04738373               49.05308117                0.99999999               -0.03303751               -0.03303859                0.11012528               -0.00001361                0.00123510               -0.00069383
               8.94790682                1.04948919               49.05533412                0.99999999               -0.03458293               -0.03459703                0.11530568               -0.00002432                0.00103041                0.00113295
               9.94755317                1.05162078               49.05757554                0.99851803               -0.03536516               -0.03622665                0.12048687               -0.00128026                0.00045950                0.00660730
              -0.01520733                2.00811239               49.03753923                0.01000000               -0.02515326                0.04015182                0.07688193               -0.08147055                0.00360608                0.12926605
               0.98454114                2.00570525               49.03974091                0.01000000               -0.02752815               -0.03040319                0.09055507               -0.12608928                0.00374268                0.09268530
               1.98424211                2.00332577               49.04194167                0.01000001               -0.43625474                0.03348501                0.10130307                0.02635151                0.03262351                0.06122093
               2.97581605                2.00623310               49.04470586                0.01000000               -0.81185163                0.31836619                0.10907930                0.40366427                0.03694759                0.04835292
               3.96800508                2.01485564               49.04659152                0.01000000               -0.76467494                0.10901370                0.11704845                1.15204262               -0.02214474                0.03339570
               4.96052255                2.02512841               49.04808277                0.01000001               -0.67266328               -0.27121828                0.12048247                1.65812253               -0.06650134                0.06681905
               5.95455181                2.03550338               49.04935790                0.01142065               -0.70065847               -0.48570709                0.11567982                1.55000521               -0.10451460                0.11943942
               6.94650938                2.04497787               49.05017247                0.01000000               -0.41957578               -0.29890032                0.11334523                0.91287519               -0.07408422                0.10183255
               7.94616030                2.04704100               49.05241850                0.04568207               -0.03567784               -0.03814337                0.11853328                0.01624014               -0.00352384                0.01030524
               8.94579582                2.04913079               49.05465060                0.99999999               -0.03714880               -0.03705014                0.12365937                0.00002369               -0.00253231               -0.00059050
               9.94541732                2.05124603               49.05692145                0.99999999               -0.03785001               -0.03872644                0.12882618               -0.00126001               -0.00080198                0.00668279
              -0.01441357                3.00913645               49.04001330                0.01000005               -0.11575073                0.17806879                0.07912879               -0.07086539               -0.00396668                0.26252708
               0.98442892                3.00536426               49.04175551                0.01000001               -0.18510887               -0.05214115                0.08979885                0.02095260                0.00594481                0.18906909
               1.98188425                3.00429679               49.04364990                0.01000000               -0.31659191               -0.02156956                0.10013459                0.31744259                0.02626225                0.13528428
               2.97809708                3.00772799               49.04559401                0.01000000               -0.44739327                0.01726041                0.11115959                0.96438378                0.03114568                0.07848728
               3.97293639                3.01429298               49.04753129                0.01197371               -0.46817674               -0.15964975                0.11945391                1.29616446                0.00867801                0.07284112
               4.96873355                3.02084529               49.04909640                0.01000000               -0.64547722               -0.30500349                0.12436257                1.73651878               -0.03858481                0.10259750
               5.96002684                3.03353731               49.05022168                0.01000001               -0.67230517               -0.36919057                0.12544515                1.77004081               -0.06560579                0.17782033
               6.95528745                3.03932652               49.05164087                0.01000001               -0.78050697               -0.49940621                0.12755046                1.64577548               -0.11596331                0.24840720
               7.94441670                3.04662086               49.05197984                0.01322830               -0.57925910               -0.28638528                0.12545313                1.29146928               -0.12032949                0.19575240
               8.94370226                3.04874819               49.05393590                0.01000000               -0.05596063               -0.47749663                0.13194414                0.99366294               -0.01871389                0.16093550
               9.94329749                3.05084626               49.05623988                0.73453998               -0.04047733               -1.07664757                0.13716557                1.25323128               -0.00178220                0.16967135
              -0.00908026                4.01167376               49.04254969                0.01000000               -0.11198836                0.19722354                0.08512361                0.23142202               -0.00129475                0.28363632
               0.98979985                4.00466243               49.04384419                0.01000000               -0.13462523               -0.15781801                0.09368203                0.50222057                0.01105537                0.19007366
               1.98822723                4.00289438               49.04525448                0.01000000               -0.23461635               -0.19796278                0.10338899                1.02523915                0.03747515                0.12311584
               2.98510753                4.00657831               49.04698730                0.01197312               -0.37080798               -0.14945698                0.11459106                1.27369182                0.04250391                0.09066392
               3.98081107                4.01166264               49.04852426                0.01000000               -0.45494643               -0.30621456                0.12337101                1.57917652                0.03405150                0.08853684
               4.97600860                4.01902835               49.05027053                0.01000001               -0.46698365               -0.25920803                0.13027505                1.77296936                0.04322816                0.15007632
               5.97147140                4.02811956               49.05222556                0.01000001               -0.48336311               -0.52401399                0.13406477                1.96253617                0.03842199                0.26025427
               6.96634134                4.03498974               49.05407914                0.01185054               -0.44516936               -0.49759476                0.13641559                1.89183912               -0.02631566                0.29670922
               7.96256801                4.04131330               49.05500901                0.01039774               -0.24488259               -0.69092366                0.13883871                1.92918843               -0.05934322                0.39244398
               8.96144368                4.03958086               49.05648955                0.01000000                0.18588966               -1.01033577                0.14369890                1.25259573                0.00815608                0.40763336
               9.96628581                4.02971308               49.05885122                0.01000000                0.48421221               -1.64520372                0.15244582                1.00736362                0.06473548                0.35155176
               0.00423753                5.01308092               49.04546357                0.01000003               -0.09848121               -0.28316216                0.08581736                0.73573274               -0.00568375                0.32230372
               1.00325272                5.00220790               49.04612177                0.01000000               -0.18821863               -0.20406162                0.09567454                1.22832140                0.01083919                0.20877596
               2.00047316                5.00033753               49.04693808                0.01000001               -0.42250317               -0.20550945                0.10691434                1.54915108                0.03323465                0.10394443
               2.99480266                5.00473885               49.04811439                0.01000000               -0.42016397               -0.37932363                0.11864904                1.77939607                0.06274543                0.07862334
               3.99206988                5.00816869               49.04979928                0.01000001               -0.35333217               -0.31600470                0.12790646                1.81622389                0.11710754                0.11279062
               4.98773601                5.01566113               49.05217863                0.01000001               -0.43768561               -0.34329704                0.13504444                1.96305466                0.15795350                0.20308126
               5.98331617                5.02305703               49.05487555                0.01181557               -0.39027584               -0.47115439                0.14012828                1.89955814                0.11282504                0.25405602
               6.97993050                5.02937462               49.05657200                0.01000000               -0.24534061               -0.59493272                0.14301050                1.78523002                0.06378098                0.33186129
               7.97840935                5.03280239               49.05850989                0.01000000                0.02119501               -0.90604653                0.14596364                1.41827222                0.10244730                0.49258645
               8.98035440                5.02854147               49.06115010                0.01000000                0.23854848               -1.04362309                0.15103264                0.85727347                0.09334648                0.55711445
               9.98318032                5.01794218               49.06285887                0.01000000                0.28259287               -0.93436408                0.15921838                0.39413222                0.05322390                0.47921046
               0.02738043                6.00601052               49.04913495                0.39802451               -0.02707568               -0.36661021                0.08572424                0.88696883               -0.00205341                0.16869186
               1.02710967                6.00058120               49.04897879                0.01000001               -0.53505608               -0.09609882                0.09445319                1.10333018               -0.02370474                0.10711528
               2.01667931                5.99878419               49.04839291                0.01142496               -0.71226901               -0.27468183                0.10928821                1.50842341                0.00453829                0.05403159
               3.01286429                5.99899184               49.04933101                0.01000001               -0.52330132               -0.40063822                0.12143534                1.81980692                0.12681361                0.04398032
               4.00621328                6.00534255               49.05135877                0.01000001               -0.62414667               -0.29627529                0.13095184                1.99272589                0.21593445                0.11374725
               5.00038136                6.01216240               49.05439864                0.01181627               -0.52321044               -0.31035590                0.13942309                1.91279358                0.22324281                0.16133370
               5.99574907                6.01869648               49.05683128                0.01000000               -0.40403887               -0.39283557                0.14419735                1.70528385                0.21101721                0.23701787
               6.99230058                6.02309109               49.05985072                0.01000000               -0.19912304               -0.57655541                0.14867624                1.31577614                0.27596695                0.43201045
               7.99176661                6.02319237               49.06376909                0.01000000                0.05743904               -0.87616968                0.15129215                0.82261925                0.28576465                0.62605896
               8.99344936                6.01870840               49.06700161                0.01127623                0.18002100               -0.87584134                0.15507948                0.38261097                0.17480084                0.61371749
               9.99536703                6.01102580               49.06864559                0.01000000                0.19176692               -0.52090216                0.15893511                0.16152863                0.09721479                0.54029060
               0.03283555                7.00574872               49.04996064                0.98837975               -0.02898931               -0.02734745                0.09239479                0.00087375               -0.01172203                0.02087083
               1.03254565                7.00028593               49.04959899                0.93014032               -0.03022782               -0.03043318                0.10112432               -0.00006063               -0.01309873               -0.00129345
               2.03223099                6.99484390               49.04921313                0.01000000               -0.39526099               -0.21405427                0.10930834                0.87189865                0.04572734               -0.00215606
               3.02464043                6.99672609               49.05004134                0.01000001               -0.67385817               -0.47453245                0.11436848                1.57708649                0.18234952               -0.05476430
               4.01875383                7.00224319               49.05267380                0.01185495               -0.60012403               -0.27455139                0.13777608                1.86124366                0.26886378                0.03299107
               5.01263795                7.00945401               49.05549522                0.01000000               -0.61303341               -0.19165818                0.14163183                1.74536170                0.31535496                0.10524921
               6.00649316                7.01520032               49.05923355                0.01000000               -0.54439126               -0.21175445                0.14864582                1.29574622                0.42741258                0.29756365
               7.00175013                7.01784351               49.06450679                0.01000000               -0.36243643               -0.42661250                0.15186125                0.70240710                0.52087698                0.50908866
               7.99924443                7.01527899               49.07026525                0.01136336               -0.07884725               -0.59518502                0.15672958                0.23578741                0.39672830                0.57838101
               9.00017318                7.01102464               49.07312490                0.01000002                0.12658339               -0.75389812                0.15073288                0.02055592                0.16145637                0.80684188
              10.00177610                7.00752414               49.07411373                0.01000000                0.16029147               -0.43429780                0.14878710               -0.02390776                0.06929664                0.79784236
               0.03832348                8.00546357               49.05067638                1.00000000               -0.03102024               -0.02949273                0.09890180                0.00114118               -0.00245246                0.01909985
               1.03801328                7.99997254               49.05029640                0.99999999               -0.03231818               -0.03232801                0.10773494                0.00023716               -0.00258638                0.00356822
               2.03767712                7.99450310               49.04991523                0.03927703               -0.05032739               -0.03514688                0.11647911                0.02261298               -0.01493748               -0.01144910
               3.03700673                7.98950119               49.04929834                0.01323139               -0.34834419               -0.40301284                0.18942058                1.17392666                0.14706840               -0.07232784
               4.03071023                7.99985152               49.05270643                0.01040385               -0.73376347               -0.13994491                0.12759833                1.73651080                0.38950296               -0.03080403
               5.02233146                8.00832924               49.05669941                0.01000000               -0.87178709                0.04432155                0.14662458                1.32527069                0.50499451                0.13551393
               6.01327449                8.01446139               49.06247551                0.01000000               -0.80307074                0.02462456                0.15130701                0.77098856                0.63673371                0.30680926
               7.00627004                8.01455884               49.06936515                0.01136970               -0.49866319               -0.15356818                0.15593265                0.20436429                0.60850351                0.38234185
               8.00330123                8.01128867               49.07475947                0.01000002               -0.23273559               -0.35975804                0.15211406               -0.34720471                0.66856777                0.53619535
               9.00161533                8.00363044               49.08283969                0.01815037               -0.07056713               -0.51425258                0.16367851               -0.41296002                0.50652069                0.74293606
              10.00188988                8.00233984               49.08482914                0.01000001                0.02745509               -0.35255241                0.16705311               -0.20189317                0.20658264                0.66979309
               0.04384044                9.00515886               49.05146476                1.00000000               -0.03295744               -0.03147896                0.10539947                0.00118367                0.00264527                0.01837522
               1.04351087                8.99963937               49.05102124                0.99999999               -0.03429199               -0.03435509                0.11447245                0.00020944                0.00203157                0.00309175
               2.04315460                8.99414096               49.05056498                0.99609613               -0.03701575               -0.03720896                0.12387941                0.00031644               -0.00381023               -0.00854767
               3.04277055                8.98866583               49.05001198                0.01000000               -0.42493058               -0.06239078                0.13352945                0.82730709                0.17129027               -0.01218104
               4.03465599                8.99944429               49.05307558                0.01000000               -0.91185258                0.18130459                0.14915839                1.08280286                0.44988755                0.02681312
               5.02453350                9.01034044               49.05849875                0.01000000               -0.94863282                0.22161787                0.15157030                0.74836921                0.61289575                0.11290153
               6.01568333                9.01569281               49.06499764                0.01131134               -0.77616812                0.13610395                0.15743087                0.32657262                0.65599880                0.19109408
               7.00901014                9.01477215               49.07146041                0.01000002               -0.62272963                0.06507077                0.15399960               -0.07385618                0.77884297                0.14657289
               8.00322874                9.00808383               49.08031301                0.01407312               -0.40736645               -0.14440250                0.14970742               -0.54217395                0.83137832                0.42520341
               9.00086281                9.00073959               49.08762949                1.00000000               -0.14546578               -0.17175242                0.18229612               -0.40522545                0.37578570                0.24624451
              10.00031942                9.00047309               49.08743198                0.99428297               -0.05433836               -0.12011988                0.17972876               -0.09188920                0.00011072                0.13708725
               0.04938614               10.00483399               49.05216299                1.00000000               -0.03507734               -0.03248707                0.11209975               -0.00028549                0.01389612                0.01409091
               1.04903537                9.99928543               49.05171330                0.99908001               -0.03645814               -0.03539331                0.12131020               -0.00130310                0.01771523                0.00135038
               2.04865698                9.99375892               49.05133711                0.99638913               -0.03929136               -0.03820360                0.13074821               -0.00136526                0.01772862               -0.00296551
               3.04824954                9.98825337               49.05089079                0.69761088               -0.89826486               -0.04124621                0.14007325                1.03383349                0.20952617               -0.00491066
               4.03069168               10.00347761               49.05436292                0.01000000               -1.35996086                0.40333224                0.16077613                0.82898076                0.43303170                0.08204812
               5.02105032               10.01276160               49.05922646                0.01382508               -0.76587242                0.24211585                0.16542281                0.33697532                0.57548743                0.06093366
               6.01537423               10.01718347               49.06589191                0.01000000               -0.43242134                0.14906586                0.16520479                0.12402297                0.61442574                0.10684706
               7.01240190               10.01586025               49.07157627                0.01000001               -0.44419643                0.10881058                0.15486351               -0.09996645                0.84174449                0.04062240
               8.00649031               10.00840062               49.08248405                0.01000000               -0.56401655                0.03167838                0.16120341               -0.45708681                0.82696218                0.25422557
               9.00112157               10.00019539               49.08749282                0.99428121               -0.29526008               -0.05442038                0.18021569               -0.39728271                0.26024897               -0.00006534
              10.00058510                9.99993744               49.08729530                1.00000000               -0.05364630               -0.05356458                0.17765187                0.00077358               -0.00009130                0.00009551
              -0.02237765                0.00852355               50.03803299                0.98842234               -0.02227977               -0.02084250                0.06772281                0.00269016               -0.00878570                0.00894675
               0.97739955                0.00610348               50.04044328                1.00000000               -0.02421110               -0.02493164                0.08092351                0.00204643               -0.00939772               -0.00100221
               1.97713813                0.00369757               50.04284131                0.09147705               -0.02508592               -0.02905013                0.09413437                0.00448378               -0.03770449               -0.00421479
               2.97689783                0.00135493               50.04468199                0.01000000               -0.18713030               -0.03071127                0.10006118                0.41470468               -0.04079286               -0.00305133
               3.97339552                0.00732977               50.04697556                0.01000000               -0.67543177                0.43119260                0.10286776                0.40675011               -0.00240412                0.00934694
               4.96338920                0.02245481               50.04841073                0.01082908               -1.23492457                0.33059466                0.11286230                0.96768244                0.04348884               -0.04288351
               5.94869703                0.04408158               50.05011659                0.39517040               -0.74864572               -0.02879068                0.09154354                0.97849986               -0.02258675               -0.00059640
               6.94841628                0.04618395               50.05245983                0.99987927               -0.02882205               -0.03026370                0.09642344                0.00073538                0.00710393               -0.00384864
               7.94812059                0.04831534               50.05475899                1.00000000               -0.03030843               -0.03180376                0.10136214                0.00073837                0.00621932               -0.00067564
               8.94781011                0.05047446               50.05708285                1.00000000               -0.03178340               -0.03328057                0.10634318                0.00075390                0.00608182                0.00112380
               9.94748492                0.05266245               50.05937633                1.00000000               -0.03251940               -0.03483173                0.11130785               -0.00064845                0.00477314                0.00502027
              -0.01993068                1.00831512               50.03816250                0.97153793               -0.02363152               -0.02145766                0.07216713                0.00071542                0.00142995                0.00966185
               0.97983301                1.00585416               50.04057493                0.15844976               -0.02560409               -0.02568199                0.08525759                0.00005360                0.00437805               -0.00403453
               1.97955724                1.00340706               50.04304372                0.01000000               -0.03021138               -0.02886679                0.09846420                0.00388486               -0.01929693               -0.01974353
               2.97922878                1.00104781               50.04497637                0.01000001               -0.63220791                0.22455894                0.10378056                0.25823505               -0.02646766                0.02135348
               3.96691308                1.01164169               50.04730528                0.01000000               -1.22693312                0.35458852                0.10331250                0.87054867                0.00096505               -0.00864451
               4.95469012                1.02576075               50.04876094                0.01000000               -1.01478137                0.12584061                0.11098136                1.36056030               -0.02313699               -0.01960727
               5.94661745                1.04379367               50.04961251                0.01000001               -0.41916803               -0.41116798                0.10063476                1.19349456               -0.07193427                0.06975254
               6.94630676                1.04588132               50.05188928                0.94997237               -0.03173665               -0.03159485                0.10550769               -0.00001057                0.00001750               -0.00425893
               7.94598272                1.04799730               50.05418401                0.99999999               -0.03313300               -0.03313348                0.11044424               -0.00000734                0.00122629               -0.00069940
               8.94564410                1.05014165               50.05648756                0.99999999               -0.03461414               -0.03462185                0.11539749               -0.00001601                0.00102915                0.00112934
               9.94529044                1.05231414               50.05877963                0.99829354               -0.03536576               -0.03618274                0.12035622               -0.00137571                0.00045339                0.00663953
              -0.01744142                2.00809439               50.03830677                0.01000002               -0.02499010                0.04631351                0.07652073               -0.06672820                0.00359681                0.12759196
               0.98230868                2.00558984               50.04064280                0.01000000               -0.02682061               -0.03392641                0.08960373               -0.10949969                0.00133957                0.08936302
               1.98202217                2.00312023               50.04292965                0.01000001               -0.42403882                0.02793681                0.09013547                0.04426155                0.02611529                0.05441859
               2.97382790                2.00584610               50.04576605                0.01000000               -0.79643081                0.31441930                0.10149573                0.42540699                0.03931792                0.04721873
               3.96609355                2.01442154               50.04772741                0.01000000               -0.76897398                0.11834112                0.11029014                1.17240178               -0.02438249                0.02591536
               4.95844843                2.02497162               50.04927050                0.01000001               -0.68235988               -0.25135637                0.11253697                1.68572151               -0.07376817                0.06109698
               5.95244636                2.03585822               50.05051790                0.01142434               -0.71179927               -0.49740212                0.11692905                1.60147369               -0.11084905                0.12659096
               6.94421244                2.04555206               50.05131174                0.01000000               -0.42931239               -0.30287518                0.11453400                0.93556718               -0.07764016                0.10462025
               7.94386011                2.04765267               50.05360847                0.04803303               -0.03597406               -0.03786491                0.11949763                0.01451473               -0.00354326                0.00959279
               8.94349296                2.04978202               50.05589103                0.99999999               -0.03738371               -0.03727746                0.12443788                0.00003483               -0.00257451               -0.00064303
               9.94311243                2.05193880               50.05821265                0.99999999               -0.03805247               -0.03889034                0.12940944               -0.00135638               -0.00082636                0.00668299
              -0.01625613                3.00924139               50.04079365                0.01000005               -0.11266957                0.18249564                0.07584032               -0.05631553               -0.00497232                0.25942013
               0.98261718                3.00517563               50.04263654                0.01000001               -0.17788354               -0.06176940                0.08502900                0.04663424                0.00631814                0.18740409
               1.98018620                3.00396580               50.04462749                0.01000000               -0.30907830               -0.03301037                0.09342982                0.35650020                0.02773285                0.13780872
               2.97643561                3.00733620               50.04668494                0.01000000               -0.44752998                0.01731461                0.10870236                1.00376368                0.03039561                0.07663938
               3.97123560                3.01400851               50.04871190                0.01197286               -0.47338726               -0.15223320                0.11644304                1.33892360                0.00606962                0.07162864
               4.96696787                3.02073363               50.05033256                0.01000000               -0.65845568               -0.30103415                0.12246221                1.79722326               -0.04332022                0.10206240
               5.95806649                3.03384563               50.05147851                0.01000001               -0.68721094               -0.37480715                0.12582153                1.82823104               -0.06991993                0.18039695
               6.95322365                3.03982381               50.05292403                0.01000001               -0.80117175               -0.50453614                0.12929766                1.69201259               -0.12074855                0.25327538
               7.94204305                3.04724000               50.05324325                0.01328801               -0.59324923               -0.28553394                0.12732135                1.32261769               -0.12270223                0.19724821
               8.94135866                3.04939610               50.05526296                0.01000000               -0.05466513               -0.48837520                0.13344193                1.01882863               -0.01812568                0.16235566
               9.94094975                3.05153633               50.05761822                0.75574233               -0.04089113               -1.10251583                0.13846589                1.28504549               -0.00177132                0.17247917
              -0.01043621                4.01174431               50.04337054                0.01000000               -0.10468351                0.18680542                0.08053445                0.24772989               -0.00230084                0.28051079
               0.98851696                4.00435445               50.04476336                0.01000000               -0.12860937               -0.17393964                0.09083737                0.53390430                0.01065848                0.18939195
               1.98699161                4.00246002               50.04627752                0.01000000               -0.23282475               -0.20938163                0.10307661                1.07117548                0.03889854                0.12310813
               2.98386046                4.00619240               50.04812669                0.01197515               -0.37585036               -0.15079641                0.11356994                1.32225874                0.04423843                0.09015416
               3.97947460                4.01137687               50.04975191                0.01000000               -0.46523430               -0.30821276                0.12236749                1.63492293                0.03399042                0.08706305
               4.97455578                4.01895094               50.05157041                0.01000001               -0.47769051               -0.25709952                0.12984055                1.83830689                0.04210908                0.14944045
               5.96992079                4.02836207               50.05357198                0.01000001               -0.49487307               -0.52906286                0.13516454                2.03325399                0.03654740                0.26144519
               6.96465832                4.03546133               50.05545482                0.01186400               -0.45903072               -0.50208719                0.13853633                1.95401122               -0.02844425                0.29873052
               7.96074017                4.04194199               50.05640771                0.01044280               -0.25425557               -0.69567635                0.14079186                1.98119101               -0.06091984                0.39669186
               8.95957320                4.04001451               50.05793324                0.01000000                0.18963565               -1.02818755                0.14515779                1.28334852                0.00867229                0.41057089
               9.96453289                4.02988848               50.06037264                0.01000003                0.49596826               -1.68640240                0.15274636                1.03819745                0.06528938                0.35670174
               0.00347819                5.01297750               50.04631272                0.01000003               -0.08986399               -0.31650624                0.08412481                0.76737572               -0.00511454                0.31780572
               1.00257955                5.00169684               50.04707492                0.01000000               -0.18532123               -0.22372784                0.09516843                1.27417337                0.01231614                0.20445185
               1.99977176                4.99977817               50.04800656                0.01000001               -0.43078063               -0.21574838                0.10675136                1.60649441                0.03652449                0.10178220
               2.99396394                5.00432027               50.04930260                0.01000000               -0.42981205               -0.38777103                0.11882148                1.84107801                0.06549381                0.07457535
               3.99117552                5.00784426               50.05107588                0.01000001               -0.36075665               -0.31924539                0.12799330                1.88039177                0.11857288                0.11043964
               4.98674880                5.01559164               50.05353188                0.01000001               -0.44771762               -0.34364499                0.13578530                2.03589913                0.15907615                0.20112764
               5.98222117                5.02326437               50.05628361                0.01182638               -0.40124234               -0.47536497                0.14157561                1.96906007                0.11295679                0.25330883
               6.97872396                5.02978207               50.05801161                0.01000000               -0.25537381               -0.60205902                0.14486455                1.84854427                0.06310503                0.33309941
               7.97711369                5.03332648               50.05998082                0.01000000                0.01775928               -0.91930631                0.14814337                1.46662743                0.10233303                0.49479530
               8.97907914                5.02883235               50.06267086                0.01000000                0.24260362               -1.05938611                0.15342045                0.88198261                0.09404040                0.55943161
               9.98196577                5.01780828               50.06445018                0.01000000                0.28866250               -0.95674725                0.16021247                0.40416361                0.05346818                0.47785128
               0.02747263                6.00541418               50.04999151                0.38537856               -0.02728729               -0.39125844                0.08573492                0.92438733               -0.00201455                0.16568997
               1.02719976                5.99987989               50.04993071                0.01000001               -0.54872851               -0.10584963                0.09597204                1.14470469               -0.02140186                0.10373254
               2.01649806                5.99814505               50.04948700                0.01142435               -0.72919139               -0.28758451                0.11055760                1.56039706                0.00664837                0.04837720
               3.01261593                5.99843698               50.05051446                0.01000001               -0.53434960               -0.41672571                0.12061409                1.87750950                0.13012351                0.03891578
               4.00581107                6.00499196               50.05267595                0.01000001               -0.63811412               -0.30060756                0.13276415                2.05880511                0.22089372                0.10911310
               4.99985365                6.01207804               50.05579803                0.01182684               -0.53497573               -0.31424722                0.14084711                1.98069004                0.22569357                0.15741300
               5.99511156                6.01885477               50.05827824                0.01000000               -0.41432766               -0.39738660                0.14560448                1.76807524                0.21227573                0.23488462
               6.99156710                6.02342015               50.06134075                0.01000000               -0.20445563               -0.58150459                0.14960634                1.36989271                0.27644146                0.43228877
               7.99102244                6.02355586               50.06528604                0.01000000                0.05819778               -0.88914767                0.15276484                0.85832681                0.28578439                0.62826002
               8.99273105                6.01882679               50.06854669                0.01135615                0.18209273               -0.88438438                0.15669001                0.39764547                0.17378284                0.60873551
               9.99466430                6.01075354               50.07020852                0.01000000                0.19332458               -0.52145774                0.15780363                0.16770375                0.09556446                0.52676758
               0.03303452                7.00515233               50.05088369                0.98795176               -0.02917462               -0.02731117                0.09228698                0.00079197               -0.01197316                0.02070937
               1.03274277                6.99957985               50.05061662                0.91107007               -0.03059479               -0.03083426                0.10240058               -0.00017569               -0.01366083               -0.00143122
               2.03242262                6.99402648               50.05031956                0.01000000               -0.40377773               -0.22330724                0.11187541                0.89447406                0.04793720               -0.00480284
               3.02466721                6.99598576               50.05129558                0.01000001               -0.68560276               -0.50142448                0.12851533                1.63191260                0.18671236               -0.05802989
               4.01871056                7.00183211               50.05404101                0.01186706               -0.60837108               -0.28258773                0.13793032                1.92905459                0.27574915                0.02483168
               5.01249979                7.00930669               50.05692183                0.01000000               -0.62350040               -0.19794946                0.14438431                1.80545726                0.31887667                0.09875837
               6.00624056                7.01531664               50.06072168                0.01000000               -0.55395364               -0.21254934                0.14988767                1.35150531                0.42954824                0.29441484
               7.00142072                7.01815198               50.06602444                0.01000000               -0.36834825               -0.42718304                0.15264075                0.74235727                0.52132106                0.50886433
               7.99887359                7.01554352               50.07181285                0.01143672               -0.07931716               -0.59758199                0.15357944                0.25948092                0.39017949                0.57459464
               8.99983438                7.01114466               50.07458577                0.01000002                0.12963804               -0.75106009                0.14044785                0.03681246                0.15314619                0.80236834
              10.00146635                7.00737913               50.07554236                0.01000000                0.16319751               -0.41956511                0.12962057               -0.01116468                0.06423676                0.79014770
               0.03863344                8.00486796               50.05166307                1.00000000               -0.03113430               -0.02937246                0.09850051                0.00104804               -0.00259713                0.01879940
               1.03832210                7.99926321               50.05137886                0.99999999               -0.03259054               -0.03260029                0.10868475                0.00017189               -0.00293090                0.00342648
               2.03798163                7.99367891               50.05108996                0.04174304               -0.04367739               -0.03579477                0.11856189                0.01488797               -0.00037435               -0.01093596
               3.03744855                7.98840849               50.05086554                0.01329052               -0.34552024               -0.41358664                0.14496823                1.20890774                0.18338844               -0.10259946
               4.03107123                7.99934021               50.05409995                0.01045142               -0.74851441               -0.14823805                0.14336327                1.79546134                0.39460085               -0.02960060
               5.02247826                8.00811905               50.05814035                0.01000000               -0.88874268                0.04201906                0.14743051                1.37271822                0.50986386                0.13069995
               6.01329637                8.01460379               50.06400430                0.01000000               -0.81454536                0.02653237                0.15414311                0.81345635                0.64014238                0.30409416
               7.00618736                8.01487649               50.07092253                0.01144339               -0.50384986               -0.15240726                0.15718516                0.23483735                0.60253570                0.37993628
               8.00321938                8.01160422               50.07624987                0.01000002               -0.22778301               -0.35487828                0.14448073               -0.32566366                0.66267041                0.53269412
               9.00163170                8.00380559               50.08442823                0.01833824               -0.06236505               -0.51294284                0.13838264               -0.40011896                0.50518728                0.75748296
              10.00197208                8.00236223               50.08642413                0.01000001                0.03403792               -0.33789288                0.13738074               -0.19110970                0.21620751                0.69488872
               0.04426498                9.00456488               50.05251563                1.00000000               -0.03297250               -0.03126956                0.10475880                0.00108130                0.00258435                0.01819478
               1.04393526                8.99892784               50.05216861                0.99999999               -0.03449411               -0.03452202                0.11504483                0.00016464                0.00219172                0.00300967
               2.04357510                8.99331058               50.05181417                1.00000000               -0.03755934               -0.03775712                0.12557353                0.00020212               -0.00312338               -0.00804666
               3.04318407                8.98771402               50.05136844                0.01000000               -0.43329339               -0.05574144                0.13630164                0.84474622                0.17527187               -0.02611045
               4.03490923                8.99886735               50.05459482                0.01000000               -0.92467446                0.18079504                0.15231277                1.10949687                0.45428827                0.02927646
               5.02469058                9.01014707               50.06003204                0.01000000               -0.95784972                0.22343495                0.15574612                0.77524100                0.61325788                0.11359845
               6.01575224                9.01584729               50.06659269                0.01138940               -0.77867744                0.13533526                0.16160248                0.34929801                0.65326046                0.18986710
               7.00911703                9.01510383               50.07300692                0.01000002               -0.61605079                0.06240411                0.15567826               -0.05471693                0.76981050                0.14281866
               8.00343122                9.00844596               50.08182814                0.01396446               -0.40215220               -0.14330578                0.14981546               -0.53337529                0.84112070                0.43034148
               9.00107399                9.00088581               50.08945179                1.00000000               -0.14501752               -0.17319115                0.18217175               -0.40625819                0.39240304                0.25892511
              10.00053087                9.00062127               50.08922913                0.99452498               -0.05431167               -0.11383931                0.17970146               -0.08533338                0.00011243                0.14819502
               0.04992915               10.00424257               50.05327963                1.00000000               -0.03494601               -0.03223153                0.11114970               -0.00056280                0.01384736                0.01403633
               1.04957969                9.99857277               50.05292671                0.99886329               -0.03648315               -0.03550744                0.12148350               -0.00149617                0.01798768                0.00132635
               2.04919949                9.99292377               50.05265467                0.99999994               -0.03964913               -0.03868145                0.13211322               -0.00151613                0.01824710               -0.00263778
               3.04878671                9.98729366               50.05231155                0.73740020               -0.91856871               -0.04203663                0.14262574                1.06188145                0.21267901               -0.00472555
               4.03082812               10.00295611               50.05593746                0.01000003               -1.38917829                0.40887638                0.15895341                0.85659304                0.43875149                0.07775872
               5.02100315               10.01258775               50.06088713                0.01000001               -0.77512718                0.24406737                0.16742973                0.34897572                0.57302255                0.06322345
               6.01532557               10.01731049               50.06756328                0.01000000               -0.42543992                0.14632075                0.16900999                0.13417522                0.60365563                0.10624346
               7.01249435               10.01612458               50.07313682                0.01000001               -0.42778376                0.10207428                0.15748616               -0.09088759                0.83282179                0.03785014
               8.00676990               10.00873811               50.08410567                0.01000000               -0.55815631                0.02921516                0.16149203               -0.45527260                0.83487596                0.26215509
               9.00133122               10.00034177               50.08929515                0.99452517               -0.29877079               -0.05440378                0.18024913               -0.40690956                0.27053623               -0.00007037
              10.00079448               10.00008545               50.08907249                1.00000000               -0.05367385               -0.05358200                0.17777837                0.00072932               -0.00009605                0.00009716
              -0.02494176                0.00846162               51.03871142                0.98816440               -0.02226237               -0.02087458                0.06796348                0.00254401               -0.00879847                0.00903918
               0.97483561                0.00593996               51.04125094                1.00000000               -0.02411096               -0.02478416                0.08058545                0.00198132               -0.00936759               -0.00106856
               1.97457602                0.00343160               51.04377843                0.07792780               -0.02382646               -0.02877264                0.09321286                0.00586934               -0.04075530               -0.00420225
               2.97435908                0.00101401               51.04568595                0.01000000               -0.15318857               -0.03103305                0.10125294                0.42418381               -0.05266507               -0.00270393
               3.97151225                0.00710794               51.04792910                0.01000000               -0.59784747                0.40800345                0.07644574                0.37806879               -0.02603084                0.02452117
               4.96240213                0.02154873               51.04962373                0.01001148               -1.25452460                0.34690051                0.11911573                0.97599380                0.02578132               -0.03700617
               5.94642175                0.04453434               51.05103234                0.39045703               -0.81303834               -0.02891495                0.09158515                1.04483646               -0.03992180               -0.00059575
               6.94614137                0.04667062               51.05342332                0.99985143               -0.02875750               -0.03031895                0.09624929                0.00069955                0.00706294               -0.00385658
               7.94584660                0.04883823               51.05577082                1.00000000               -0.03018512               -0.03179723                0.10098069                0.00070394                0.00624159               -0.00067233
               8.94553766                0.05103578               51.05814343                1.00000000               -0.03159917               -0.03321878                0.10575248                0.00071861                0.00612773                0.00113486
               9.94521462                0.05326437               51.06048550                1.00000000               -0.03230445               -0.03471171                0.11051362               -0.00079249                0.00482949                0.00507618
              -0.02239467                1.00825287               51.03888352                0.97916223               -0.02348954               -0.02142658                0.07203322                0.00064079                0.00137504                0.00970263
               0.97737043                1.00569212               51.04142387                0.15355114               -0.02538212               -0.02545283                0.08456931                0.00002183                0.00437377               -0.00411861
               1.97709769                1.00314387               51.04402210                0.01000000               -0.03038414               -0.03006129                0.09730986                0.00383505               -0.02292828               -0.02993105
               2.97676275                1.00070368               51.04601194                0.01000001               -0.60360572                0.22274487                0.10384467                0.27448341               -0.04432198                0.01736583
               3.96502557                1.01118797               51.04822058                0.01000000               -1.16569416                0.34296951                0.07237059                0.84073964               -0.03428530                0.01963229
               4.95344887                1.02501773               51.04982004                0.01000000               -1.03582006                0.16150032                0.08677064                1.34558894               -0.02544016               -0.01218398
               5.94430917                1.04424519               51.05062261                0.01000001               -0.47262252               -0.41825733                0.10139526                1.26107661               -0.07685337                0.07345992
               6.94399642                1.04636743               51.05294703                0.94339117               -0.03190545               -0.03175521                0.10604121               -0.00001495               -0.00003033               -0.00428862
               7.94367106                1.04852026               51.05529006                0.99999999               -0.03323190               -0.03323100                0.11077027               -0.00001485                0.00121640               -0.00070506
               8.94333178                1.05070359               51.05764207                0.99999999               -0.03464795               -0.03466238                0.11552364               -0.00002567                0.00102627                0.00112631
               9.94297810                1.05291726               51.05998266                0.99805793               -0.03536764               -0.03616358                0.12028068               -0.00148694                0.00044480                0.00667463
              -0.01980745                2.00803308               51.03906965                0.01052530               -0.02475036                0.05041068                0.07608684               -0.05042430                0.00358023                0.12416525
               0.97994505                2.00543091               51.04153299                0.01000000               -0.02756950               -0.03501700                0.08846914               -0.09258514               -0.00880558                0.08360341
               1.97964116                2.00283037               51.04374438                0.01000001               -0.40701981                0.02806117                0.03868429                0.06654107                0.03052501                0.06802184
               2.97180465                2.00546891               51.04673577                0.01000000               -0.78140896                0.30982305                0.11731616                0.44973947                0.01250034                0.04966607
               3.96401298                2.01396733               51.04879732                0.01000000               -0.77739806                0.12565406                0.10141128                1.18472042               -0.04871657                0.04927598
               4.95625669                2.02477874               51.05033351                0.01000001               -0.68596972               -0.22155543                0.09878129                1.69267665               -0.09052048                0.07926939
               5.95029359                2.03616920               51.05169648                0.01142237               -0.71953440               -0.50770120                0.11894416                1.64922919               -0.11681939                0.13360119
               6.94186600                2.04603552               51.05246315                0.01000000               -0.43917214               -0.30592421                0.11577293                0.95578619               -0.08140861                0.10744231
               7.94151014                2.04817361               51.05480845                0.05042836               -0.03629236               -0.03768384                0.12053677                0.01298410               -0.00356403                0.00902033
               8.94114016                2.05034253               51.05713935                0.99999999               -0.03762937               -0.03752512                0.12523455                0.00002478               -0.00262228               -0.00069971
               9.94075756                2.05254110               51.05950964                0.99999999               -0.03825977               -0.03907054                0.12998115               -0.00147089               -0.00084416                0.00667863
              -0.01819880                3.00926108               51.04153010                0.01000005               -0.10797577                0.18659115                0.06895525               -0.03215440               -0.00834468                0.24767377
               0.98072144                3.00499178               51.04345609                0.01000001               -0.17053463               -0.07095089                0.07912186                0.08025016                0.00137556                0.18803393
               1.97839051                3.00370510               51.04551850                0.01000000               -0.30504290               -0.04264512                0.10189350                0.39545338                0.01650817                0.14528310
               2.97462059                3.00690014               51.04776805                0.01000000               -0.44901789                0.01474083                0.10611292                1.03546068                0.02423170                0.08389666
               3.96941015                3.01370105               51.04986015                0.01197391               -0.47600269               -0.14637041                0.11485610                1.38603367               -0.00378292                0.07889315
               4.96510053                3.02058663               51.05154565                0.01000000               -0.66865889               -0.29804486                0.12126566                1.85820700               -0.04760478                0.11220534
               5.95603697                3.03409117               51.05273811                0.01000001               -0.69964027               -0.38129166                0.12626121                1.88433369               -0.07168015                0.18257314
               6.95110773                3.04024895               51.05422683                0.01000001               -0.82066227               -0.50793726                0.13081864                1.73730627               -0.12531012                0.25711985
               7.93962373                3.04776658               51.05452626                0.01335215               -0.60714701               -0.28320208                0.12941157                1.35325982               -0.12524947                0.19852786
               8.93896479                3.04995309               51.05660474                0.01000000               -0.05360883               -0.49790771                0.13487429                1.04406545               -0.01769877                0.16349275
               9.93855155                3.05213585               51.05900920                0.77678105               -0.04132350               -1.12629767                0.13968212                1.31603672               -0.00173753                0.17493077
              -0.01191193                4.01176491               51.04416038                0.01000000               -0.09820300                0.17774889                0.07844495                0.26517975               -0.00427751                0.27965159
               0.98710604                4.00401189               51.04566094                0.01000000               -0.12230992               -0.19310945                0.08944567                0.56481606                0.00978522                0.19264911
               1.98564187                4.00197747               51.04731601                0.01000000               -0.22940661               -0.22706972                0.10175759                1.11686438                0.04046044                0.12818438
               2.98251791                4.00576372               51.04925870                0.01197457               -0.37973514               -0.15287732                0.11433105                1.37425363                0.04250187                0.09018372
               3.97804717                4.01103992               51.05097161                0.01000000               -0.47435971               -0.31238025                0.12209203                1.69280135                0.03291191                0.08929709
               4.97303071                4.01881784               51.05286734                0.01000001               -0.48646146               -0.25652820                0.12983213                1.90563567                0.04146714                0.15145582
               5.96831794                4.02854336               51.05492885                0.01000001               -0.50469990               -0.53371162                0.13579537                2.10587638                0.03660154                0.26356244
               6.96293671                4.03587677               51.05684987                0.01187851               -0.47233706               -0.50491349                0.13984785                2.01769348               -0.02860626                0.30076723
               7.95887120                4.04250957               51.05782485                0.01049035               -0.26422565               -0.69733081                0.14219640                2.03403245               -0.06136757                0.40109262
               8.95765220                4.04038438               51.05939270                0.01000000                0.19207933               -1.04182192                0.14645249                1.31533145                0.00998575                0.41441252
               9.96271278                4.03001515               51.06190615                0.01000003                0.50605825               -1.72362561                0.15355345                1.07005124                0.06608642                0.36357137
               0.00261084                5.01281606               51.04714607                0.01000003               -0.08056329               -0.35057805                0.08313070                0.80003616               -0.00468224                0.31567199
               1.00180520                5.00112959               51.04802514                0.01000000               -0.18174366               -0.24488672                0.09521497                1.32138722                0.01336568                0.20253571
               1.99897596                4.99916370               51.04907310                0.01000001               -0.43809969               -0.22693719                0.10763507                1.66498245                0.03842213                0.10043495
               2.99304321                5.00384259               51.05049082                0.01000000               -0.43819502               -0.39932754                0.11931473                1.90248251                0.06801937                0.07356051
               3.99021206                5.00745345               51.05235914                0.01000001               -0.36667039               -0.32401230                0.12888698                1.94569455                0.12004548                0.10983968
               4.98570980                5.01545606               51.05489433                0.01000001               -0.45582474               -0.34485619                0.13652191                2.11128537                0.16120984                0.20061203
               5.98109557                5.02341694               51.05770706                0.01183604               -0.41072057               -0.47936322                0.14243701                2.04142699                0.11556419                0.25351313
               6.97749539                5.03015068               51.05946929                0.01001332               -0.26493989               -0.60763668                0.14597808                1.91439634                0.06559632                0.33501891
               7.97579677                5.03381997               51.06147276                0.01000000                0.01352242               -0.92920193                0.14943325                1.51855682                0.10617243                0.49897218
               8.97776584                5.02911665               51.06421851                0.01000000                0.24471353               -1.07080910                0.15477180                0.90968520                0.09704083                0.56780730
               9.98069104                5.01766333               51.06606312                0.01000000                0.29252020               -0.97730867                0.16126250                0.41676170                0.05410488                0.48306719
               0.02746173                6.00475335               51.05084965                0.37299550               -0.02755877               -0.41623593                0.08599211                0.96205049               -0.00202927                0.16392664
               1.02718614                5.99911415               51.05089823                0.01000001               -0.56166064               -0.11602193                0.09755276                1.18583712               -0.01945693                0.10148556
               2.01622852                5.99743873               51.05060406                0.01142319               -0.74541672               -0.30094109                0.11257210                1.60989108                0.01031065                0.04542859
               3.01227781                5.99777717               51.05174329                0.01000001               -0.54404649               -0.43140860                0.12419798                1.93654837                0.13254564                0.03730754
               4.00534759                6.00455967               51.05401405                0.01000001               -0.64924399               -0.30688150                0.13463518                2.12870233                0.22414134                0.10704878
               4.99929293                6.01192071               51.05721558                0.01183825               -0.54478638               -0.31846062                0.14220070                2.05107219                0.22881029                0.15523974
               5.99445186                6.01895610               51.05974337                0.01000340               -0.42356588               -0.40271892                0.14704084                1.83446347                0.21552511                0.23379220
               6.99082161                6.02372404               51.06284285                0.01000000               -0.20877513               -0.58558307                0.14997403                1.42797109                0.28183366                0.43499362
               7.99027636                6.02392553               51.06682439                0.01000000                0.05904635               -0.90064569                0.15419315                0.89670400                0.29356634                0.63574218
               8.99200254                6.01896820               51.07013541                0.01143871                0.18391495               -0.89630918                0.15942837                0.41421034                0.17821136                0.61261045
               9.99395466                6.01046897               51.07180166                0.01000000                0.19521189               -0.52759277                0.16123854                0.17290856                0.09374320                0.51628171
               0.03313023                7.00449134               51.05180638                0.98780911               -0.02936656               -0.02728621                0.09227958                0.00069220               -0.01213709                0.02071804
               1.03283657                6.99880915               51.05164700                0.89099990               -0.03097324               -0.03125391                0.10369945               -0.00024187               -0.01418767               -0.00150357
               2.03251077                6.99314488               51.05145063                0.01000000               -0.40916683               -0.23244784                0.11436959                0.91798510                0.05126253               -0.00708901
               3.02465323                6.99521442               51.05261164                0.01000001               -0.69341004               -0.52004156                0.13150642                1.67788178                0.19242931               -0.05648981
               4.01864257                7.00131582               51.05543240                0.01187967               -0.61592050               -0.29269882                0.14029190                1.99261351                0.27795482                0.02288886
               5.01233482                7.00908685               51.05838291                0.01001672               -0.63305265               -0.20438433                0.14734731                1.86890999                0.32147125                0.09587901
               6.00598151                7.01536256               51.06223130                0.01000000               -0.56247200               -0.21419188                0.15170684                1.40977330                0.43301182                0.29248353
               7.00108538                7.01843902               51.06755961                0.01000000               -0.37474112               -0.42744779                0.15458086                0.78490330                0.52645588                0.51158105
               7.99848669                7.01580705               51.07333683                0.01151626               -0.07893883               -0.59991373                0.14913441                0.27620164                0.39034225                0.57956232
               8.99950660                7.01119047               51.07593386                0.01000002                0.13304839               -0.75270601                0.14094281                0.04233527                0.14298692                0.79929032
              10.00114766                7.00711148               51.07670614                0.01000000                0.16410557               -0.39590666                0.11701667                0.00547923                0.05701692                0.77582566
               0.03883996                8.00420762               51.05264639                1.00000000               -0.03121846               -0.02925716                0.09816058                0.00094205               -0.00273195                0.01862236
               1.03852777                7.99848908               51.05247009                0.99999999               -0.03285006               -0.03287187                0.10957647                0.00008660               -0.00318512                0.00331552
               2.03818295                7.99278977               51.05228647                0.04380535               -0.04316322               -0.03647806                0.12070821                0.01343979                0.00074732               -0.01064984
               3.03766451                7.98737634               51.05219770                0.01335571               -0.34277620               -0.42584071                0.13260035                1.23790189                0.18021098               -0.09966896
               4.03132743                7.99870570               51.05557370                0.01050215               -0.75200593               -0.15617542                0.14746392                1.84461379                0.39195652               -0.03255648
               5.02262439                8.00783303               51.05964802                0.01000000               -0.90161350                0.03893924                0.15277256                1.42162675                0.51002253                0.12900106
               6.01329516                8.01467226               51.06555838                0.01000000               -0.82746015                0.02843043                0.15686706                0.85671014                0.64268464                0.30313962
               7.00607519                8.01517508               51.07250885                0.01152203               -0.51231105               -0.15123933                0.15996772                0.26702553                0.59641365                0.37827027
               8.00304894                8.01192726               51.07764909                0.01000002               -0.22651824               -0.34860953                0.14105436               -0.30707037                0.64077639                0.54318323
               9.00154482                8.00391408               51.08560735                0.01853615               -0.04133565               -0.50696499                0.06095591               -0.37865692                0.49759647                0.79480152
              10.00222223                8.00255084               51.08757675                0.01000001                0.06774064               -0.31614237                0.06187109               -0.15535737                0.21732843                0.67721007
               0.04458617                9.00390620               51.05355993                1.00000000               -0.03300154               -0.03104549                0.10409607                0.00100053                0.00260341                0.01809542
               1.04425615                8.99815172               51.05332214                0.99999999               -0.03469343               -0.03466570                0.11559705                0.00007155                0.00221377                0.00299885
               2.04389230                8.99241532               51.05307645                1.00000000               -0.03804058               -0.03822924                0.12707300                0.00000048               -0.00316418               -0.00789571
               3.04349534                8.98669761               51.05273802                0.01000000               -0.44070718               -0.05518525                0.13844120                0.86664076                0.17764608               -0.02729875
               4.03507815                8.99819231               51.05612184                0.01000000               -0.93472749                0.18209102                0.15352335                1.13658671                0.45520787                0.02681366
               5.02480079                9.00986563               51.06161367                0.01000000               -0.96522466                0.22414320                0.16018271                0.79997116                0.61281729                0.11342496
               6.01577366                9.01593117               51.06822969                0.01146592               -0.78149476                0.13474478                0.16576464                0.37255433                0.64857076                0.18986048
               7.00917089                9.01541423               51.07457398                0.01000002               -0.60836863                0.05911855                0.15809463               -0.03277743                0.75806927                0.14048549
               8.00360629                9.00883486               51.08330932                0.01385056               -0.39305071               -0.14192978                0.14430296               -0.51912514                0.85087035                0.44819450
               9.00130988                9.00105117               51.09127293                1.00000000               -0.14196524               -0.17034121                0.18206559               -0.40127900                0.41061910                0.29194720
              10.00076698                9.00078863               51.09102601                0.99477931               -0.05428967               -0.11490855                0.17967541               -0.08594012                0.00011302                0.18133306
               0.05036893               10.00358671               51.05438599                1.00000000               -0.03488499               -0.03194873                0.11011344               -0.00081832                0.01395884                0.01400695
               1.05002008                9.99779576               51.05414297                0.99863631               -0.03659300               -0.03559546                0.12167371               -0.00168305                0.01804732                0.00135121
               2.04963707                9.99202518               51.05397937                0.99999999               -0.03998768               -0.03901334                0.13315049               -0.00167865                0.01816078               -0.00266293
               3.04922033                9.98627263               51.05374330                0.77912964               -0.93729688               -0.04249708                0.14452335                1.08861578                0.21575414               -0.00476877
               4.03089114               10.00234752               51.05754198                0.01014445               -1.41676889                0.41552080                0.16217938                0.88346110                0.44372610                0.07615842
               5.02088495               10.01231589               51.06257505                0.01000001               -0.78467426                0.24502577                0.17127877                0.35939832                0.57108117                0.06357790
               6.01519765               10.01736716               51.06927211                0.01000000               -0.41845052                0.14359890                0.17370689                0.14447716                0.59136589                0.10549297
               7.01251594               10.01635745               51.07472600                0.01000001               -0.40840769                0.09432237                0.16076856               -0.07941996                0.82103128                0.03695735
               8.00702950               10.00908866               51.08571389                0.01000000               -0.54752349                0.02537994                0.16102889               -0.45018909                0.84490254                0.27816148
               9.00156547               10.00050725               51.09109780                0.99477672               -0.30004970               -0.05439162                0.18027910               -0.41624032                0.28146418               -0.00007672
              10.00102850               10.00025267               51.09085087                1.00000000               -0.05369691               -0.05359599                0.17788881                0.00069370               -0.00009920                0.00010119
              -0.02763267                0.00836012               52.03939226                0.98795726               -0.02221407               -0.02091761                0.06816165                0.00249404               -0.00890445                0.00901782
               0.97214519                0.00573626               52.04205499                1.00000000               -0.02396608               -0.02465164                0.08014272                0.00197311               -0.00945528               -0.00126283
               1.97188801                0.00312617               52.04470556                0.06602932               -0.02256700               -0.02836738                0.09208836                0.00788977               -0.04225876               -0.00421037
               2.97169385                0.00064887               52.04670705                0.01000000               -0.14754464               -0.03035680                0.10166683                0.45055440               -0.08205462               -0.00293845
               3.96893712                0.00723724               52.04850447                0.01000000               -0.54461354                0.39288857                0.07939425                0.38187492               -0.09373972                0.01996040
               4.96080158                0.02132207               52.05079304                0.01000000               -1.24190593                0.34852262                0.05618299                0.98036539               -0.21732821                0.12687676
               5.94409900                0.04488914               52.05194830                0.38592296               -0.84912593               -0.02904086                0.09160083                1.07230701               -0.05493727               -0.00060463
               6.94381906                0.04705942               52.05438482                0.99978879               -0.02868451               -0.03036988                0.09604268                0.00067682                0.00701128               -0.00386477
               7.94352531                0.04926341               52.05677861                1.00000000               -0.03005374               -0.03178409                0.10056724                0.00069181                0.00624995               -0.00067016
               8.94321799                0.05149987               52.05919790                1.00000000               -0.03139665               -0.03316151                0.10509122                0.00071506                0.00615837                0.00115684
               9.94289738                0.05376965               52.06158660                1.00000000               -0.03206112               -0.03461686                0.10963429               -0.00094325                0.00486177                0.00512952
              -0.02498386                1.00815095               52.03960317                0.98327695               -0.02342358               -0.02145003                0.07209232                0.00068820                0.00141093                0.00967246
               0.97478190                1.00548974               52.04226631                0.01000000               -0.02527682               -0.02532908                0.08412074                0.00020969                0.00443427               -0.00441681
               1.97451060                1.00284249               52.04498992                0.01000000               -0.03190205               -0.00709466                0.09640908                0.01987177               -0.02540293               -0.08241490
               2.97414386                1.00034531               52.04705326                0.01000001               -0.60456656                0.22172175                0.10267687                0.28273730               -0.08174441                0.03533811
               3.96241927                1.01116612               52.04875269                0.01000000               -1.11822878                0.32651221                0.07268138                0.85231773               -0.15226866                0.07942647
               4.95177929                1.02480730               52.05049636                0.01000000               -1.02329365                0.17546650                0.06336220                1.31849371               -0.24425568                0.13759140
               5.94195340                1.04459873               52.05164041                0.01000001               -0.50702960               -0.42371994                0.10216207                1.29148735               -0.06217280                0.07749109
               6.94163869                1.04675572               52.05401010                0.93669748               -0.03206980               -0.03191551                0.10657537                0.00000411               -0.00009239               -0.00432697
               7.94131200                1.04894557               52.05639941                0.99999999               -0.03333374               -0.03332703                0.11110277               -0.00000739                0.00122474               -0.00070774
               8.94097202                1.05116825               52.05879804                0.99999999               -0.03469200               -0.03472566                0.11568135               -0.00003791                0.00104197                0.00113676
               9.94061816                1.05342348               52.06118524                0.99780824               -0.03538575               -0.03619106                0.12026154               -0.00159716                0.00044295                0.00672715
              -0.02229649                2.00793112               52.03982850                0.01136992               -0.02456656                0.04765947                0.07605610               -0.03470173                0.00357171                0.11623677
               0.97745784                2.00522968               52.04241218                0.01000000               -0.01368118               -0.03406898                0.08796440               -0.05362296               -0.06107382                0.07540510
               1.97742988                2.00298427               52.04370334                0.01000001               -0.42164365                0.02286680                0.11136408                0.07737172               -0.13558134                0.06027281
               2.96902497                2.00508331               52.04811238                0.01000000               -0.79541997                0.30729502                0.11171729                0.46089663               -0.01260881                0.05405545
               3.96152148                2.01376748               52.04975563                0.01000000               -0.76430591                0.11229807                0.10295475                1.23555847               -0.11764364                0.11645844
               4.95373885                2.02483140               52.05124612                0.01000001               -0.67705789               -0.21816949                0.10178202                1.70028937               -0.08310299                0.13115162
               5.94798033                2.03641474               52.05289678                0.01142503               -0.71332740               -0.51670006                0.11884670                1.67940075               -0.12221625                0.13024064
               6.93947230                2.04642111               52.05362720                0.01000000               -0.44338506               -0.30881119                0.11702923                0.97363647               -0.08552165                0.10979728
               7.93911263                2.04859687               52.05601921                0.05288936               -0.03664924               -0.03757052                0.12164424                0.01161986               -0.00356510                0.00864803
               8.93873932                2.05080536               52.05839572                0.99999995               -0.03788253               -0.03778241                0.12610443               -0.00006544               -0.00265441               -0.00077820
               9.93835497                2.05304583               52.06081227                0.99999999               -0.03843432               -0.03925220                0.13059311               -0.00155623               -0.00096471                0.00669032
              -0.02027500                3.00910414               52.04217275                0.01000005               -0.10687015                0.18951253                0.06462772                0.00910386               -0.00743292                0.23441226
               0.97865629                3.00480836               52.04421897                0.01000001               -0.17602950               -0.07956463                0.07905255                0.11474416                0.00673051                0.19555742
               1.97620440                3.00329983               52.04666536                0.01000000               -0.30388534               -0.07575845                0.09929537                0.42280055                0.02811111                0.18726457
               2.97257859                3.00649121               52.04880719                0.01000000               -0.44110274                0.00949984                0.11014921                1.10710926               -0.00397676                0.06274075
               3.96738235                3.01341208               52.05100902                0.01197473               -0.47203850               -0.15518281                0.11568576                1.44777072               -0.01074229                0.09347198
               4.96313782                3.02044391               52.05275788                0.01000000               -0.67153215               -0.31000159                0.12231005                1.92708395               -0.05223943                0.12950807
               5.95395171                3.03426473               52.05400373                0.01000001               -0.71042635               -0.38751832                0.12700653                1.94127741               -0.07028870                0.18326820
               6.94892929                3.04057949               52.05554040                0.01000001               -0.83957795               -0.50934456                0.13110824                1.78236613               -0.12988531                0.25805161
               7.93716015                3.04819416               52.05583149                0.01341733               -0.62037695               -0.27897631                0.13185246                1.38452386               -0.12715026                0.19913657
               8.93652175                3.05041261               52.05796045                0.01000000               -0.05270307               -0.50581775                0.13629280                1.06982905               -0.01737501                0.16398636
               9.93610609                3.05263844               52.06041186                0.79800619               -0.04156638               -1.14699231                0.14090039                1.34622123               -0.00190614                0.17650904
              -0.01352287                4.01172137               52.04493943                0.01000000               -0.09200991                0.17487686                0.07724083                0.28677133               -0.00732731                0.28302545
               0.98555703                4.00363838               52.04655227                0.01000000               -0.11370407               -0.21490504                0.08810843                0.60056321                0.01013521                0.19811587
               1.98420305                4.00146910               52.04831267                0.01000000               -0.22510673               -0.24005076                0.10285753                1.17525214                0.04121851                0.12256883
               2.98105490                4.00527331               52.05041332                0.01197417               -0.38394258               -0.15921593                0.11507919                1.43272074                0.04483489                0.09277883
               3.97652420                4.01066382               52.05219375                0.01000000               -0.48135061               -0.32067340                0.12335940                1.75743152                0.03052326                0.09077493
               4.97142789                4.01863137               52.05416705                0.01000001               -0.49269559               -0.25941351                0.13031562                1.97439073                0.04177369                0.15320396
               5.96667029                4.02866437               52.05628788                0.01000001               -0.51188477               -0.53723077                0.13553504                2.18043172                0.03727030                0.26448850
               6.96119019                4.03623421               52.05825178                0.01189107               -0.48501491               -0.50450118                0.13956003                2.08469329               -0.02735266                0.30167786
               7.95696999                4.04301735               52.05925164                0.01054287               -0.27492856               -0.69438926                0.14252495                2.08912834               -0.06099153                0.40384744
               8.95569162                4.04068900               52.06086229                0.01000000                0.19288710               -1.04834089                0.14696486                1.34982420                0.01161365                0.41682462
               9.96082773                4.03010599               52.06344371                0.01065335                0.51361115               -1.75321649                0.15298213                1.10432559                0.06668592                0.36954148
               0.00162640                5.01260167               52.04797533                0.01000003               -0.07065715               -0.38444825                0.08341874                0.83374661               -0.00401299                0.31362798
               1.00091983                5.00051026               52.04897922                0.01000000               -0.17759361               -0.26753197                0.09621644                1.36981557                0.01398811                0.20190624
               1.99807453                4.99849881               52.05015926                0.01000001               -0.44407733               -0.23965044                0.10897676                1.72263921                0.04031346                0.10224455
               2.99203828                5.00330689               52.05168890                0.01000000               -0.44508037               -0.41055016                0.12071714                1.96508814                0.06929296                0.07275581
               3.98917292                5.00699862               52.05365362                0.01000001               -0.37065980               -0.33020715                0.12970931                2.01230806                0.12127899                0.10980291
               4.98462508                5.01525564               52.05626232                0.01000001               -0.46077120               -0.34685562                0.13652218                2.18970735                0.16298310                0.19963116
               5.97995749                5.02352011               52.05913235                0.01184523               -0.41774515               -0.48289979                0.14154715                2.11791668                0.11919279                0.25359886
               6.97627018                5.03048947               52.06093118                0.01003457               -0.27347837               -0.61022507                0.14517985                1.98594104                0.06931851                0.33595734
               7.97448793                5.03430638               52.06296948                0.01000000                0.00797065               -0.93053564                0.14832151                1.57937687                0.11109026                0.50337713
               8.97642959                5.02944579               52.06576629                0.01000000                0.24353514               -1.06626753                0.15263212                0.94470616                0.10091356                0.57803269
               9.97935863                5.01757411               52.06767543                0.01000000                0.29290358               -0.98349170                0.15855060                0.43177882                0.05445616                0.49276903
               0.02733489                6.00403241               52.05171135                0.36080598               -0.02786828               -0.44158611                0.08640068                0.99974021               -0.00205638                0.16279942
               1.02705621                5.99828774               52.05188177                0.01000001               -0.57378396               -0.12661763                0.09921205                1.22693086               -0.01807785                0.10010648
               2.01585921                5.99667609               52.05173844                0.01142852               -0.75996733               -0.31482594                0.11447585                1.65916277                0.01311859                0.04321982
               3.01185686                5.99706230               52.05299842                0.01000001               -0.55187982               -0.44526666                0.12623360                1.99396691                0.13443607                0.03742147
               4.00482161                6.00405968               52.05536865                0.01000001               -0.65781606               -0.31341890                0.13570124                2.19787154                0.22574029                0.10596210
               4.99870054                6.01169425               52.05864204                0.01184837               -0.55134127               -0.32319051                0.14211397                2.12259646                0.23137977                0.15363503
               5.99379479                6.01900638               52.06121906                0.01002183               -0.42888951               -0.40844056                0.14678936                1.90510295                0.21901099                0.23277789
               6.99012275                6.02402971               52.06434023                0.01000000               -0.20967900               -0.58859351                0.14811276                1.49871912                0.29119319                0.43901722
               7.98960121                6.02440663               52.06836990                0.01000000                0.05976304               -0.89981529                0.15052629                0.95760979                0.30560706                0.64624553
               8.99131801                6.01936365               52.07173525                0.01152624                0.18027281               -0.88936276                0.15319942                0.44623661                0.18596154                0.63187232
               9.99320666                6.01043615               52.07343329                0.01000000                0.18886554               -0.52267825                0.15572614                0.19242457                0.09593246                0.52217148
               0.03311053                7.00376995               52.05272928                0.98783475               -0.02957711               -0.02727789                0.09231791                0.00062127               -0.01223960                0.02079943
               1.03281476                6.99797791               52.05269060                0.87002848               -0.03136521               -0.03166843                0.10503912               -0.00027706               -0.01470459               -0.00151841
               2.03248322                6.99220229               52.05260695                0.01000000               -0.41403627               -0.24179999                0.11688820                0.94167047                0.05258928               -0.00881664
               3.02453403                6.99440155               52.05392571                0.01000001               -0.69924135               -0.53867836                0.13222216                1.72183134                0.19452164               -0.05824461
               4.01849840                7.00073024               52.05684685                0.01189662               -0.62018561               -0.30300187                0.14169321                2.05143465                0.27826233                0.02181626
               5.01213032                7.00879183               52.05986877                0.01003400               -0.63871505               -0.21129757                0.14865792                1.93072812                0.32251842                0.09382874
               6.00572410                7.01535130               52.06375582                0.01000000               -0.56430066               -0.21690917                0.15204123                1.47101147                0.43659274                0.29168821
               7.00084431                7.01871760               52.06911606                0.01000000               -0.37089555               -0.43010944                0.15318601                0.84304705                0.53358792                0.51335716
               7.99830619                7.01631007               52.07479554                0.01159780               -0.07597492               -0.59556157                0.13600912                0.31380669                0.42596439                0.60425939
               8.99932481                7.01165853               52.07740463                0.01000002                0.13779674               -0.75005501                0.13743931                0.05742139                0.15539692                0.79980077
              10.00106212                7.00712055               52.07788269                0.01000000                0.17373121               -0.44247913                0.11554885                0.00485955                0.01473894                0.76373150
               0.03893140                8.00348685               52.05362628                1.00000000               -0.03130765               -0.02913782                0.09781358                0.00085794               -0.00282337                0.01852785
               1.03861832                7.99765438               52.05357039                0.99999999               -0.03312125               -0.03314854                0.11049011                0.00007490               -0.00343091                0.00319785
               2.03826897                7.99184009               52.05350412                0.04554462               -0.04263897               -0.03712658                0.12284375                0.01235361               -0.00042246               -0.01038736
               3.03776554                7.98628874               52.05351754                0.01341848               -0.34044690               -0.43895548                0.13338455                1.26585604                0.18061134               -0.10059883
               4.03146003                7.99799964               52.05704923                0.01055080               -0.75357524               -0.16474512                0.14837764                1.89094521                0.39192395               -0.03383674
               5.02269404                8.00746830               52.06119580                0.01000000               -0.90853960                0.03483595                0.15539374                1.46886521                0.50799054                0.12734139
               6.01328924                8.01466819               52.06714164                0.01000000               -0.83345593                0.02897313                0.15861964                0.89992345                0.64604187                0.30189375
               7.00602492                8.01542752               52.07412189                0.01160238               -0.51764179               -0.15106025                0.15927558                0.30908447                0.59640805                0.37724628
               8.00293641                8.01249540               52.07907096                0.01000002               -0.21844789               -0.34825128                0.14620964               -0.28107387                0.58578264                0.53604638
               9.00165596                8.00436255               52.08564734                0.01000004               -0.02782884               -0.52121175               -0.05844025               -0.43319794                0.51243284                1.02051038
              10.00237983                8.00158657               52.08766155                0.01000001                0.07238696               -0.30733670               -0.04176414               -0.27935577                0.33743521                0.88270970
               0.04479263                9.00318719               52.05459755                1.00000000               -0.03296241               -0.03081276                0.10337775                0.00092241                0.00260590                0.01807620
               1.04446301                8.99731494               52.05448055                0.99999999               -0.03483486               -0.03481277                0.11608648                0.00007510                0.00225166                0.00298030
               2.04409594                8.99145976               52.05435563                1.00000000               -0.03857036               -0.03877133                0.12881826                0.00004551               -0.00315002               -0.00775079
               3.04369160                8.98562244               52.05413726                0.01000000               -0.44791023               -0.05505143                0.14148751                0.88746077                0.17875800               -0.02623219
               4.03513773                8.99743533               52.05766529                0.01000000               -0.94262637                0.18196747                0.15588505                1.16384789                0.45552819                0.02636802
               5.02483908                9.00948854               52.06323569                0.01000000               -0.96871940                0.22341216                0.16390203                0.82480177                0.61245940                0.11248709
               6.01576334                9.01593076               52.06990798                0.01155325               -0.78201447                0.13336625                0.16909027                0.39602764                0.64449822                0.18917350
               7.00919879                9.01569639               52.07616881                0.01000002               -0.60068319                0.05660821                0.16060097               -0.00687226                0.74605229                0.13388219
               8.00374968                9.00934504               52.08471420                0.01372791               -0.38145524               -0.15016009                0.13949947               -0.50511768                0.85687041                0.46748122
               9.00156968                9.00123430               52.09309310                1.00000000               -0.13613567               -0.18360293                0.18197605               -0.41018353                0.43256515                0.38181294
              10.00102697                9.00097381               52.09282264                0.99504349               -0.05427138               -0.05744116                0.17965107               -0.08072267                0.00011506                0.26778833
               0.05069436               10.00287059               52.05548190                1.00000000               -0.03471035               -0.03165998                0.10899584               -0.00107492                0.01407020                0.01403372
               1.05034726                9.99695812               52.05536018                0.99839683               -0.03659915               -0.03568171                0.12175852               -0.00187181                0.01820802                0.00136444
               2.04996238                9.99106467               52.05531768                0.99203531               -0.04040356               -0.03950942                0.13454809               -0.00187681                0.01830797               -0.00271616
               3.04953918                9.98518771               52.05520202                0.82231049               -0.95457415               -0.04347382                0.14726615                1.11347441                0.21875489               -0.00491421
               4.03087089               10.00163899               52.05918105                0.01088209               -1.44222699                0.42036584                0.16649055                0.91075807                0.44921882                0.07536728
               5.02069464               10.01193655               52.06431270                0.01000001               -0.79344737                0.24480026                0.17679453                0.37038308                0.57057017                0.06346740
               6.01500195               10.01733552               52.07103742                0.01000000               -0.41107266                0.14047541                0.17975374                0.15501718                0.58037239                0.10299264
               7.01247319               10.01655969               52.07635219                0.01000001               -0.38528983                0.08632942                0.16481832               -0.06472534                0.80700817                0.03471673
               8.00729615               10.00949220               52.08732625                0.01000000               -0.53248341                0.01471551                0.16355514               -0.43881298                0.85519806                0.30112833
               9.00182352               10.00069049               52.09290073                0.99504261               -0.30048993               -0.05438062                0.18030761               -0.42733851                0.29216307               -0.00008384
              10.00128635               10.00043775               52.09263027                0.99089850               -0.05371727               -0.05360656                0.17798253                0.00066367               -0.00010355                0.00010533
              -0.03044532                0.00822015               53.04007465                0.98789256               -0.02214817               -0.02100761                0.06829266                0.00244896               -0.00906592                0.00895114
               0.96933320                0.00549206               53.04285380                1.00000000               -0.02379501               -0.02454645                0.07958747                0.00184415               -0.00963665               -0.00135566
               1.96907878                0.00277869               53.04562019                0.05583284               -0.02070595               -0.02808867                0.09085782                0.01092796               -0.04336274               -0.00398618
               2.96891908                0.00026282               53.04771929                0.01000000               -0.17636605               -0.02577041                0.09793571                0.45620187               -0.08533757               -0.00227469
               3.96555146                0.00701071               53.04951699                0.01000000               -0.71536673                0.45146342                0.11579276                0.51940506               -0.17127022                0.00049706
               4.95461175                0.02467963               53.05074739                0.01402569               -1.19101149                0.26368451                0.07490498                1.01279395               -0.32217225                0.26008495
               5.94173123                0.04513802               53.05286436                0.38159642               -0.65802322               -0.02914863                0.09161970                0.91523049               -0.00912238               -0.00060788
               6.94145128                0.04734276               53.05534418                0.99973689               -0.02863550               -0.03042519                0.09584775                0.00068896                0.00692162               -0.00388569
               7.94115852                0.04958322               53.05778216                1.00000000               -0.02992226               -0.03177124                0.10015111                0.00070432                0.00617568               -0.00070300
               8.94085284                0.05185864               53.06024526                0.99980554               -0.03120360               -0.03301378                0.10442131                0.00071893                0.00607485                0.00121034
               9.94053445                0.05416969               53.06267818                1.00000000               -0.03183879               -0.03435555                0.10873920               -0.00108566                0.00478028                0.00522133
              -0.02769274                1.00801007               53.04032537                0.98447160               -0.02348880               -0.02159552                0.07255541                0.00074986                0.00153443                0.00957669
               0.97207237                1.00524659               53.04310628                0.01000000               -0.02522896               -0.02528558                0.08392581                0.00016319                0.00461757               -0.00456570
               1.97180268                1.00249780               53.04595028                0.01000000               -0.03536424               -0.02091485                0.09544430               -0.15454618               -0.02849055               -0.01908838
               2.97136509                1.00000511               53.04806547                0.01000001               -0.66327889                0.22666315                0.09548214                0.28043225               -0.09897239                0.03090340
               3.95853710                1.01152534               53.04967421                0.01000000               -1.28445279                0.35147309                0.13005886                1.01431315               -0.20557050                0.08331830
               4.94567603                1.02731648               53.05108728                0.01000000               -0.94925662                0.02303080                0.10531323                1.50814595               -0.35210520                0.24828375
               5.93955197                1.04484653               53.05266585                0.01000001               -0.32202306               -0.43636615                0.10291482                1.17294931               -0.04275159                0.07958559
               6.93923557                1.04703851               53.05507854                0.92987941               -0.03221748               -0.03208009                0.10711006                0.00004185               -0.00018203               -0.00440277
               7.93890762                1.04926550               53.05751211                0.99999999               -0.03343898               -0.03343578                0.11145633                0.00009002                0.00122872               -0.00073258
               8.93856679                1.05152851               53.05995570                0.99999999               -0.03475351               -0.03470426                0.11578463                0.00008961                0.00107694                0.00108936
               9.93821255                1.05382613               53.06238789                0.99754451               -0.03542400               -0.03606974                0.12013228               -0.00170203                0.00047621                0.00663768
              -0.02490337                2.00778824               53.04059077                0.01291953               -0.02478974                0.04141631                0.07682975               -0.01754718                0.00379823                0.10838542
               0.97484874                2.00498635               53.04329228                0.01000000               -0.19336480               -0.02418804                0.08819785               -0.05683864                0.00246148                0.07004894
               1.97122934                2.00236039               53.04597166                0.01000001               -0.46742776                0.01716267                0.18175768                0.11857816               -0.14064529                0.02955163
               2.96550018                2.00479608               53.04897012                0.01000000               -0.63514893                0.29244496                0.09021411                0.52560417               -0.06740882                0.06327069
               3.95852636                2.01404017               53.05085641                0.01000000               -0.70233516                0.08035155                0.11858401                1.35258437               -0.11676339                0.13110874
               4.95145348                2.02514025               53.05236915                0.01000001               -0.65290870               -0.35303085                0.12661249                1.88777599               -0.07611476                0.15700948
               5.94546819                2.03641069               53.05407342                0.01142745               -0.72101673               -0.52405481                0.11553346                1.69288050               -0.12852449                0.12758399
               6.93703314                2.04670116               53.05480374                0.01000000               -0.43989314               -0.31265511                0.11829411                0.99752518               -0.08769498                0.11087115
               7.93667032                2.04891450               53.05724133                0.05542295               -0.03695704               -0.03743114                0.12269312                0.01082298               -0.00353837                0.00864903
               8.93629400                2.05116456               53.05966144                0.99313408               -0.03825803               -0.03811268                0.12735708                0.00019554               -0.00273250               -0.00109927
               9.93590516                2.05344829               53.06212150                0.99999999               -0.03888408               -0.03957716                0.13182744               -0.00172429               -0.00111010                0.00642578
              -0.02243990                3.00883840               53.04282266                0.01014836               -0.11966492                0.19172995                0.05630290                0.07340391               -0.00348811                0.21310534
               0.97636345                3.00476283               53.04503714                0.01000001               -0.15977938               -0.08861933                0.08035605                0.15447114                0.02788432                0.20009393
               1.97436451                3.00284105               53.04750440                0.01000000               -0.30830299               -0.07127215                0.09698518                0.62335210                0.04023490                0.12741021
               2.97019739                3.00585401               53.04997104                0.01000000               -0.45599437               -0.00292437                0.11654326                1.21623336                0.00302316                0.07328067
               3.96524462                3.01313237               53.05217387                0.01197500               -0.45681798               -0.19146763                0.11963184                1.53896929               -0.01154903                0.09380788
               4.96106103                3.02025586               53.05399185                0.01000000               -0.66979764               -0.33813859                0.12493271                1.97758166               -0.05299712                0.12918609
               5.95184867                3.03436543               53.05527824                0.01000001               -0.71893817               -0.38530897                0.12772552                2.00199906               -0.07019217                0.18187996
               6.94668227                3.04078541               53.05684899                0.01000001               -0.85939950               -0.50908001                0.13054745                1.82721041               -0.13189547                0.25779658
               7.93466068                3.04851688               53.05716331                0.01348506               -0.63226768               -0.27329894                0.13446586                1.41756897               -0.12795556                0.19800031
               8.93403691                3.05076625               53.05933060                0.01000000               -0.05250384               -0.51247677                0.13916483                1.09580537               -0.01762608                0.16317858
               9.93361060                3.05303459               53.06182721                0.81956377               -0.04263088               -1.16529432                0.14352243                1.37575791               -0.00200181                0.17619748
              -0.01528416                4.01162284               53.04570520                0.01000000               -0.07803364                0.17391532                0.07363411                0.30724749               -0.01068730                0.27782472
               0.98393551                4.00321396               53.04742311                0.01000000               -0.10553208               -0.24623039                0.08843370                0.64248493                0.00945948                0.20077775
               1.98260520                4.00093495               53.04937316                0.01000000               -0.22009892               -0.25291136                0.10586696                1.21158368                0.04521298                0.13122600
               2.97953353                4.00473759               53.05156028                0.01197610               -0.38506513               -0.15707060                0.11566371                1.50065954                0.04581369                0.08952154
               3.97490390                4.01021082               53.05343880                0.01000000               -0.48807374               -0.33288841                0.12515306                1.82297420                0.03133370                0.08931443
               4.96977205                4.01837748               53.05547365                0.01000001               -0.49626385               -0.26410826                0.13086964                2.04616974                0.04201020                0.15046701
               5.96497862                4.02870451               53.05763955                0.01000001               -0.51730741               -0.54038473                0.13445731                2.25519880                0.03738548                0.26142152
               6.95942590                4.03651956               53.05964107                0.01190750               -0.49688827               -0.50020178                0.13809305                2.15531857               -0.02618646                0.29940229
               7.95504086                4.04344852               53.06067535                0.01059539               -0.28667495               -0.68738161                0.14240439                2.14591199               -0.06019218                0.40198945
               8.95369241                4.04091502               53.06233200                0.01000000                0.19213993               -1.04809565                0.14676907                1.38675643                0.01229641                0.41445458
               9.95888365                4.03014240               53.06496579                0.01131046                0.51912489               -1.77527241                0.15091284                1.14030217                0.06627522                0.36929512
               0.00052280                5.01231670               53.04881444                0.01000000               -0.06217618               -0.41837259                0.08438288                0.87034877               -0.00371649                0.31076312
               0.99990104                4.99983823               53.04994947                0.01000000               -0.17251247               -0.29045317                0.09757086                1.41640574                0.01401867                0.20110569
               1.99707255                4.99778282               53.05125264                0.01000001               -0.44831657               -0.25397595                0.11057187                1.78217046                0.04084396                0.10093502
               2.99093471                5.00271260               53.05290516                0.01000000               -0.45041635               -0.42244032                0.12206300                2.02472869                0.07019258                0.07214833
               3.98806422                5.00647461               53.05495333                0.01000001               -0.37219893               -0.33625682                0.12990699                2.07879871                0.12098851                0.10729405
               4.98349073                5.01497370               53.05762478                0.01000001               -0.46268299               -0.34952597                0.13532561                2.26905978                0.16317420                0.19555404
               5.97881056                5.02355774               53.06053800                0.01185544               -0.42230500               -0.48581615                0.13892725                2.19814737                0.12102095                0.25006236
               6.97504463                5.03078137               53.06237289                0.01005493               -0.28135548               -0.61000287                0.14276885                2.06401205                0.07156528                0.33204982
               7.97318346                5.03476925               53.06443919                0.01000000                0.00167651               -0.92120687                0.14552055                1.64877954                0.11347364                0.49947071
               8.97507816                5.02980434               53.06727115                0.01000000                0.23892163               -1.04738553                0.14756057                0.98629350                0.10309932                0.57462674
               9.97796189                5.01752914               53.06923413                0.01000000                0.28837283               -0.97186289                0.15234567                0.45215916                0.05481820                0.48866094
               0.02707978                6.00325538               53.05257766                0.34875767               -0.02822756               -0.46621517                0.08693048                1.03695077               -0.00208081                0.16161994
               1.02679750                5.99740490               53.05288247                0.01000001               -0.58527707               -0.13740324                0.10102573                1.26819024               -0.01716229                0.09902491
               2.01537423                5.99585543               53.05289358                0.01142981               -0.77305898               -0.32899810                0.11623216                1.70693917                0.01452168                0.04149385
               3.01133632                5.99628879               53.05426797                0.01000001               -0.55777282               -0.45910960                0.12743497                2.04996554                0.13358812                0.03676052
               4.00421878                6.00348568               53.05672807                0.01000001               -0.66331026               -0.32015201                0.13534452                2.26493478                0.22478636                0.10338848
               4.99807012                6.01138696               53.06005786                0.01185686               -0.55424425               -0.32820178                0.13990555                2.19440002                0.23191976                0.15000859
               5.99313389                6.01898819               53.06267915                0.01004127               -0.42877401               -0.41419967                0.14415665                1.97940325                0.21994056                0.22956723
               6.98949463                6.02431950               53.06580510                0.01000000               -0.20702080               -0.59284334                0.14465955                1.58544903                0.29310950                0.43508232
               7.98899348                6.02502438               53.06983492                0.01000000                0.05818755               -0.87890325                0.14144291                1.05908832                0.30942817                0.63496607
               8.99065839                6.01996731               53.07319940                0.01161783                0.17418822               -0.82649732                0.14124243                0.50649964                0.18909951                0.62675732
               9.99247724                6.01070515               53.07491618                0.01000000                0.18188553               -0.46856479                0.14144412                0.20000425                0.09602587                0.50940025
               0.03296279                7.00299240               53.05365273                0.98800534               -0.02979899               -0.02727358                0.09238088                0.00055077               -0.01231900                0.02089841
               1.03266480                6.99709016               53.05374778                0.84803824               -0.03176737               -0.03209034                0.10641994               -0.00028627               -0.01526784               -0.00151925
               2.03232744                6.99120286               53.05378840                0.01000000               -0.41805192               -0.25110432                0.11942218                0.96466837                0.05277596               -0.01009444
               3.02430376                6.99353041               53.05525609                0.01000001               -0.70313472               -0.55679881                0.13393615                1.76320052                0.19457347               -0.06046093
               4.01826475                7.00007157               53.05826627                0.01191093               -0.62137715               -0.31375793                0.14135836                2.10740599                0.27656226                0.01983047
               5.01187622                7.00840966               53.06135607                0.01005659               -0.63993323               -0.21870109                0.14750447                1.99119258                0.32154096                0.09098053
               6.00546609                7.01527375               53.06527213                0.01000000               -0.55794025               -0.22151095                0.15010849                1.53354344                0.43676315                0.28825536
               7.00071742                7.01892450               53.07062333                0.01000000               -0.33743380               -0.43261251                0.14640309                0.92484152                0.52774041                0.51194990
               7.99871741                7.01719118               53.07605702                0.01168067               -0.05950124               -0.61474309                0.12448487                0.42977733                0.42561743                0.60645785
               8.99952739                7.01327439               53.07868264                0.01000002                0.08844490               -0.56657506                0.10617704                0.17555785                0.16039387                0.68770175
              10.00048631                7.00815784               53.07901712                0.01000000                0.09589165               -0.27200301                0.10412177                0.11160863               -0.00095570                0.67080347
               0.03889527                8.00270991               53.05460266                1.00000000               -0.03139590               -0.02901462                0.09745613                0.00079231               -0.00291728                0.01845009
               1.03858131                7.99676309               53.05467990                0.99999999               -0.03339591               -0.03343141                0.11142409                0.00008605               -0.00369747                0.00305307
               2.03822735                7.99083334               53.05474334                0.04695777               -0.04248422               -0.03780574                0.12503684                0.01174279               -0.00192384               -0.01010797
               3.03773163                7.98515281               53.05486539                0.01349136               -0.33698533               -0.45209623                0.13706898                1.29171313                0.17926423               -0.10047610
               4.03148765                7.99721052               53.05854125                0.01060245               -0.75199206               -0.17418566                0.14996677                1.93428309                0.39148027               -0.03532969
               5.02269179                8.00701294               53.06275590                0.01000000               -0.90988647                0.02944086                0.15581841                1.51392563                0.50550212                0.12486911
               6.01328992                8.01455797               53.06873077                0.01000000               -0.83088803                0.02725572                0.15726398                0.94593682                0.64661468                0.29922886
               7.00607403                8.01566725               53.07569436                0.01168531               -0.50253919               -0.15314695                0.15644725                0.33699287                0.60084228                0.37273567
               8.00323913                8.01272952               53.08057328                0.01000002               -0.14355712               -0.36309937                0.13591952               -0.09647182                0.47325581                0.54238618
               9.00320288                8.00863581               53.08443854                0.01000002                0.08516914               -0.59201766               -0.02247029               -0.25695409                0.40256593                1.03539582
              10.00494252                8.00526509               53.08674147                0.01000001                0.17396320               -0.34910799                0.00420250               -0.29587785                0.35344065                0.97182056
               0.04487228                9.00241211               53.05562749                0.99990171               -0.03291882               -0.03056133                0.10258717                0.00086739                0.00260669                0.01806523
               1.04454310                8.99642153               53.05564387                0.99999999               -0.03498525               -0.03496531                0.11658922                0.00008961                0.00227590                0.00294688
               2.04417258                8.99044675               53.05565282                1.00000000               -0.03911263               -0.03932808                0.13064016                0.00004960               -0.00314765               -0.00762025
               3.04376084                8.98448848               53.05556777                0.01000000               -0.45411458               -0.05539853                0.14463328                0.90707673                0.17923878               -0.02496500
               4.03509029                8.99658785               53.05923954                0.01000000               -0.94767794                0.18064155                0.15963971                1.18935874                0.45551248                0.02666669
               5.02480728                9.00899848               53.06489171                0.01000000               -0.96798908                0.22091432                0.16683664                0.84896017                0.61196219                0.11146173
               6.01573051                9.01581886               53.07161150                0.01163906               -0.77607816                0.13050849                0.17056956                0.41693895                0.64104508                0.18714028
               7.00928572                9.01586156               53.07778600                0.01000002               -0.59555471                0.05088881                0.16126606                0.02017926                0.73415976                0.12684234
               8.00381941                9.00992920               53.08609931                0.01357748               -0.37164878               -0.14211938                0.14116826               -0.50408685                0.87483925                0.46863346
               9.00185275                9.00143404               53.09491245                1.00000000               -0.12546046               -0.38727514                0.18189940               -0.49258406                0.45543060                0.53402131
              10.00131020                9.00117568               53.09461903                0.99531954               -0.05425431               -0.23127808                0.17962600               -0.19459334                0.00011896                0.40442143
               0.05089377               10.00209869               53.05656590                1.00000000               -0.03453069               -0.03134222                0.10777401               -0.00134146                0.01420781                0.01406689
               1.05054847                9.99606378               53.05657814                0.99814294               -0.03661894               -0.03577485                0.12184234               -0.00205845                0.01838472                0.00136717
               2.05016139                9.99004678               53.05667034                0.99659737               -0.04082031               -0.03999697                0.13598784               -0.00206575                0.01847138               -0.00271430
               3.04973206                9.98404484               53.05668863                0.86617672               -0.96982822               -0.04436440                0.15005309                1.13595034                0.22240414               -0.00494499
               4.03076483               10.00082335               53.06087179                0.01164180               -1.46460379                0.42355016                0.17259374                0.93677322                0.45652803                0.07538597
               5.02043998               10.01143122               53.06611094                0.01000001               -0.79996103                0.24327448                0.18340394                0.38050926                0.57175331                0.06309051
               6.01476561               10.01716814               53.07286718                0.01000000               -0.40363543                0.13492817                0.18586535                0.16620053                0.57066527                0.10054814
               7.01236727               10.01668503               53.07802236                0.01000001               -0.35903438                0.08234624                0.16918198               -0.05589495                0.79588379                0.02740488
               8.00758492               10.00988714               53.08898499                0.01000000               -0.51312788               -0.00420614                0.16680110               -0.41318498                0.86032205                0.32246986
               9.00210472               10.00089031               53.09470395                0.99531850               -0.30087778               -0.05437311                0.18033625               -0.43718340                0.30052706               -0.00009214
              10.00156737               10.00063952               53.09441052                0.99097252               -0.05373518               -0.05361582                0.17806272                0.00063776               -0.00010911                0.00010999
              -0.03337227                0.00803771               54.04075811                0.98793816               -0.02208074               -0.02113475                0.06843306                0.00237463               -0.00912345                0.00898308
               0.96640692                0.00520418               54.04364674                1.00000000               -0.02362302               -0.02442289                0.07899084                0.00166943               -0.00968852               -0.00136859
               1.96615527                0.00238626               54.04652272                0.04447760               -0.01583070               -0.02769997                0.08955459                0.01797435               -0.04667598               -0.00400291
               2.96609031               -0.00008900               54.04866576                0.01000005               -0.18358296               -0.01984642                0.09496663                0.46234247               -0.06770030                0.00480834
               3.96248361                0.00693274               54.05082033                0.01000000               -0.75397707                0.45603230                0.14250217                0.57689328               -0.04480292                0.02855270
               4.95101077                0.02584399               54.05229114                0.01269141               -1.15819203                0.23072259                0.11837666                0.99054096               -0.05486191               -0.01238871
               5.93931977                0.04527400               54.05378069                0.37739630               -0.59855372               -0.02926223                0.09168283                0.86218478               -0.04269863               -0.00058762
               6.93903969                0.04751299               54.05630177                0.99969152               -0.02860113               -0.03048850                0.09570229                0.00068181                0.00680434               -0.00394078
               7.93874775                0.04978945               54.05878163                1.00000000               -0.02981124               -0.03177001                0.09979389                0.00067650                0.00605205               -0.00071546
               8.93844347                0.05210319               54.06128633                0.99948066               -0.03103080               -0.03293321                0.10383987                0.00069226                0.00593438                0.00111094
               9.93812713                0.05445467               54.06376139                1.00000000               -0.03163368               -0.03417483                0.10793620               -0.00123444                0.00464964                0.00499125
              -0.03051499                1.00782636               54.04105428                0.98606615               -0.02356667               -0.02180826                0.07320785                0.00079517                0.00154403                0.00958530
               0.96924934                1.00495995               54.04394483                0.01000000               -0.02517049               -0.02521929                0.08376052                0.00010798                0.00464634               -0.00458474
               1.96898160                1.00210926               54.04689880                0.01000000               -0.04044247               -0.01825365                0.09433845               -0.12317706               -0.03649353               -0.00044460
               2.96844049                0.99971254               54.04896290                0.01000001               -0.68477734                0.22660769                0.08476529                0.30427665               -0.08463427                0.04478058
               3.95528605                1.01149306               54.05135387                0.01000000               -1.33474745                0.34786265                0.16189471                1.08711236               -0.06140271                0.01415144
               4.94174554                1.02815121               54.05260262                0.01000000               -0.90894679               -0.03884807                0.15567848                1.57385534               -0.10135808                0.03489883
               5.93710712                1.04498138               54.05369871                0.01000001               -0.24783785               -0.44599896                0.10368488                1.13561871               -0.06906589                0.07880706
               6.93678879                1.04720810               54.05615230                0.92287232               -0.03238524               -0.03224573                0.10766147                0.00005831               -0.00025640               -0.00448731
               7.93645941                1.04947175               54.05862854                0.99999999               -0.03355019               -0.03353985                0.11181575                0.00010802                0.00116905               -0.00084652
               8.93611778                1.05177386               54.06111373                0.99999999               -0.03480517               -0.03473570                0.11592540                0.00010977                0.00098198                0.00122809
               9.93576331                1.05411292               54.06358789                0.99725740               -0.03544749               -0.03598174                0.12001524               -0.00181780                0.00042174                0.00681319
              -0.02762354                2.00760155               54.04136510                0.01954194               -0.02502764                0.02127266                0.07796815               -0.00311298                0.00380624                0.09118208
               0.97212618                2.00469979               54.04417614                0.01000000               -0.17186631               -0.01402681                0.08852136               -0.01487342                0.02115351                0.06301743
               1.96893913                2.00202119               54.04733849                0.01000001               -0.46670737                0.01686350                0.11993703                0.14184892                0.03571331                0.04983458
               2.96279204                2.00444316               54.04991666                0.01000000               -0.65759749                0.28270574                0.10400392                0.56989493               -0.01142461                0.06675938
               3.95578718                2.01388999               54.05212731                0.01000000               -0.68962424                0.06063958                0.13008819                1.42341870               -0.05635806                0.04786974
               4.94899955                2.02506702               54.05377837                0.01000001               -0.64059665               -0.41140415                0.14018758                1.98459981               -0.09362735                0.09688381
               5.94297525                2.03635403               54.05520745                0.01142845               -0.72245322               -0.53225933                0.11495394                1.71923272               -0.13043849                0.13701310
               6.93455049                2.04686807               54.05599308                0.01000000               -0.43955497               -0.31550058                0.11953507                1.01910755               -0.08703330                0.11064089
               7.93418415                2.04911866               54.05847307                0.05801665               -0.03729960               -0.03757988                0.12374160                0.01002102               -0.00321343                0.00900990
               8.93380450                2.05140847               54.06094286                0.99823036               -0.03857513               -0.03841181                0.12832121                0.00019642               -0.00227948               -0.00027666
               9.93341265                2.05373503               54.06344882                0.99999999               -0.03918461               -0.03974061                0.13255954               -0.00186794               -0.00062353                0.00711591
              -0.02477374                3.00825182               54.04329881                0.01076958               -0.06940233                0.18422675                0.03447824                0.16531516                0.00730414                0.19869239
               0.97453223                3.00467941               54.04582609                0.01000001               -0.15755231               -0.09790884                0.07047294                0.20733942                0.04449627                0.15937168
               1.97207521                3.00244653               54.04860506                0.01000000               -0.32813242               -0.08378982                0.11419649                0.63591200                0.03589037                0.11061913
               2.96796958                3.00536666               54.05113806                0.01000000               -0.44723252               -0.01567732                0.11503041                1.26864102                0.02174438                0.08418077
               3.96313056                3.01270585               54.05340165                0.01197639               -0.44980391               -0.21096701                0.12301012                1.60033978               -0.00413365                0.07476156
               4.95897351                3.01992313               54.05525653                0.01000000               -0.67199189               -0.35296221                0.12643596                2.03490670               -0.05154810                0.10618017
               5.94969072                3.03433620               54.05655824                0.01000001               -0.72835992               -0.38604938                0.12774611                2.06251438               -0.07454212                0.17894319
               6.94440631                3.04089809               54.05815135                0.01000001               -0.87856459               -0.50848551                0.13167811                1.87320672               -0.12907296                0.25752709
               7.93211943                3.04872015               54.05852080                0.01355872               -0.64504865               -0.26686992                0.13992604                1.44992960               -0.12762224                0.19631725
               8.93150533                3.05100562               54.06074374                0.01000000               -0.05232979               -0.51854654                0.14112163                1.12202800               -0.01735732                0.16063031
               9.93107283                3.05331811               54.06328231                0.84135060               -0.04325004               -1.18250355                0.14509342                1.40489913               -0.00173402                0.17296869
              -0.01717243                4.01128608               54.04641212                0.01000000               -0.07493120                0.18463275                0.06672391                0.34834150               -0.00163099                0.27669769
               0.98207826                4.00274161               54.04832095                0.01000000               -0.09287201               -0.28032006                0.09168934                0.66445413                0.01069387                0.19512222
               1.98097013                4.00034539               54.05043001                0.01000000               -0.20863635               -0.27247181                0.10613332                1.26242500                0.04666081                0.12222968
               2.97790553                4.00412961               54.05272659                0.01197682               -0.38663122               -0.16622415                0.11718483                1.55485588                0.04604212                0.08430276
               3.97323751                4.00967065               54.05469681                0.01000000               -0.49190943               -0.34253158                0.12543932                1.88103421                0.03357956                0.08189079
               4.96806734                4.01800778               54.05678444                0.01000001               -0.49934650               -0.26703098                0.13076744                2.11463888                0.04089900                0.14103502
               5.96325058                4.02863304               54.05897703                0.01000001               -0.52183402               -0.54272224                0.13303416                2.33148314                0.03645471                0.25343135
               6.95763066                4.03669836               54.06101364                0.01192240               -0.50876808               -0.49658293                0.13682474                2.22711056               -0.02576588                0.29294042
               7.95307522                4.04378126               54.06209973                0.01064939               -0.29917796               -0.67919671                0.14391317                2.20394458               -0.05918618                0.39401272
               8.95164710                4.04103754               54.06379767                0.01000000                0.19052225               -1.04673475                0.14804905                1.42475028                0.01142128                0.40398233
               9.95688566                4.03008496               54.06646197                0.01196660                0.52385560               -1.79605853                0.14939532                1.17755110                0.06428956                0.35975977
              -0.00071798                5.01194447               54.04966299                0.01000000               -0.05200107               -0.44297823                0.08310140                0.90565835               -0.00246066                0.31121679
               0.99876201                4.99907301               54.05093064                0.01000000               -0.16731522               -0.31358417                0.09678632                1.46857014                0.01510854                0.19992406
               1.99593571                4.99699709               54.05237069                0.01000001               -0.45102834               -0.26875893                0.11207029                1.83815877                0.04052976                0.09847513
               2.98974144                5.00204217               54.05413016                0.01000000               -0.45313184               -0.43415123                0.12232279                2.08233621                0.06937986                0.06860590
               3.98687308                5.00585522               54.05625176                0.01000001               -0.37187708               -0.34280690                0.12929857                2.14151391                0.11856184                0.10076727
               4.98230390                5.01458251               54.05896883                0.01000001               -0.46216368               -0.35223221                0.13307735                2.34735188                0.16119289                0.18604086
               5.97762980                5.02348175               54.06191090                0.01186801               -0.42517988               -0.48847213                0.13601940                2.27898493                0.12039834                0.24075381
               6.97380030                5.03096643               54.06378655                0.01007649               -0.28853307               -0.61087203                0.14061065                2.14264911                0.07183389                0.32181911
               7.97185914                5.03513622               54.06587989                0.01000000               -0.00518317               -0.91465646                0.14373344                1.72123761                0.11200485                0.48321945
               8.97369664                5.03007092               54.06871751                0.01000000                0.23349406               -1.02751203                0.14466563                1.03161707                0.10212334                0.55571016
               9.97652902                5.01739694               54.07072235                0.01000000                0.28323856               -0.96218940                0.14875811                0.47299873                0.05554805                0.46727643
               0.02668366                6.00242652               54.05344996                0.33691064               -0.02866177               -0.48907760                0.08762446                1.07394348               -0.00210123                0.16044755
               1.02639704                5.99646993               54.05390228                0.01000001               -0.59597564               -0.14614572                0.10306902                1.30777127               -0.01715285                0.09854153
               2.01476415                5.99497021               54.05406308                0.01143044               -0.78514566               -0.34232246                0.11748568                1.75356902                0.01425303                0.03950339
               3.01069413                5.99544659               54.05554712                0.01000001               -0.56183486               -0.47236308                0.12790520                2.10252480                0.12995713                0.03501897
               4.00352745                6.00281451               54.05807554                0.01000001               -0.66531373               -0.32707758                0.13313543                2.32865682                0.22050249                0.09698396
               4.99738785                6.01096314               54.06144015                0.01186727               -0.55405480               -0.33345572                0.13568920                2.26502320                0.23016652                0.14140922
               5.99244635                6.01886360               54.06410219                0.01006171               -0.42793380               -0.42084788                0.14062234                2.05400425                0.21887269                0.22088491
               6.98882918                6.02448092               54.06723342                0.01000000               -0.20254386               -0.59495458                0.14250032                1.67192288                0.28562444                0.42019866
               7.98839548                6.02548813               54.07119876                0.01000000                0.05947770               -0.87176792                0.13778777                1.14532285                0.30252996                0.60398419
               8.99001873                6.02048730               54.07456010                0.01171401                0.16490696               -0.79487492                0.13660520                0.56144959                0.18660750                0.57448491
               9.99169361                6.01084117               54.07626217                0.01000000                0.16748836               -0.43428042                0.13659531                0.22763858                0.09224980                0.45782280
               0.03267405                7.00216292               54.05457690                0.98830985               -0.03003187               -0.02727084                0.09246104                0.00046406               -0.01238004                0.02095018
               1.03237374                6.99615010               54.05481900                0.82488180               -0.03218091               -0.03252908                0.10785291               -0.00028121               -0.01590448               -0.00156901
               2.03203044                6.99015064               54.05499540                0.01000000               -0.42130521               -0.25983474                0.12199746                0.98628346                0.05184278               -0.01054828
               3.02394763                6.99259491               54.05660444                0.01000001               -0.70503866               -0.57395268                0.13576674                1.80109088                0.19124387               -0.06180078
               4.01792966                6.99931367               54.05967402                0.01192374               -0.61961759               -0.32473686                0.13874740                2.15950842                0.27134665                0.01562323
               5.01155528                7.00791339               54.06281886                0.01007919               -0.63687813               -0.22665483                0.14337260                2.04889157                0.31861903                0.08442731
               6.00519210                7.01506479               54.06675799                0.01000000               -0.54705274               -0.22750976                0.14638926                1.59953345                0.43238020                0.27868173
               7.00061422                7.01906734               54.07204412                0.01000000               -0.32164421               -0.43806794                0.14231135                1.00030719                0.51270444                0.50479420
               7.99875922                7.01770086               54.07728524                0.01176892               -0.05208210               -0.60936482                0.12977327                0.51839764                0.37182481                0.56288766
               8.99957258                7.01417343               54.07952817                0.01000002                0.08074187               -0.58233205                0.10884086                0.22654117                0.12768162                0.58371753
              10.00037405                7.00871133               54.07996513                0.01000000                0.08014710               -0.27100517                0.11699420                0.11124853                0.01950105                0.59489113
               0.03871858                8.00188110               54.05557540                1.00000000               -0.03148925               -0.02888310                0.09708691                0.00072260               -0.00301997                0.01836441
               1.03840369                7.99581935               54.05579887                0.99999999               -0.03367917               -0.03372345                0.11238744                0.00009395               -0.00398990                0.00288984
               2.03804500                7.98977352               54.05600486                0.04807657               -0.04253869               -0.03851394                0.12730159                0.01134169               -0.00294079               -0.00976337
               3.03755292                7.98396753               54.05625892                0.01356231               -0.33229341               -0.46475011                0.14307209                1.31441423                0.17622219               -0.09947508
               4.03139913                7.99631978               54.06004856                0.01065607               -0.74691782               -0.18377726                0.15067609                1.97284393                0.38678876               -0.03677813
               5.02261456                8.00643004               54.06431217                0.01000000               -0.90580287                0.02246707                0.15342874                1.55723543                0.50034474                0.11922971
               6.01328308                8.01431340               54.07028692                0.01000000               -0.82076547                0.02361806                0.15308477                0.98936918                0.64602370                0.29228536
               7.00619925                8.01571956               54.07725083                0.01177167               -0.48128665               -0.15810517                0.15292840                0.38836866                0.58890859                0.36428685
               8.00365734                8.01330083               54.08178935                0.01000002               -0.13300816               -0.36974300                0.13119164               -0.07590503                0.42823809                0.54706677
               9.00353909                8.00884066               54.08519794                0.01000002                0.05927210               -0.62620553                0.10924374               -0.26468857                0.32182816                0.88089071
              10.00484278                8.00542107               54.08774560                0.01000001                0.13036953               -0.36590691                0.12636521               -0.27985286                0.24999645                0.83024146
               0.04481200                9.00158526               54.05664929                0.99956812               -0.03288071               -0.03030009                0.10177001                0.00080966                0.00260635                0.01804148
               1.04448320                8.99547563               54.05681233                0.99999999               -0.03514593               -0.03512182                0.11711579                0.00009679                0.00229590                0.00290971
               2.04410909                8.98938036               54.05696844                1.00000000               -0.03967711               -0.03990841                0.13250858                0.00003001               -0.00314985               -0.00746804
               3.04368966                8.98329991               54.05702993                0.01000000               -0.45925249               -0.05602243                0.14784063                0.92453253                0.17966198               -0.02419679
               4.03492404                8.99563813               54.06085808                0.01000000               -0.94916451                0.17812151                0.16436773                1.21214174                0.45443871                0.02727887
               5.02470637                9.00836274               54.06657243                0.01000000               -0.96170379                0.21649304                0.16797677                0.87093949                0.60985518                0.10904776
               6.01568996                9.01553715               54.07331937                0.01173330               -0.76560989                0.12608528                0.16924276                0.43816277                0.63721162                0.18324575
               7.00939417                9.01590524               54.07939414                0.01000002               -0.57849715                0.04577470                0.15970127                0.04213263                0.72456451                0.11787461
               8.00412002                9.01030600               54.08753757                0.01339500               -0.36177968               -0.15652994                0.14412561               -0.50461298                0.90043517                0.47159903
               9.00215857                9.00164932               54.09673109                1.00000000               -0.12519175               -0.38675082                0.18183474               -0.50216837                0.47558114                0.58773361
              10.00161618                9.00139319               54.09641516                0.99561149               -0.05423911               -0.22820539                0.17960042               -0.17420078                0.00012286                0.44478158
               0.05095404               10.00127510               54.05763738                1.00000000               -0.03435164               -0.03101600                0.10651628               -0.00161521                0.01435636                0.01408318
               1.05061052                9.99511691               54.05779703                0.99786802               -0.03663579               -0.03587144                0.12193739               -0.00225523                0.01858100                0.00137306
               2.05022132                9.98897535               54.05803743                1.00000000               -0.04123559               -0.04050171                0.13743533               -0.00226796                0.01867736               -0.00271179
               3.04978581                9.98284709               54.05820308                0.91082812               -0.98210902               -0.04528231                0.15285945                1.15495823                0.22753874               -0.00501618
               4.03057914                9.99988221               54.06263292                0.01240779               -1.48257429                0.42440815                0.18144591                0.96115112                0.46682869                0.07503151
               5.02013432               10.01075990               54.06798078                0.01000001               -0.80376553                0.23971641                0.19124007                0.39044067                0.57394789                0.06217287
               6.01450383               10.01683511               54.07475473                0.01000000               -0.39306324                0.12979512                0.19103412                0.17514475                0.56111561                0.09806544
               7.01227306               10.01663506               54.07973583                0.01000001               -0.33414127                0.07298198                0.17200458               -0.04535464                0.78593826                0.01803579
               8.00782100               10.01017023               54.09066227                0.01000000               -0.49322614               -0.01357696                0.16638437               -0.40637194                0.86176484                0.33438920
               9.00240853               10.00110565               54.09650746                0.99561273               -0.29749903               -0.05436706                0.18036476               -0.44066744                0.30795600               -0.00010010
              10.00187102               10.00085696               54.09619152                0.99105702               -0.05375113               -0.05362275                0.17813037                0.00061567               -0.00011505                0.00011575
              -0.03640505                0.00780747               55.04144331                0.98801787               -0.02201354               -0.02126867                0.06861798                0.00231139               -0.00912194                0.00898748
               0.96337482                0.00486851               55.04443361                0.99998817               -0.02343590               -0.02430050                0.07837841                0.00154486               -0.00968638               -0.00137946
               1.96312624                0.00194646               55.04741128                0.03244930               -0.00536766               -0.02733280                0.08814719                0.03766000               -0.04852577               -0.00399172
               2.96326747               -0.00023529               55.04961862                0.01159887               -0.10481053               -0.01148750                0.09590450                0.42339795               -0.02848792                0.02268519
               3.96103003                0.00651468               55.05236703                0.01000000               -0.63566602                0.39867062                0.14531807                0.46614006                0.04471207                0.02099476
               4.95055415                0.02380890               55.05311493                0.01121902               -1.20817005                0.27183230                0.11360079                1.01376535                0.08739641               -0.12064362
               5.93686663                0.04529022               55.05469802                0.37329831               -0.69838581               -0.02943145                0.09185719                0.96313430               -0.04008609               -0.00058595
               6.93658643                0.04756289               55.05725822                0.99964879               -0.02858083               -0.03054359                0.09563460                0.00066153                0.00674386               -0.00400038
               7.93629501                0.04987509               55.05977804                1.00000000               -0.02973312               -0.03179535                0.09949603                0.00061519                0.00597050               -0.00075403
               8.93599177                0.05222606               55.06232206                0.99914371               -0.03088445               -0.03295260                0.10336144                0.00060281                0.00580210                0.00112938
               9.93567732                0.05461651               55.06483691                1.00000000               -0.03144475               -0.03415492                0.10725402               -0.00141986                0.00450405                0.00489655
              -0.03344296                1.00759479               55.04178953                0.98766018               -0.02362632               -0.02200640                0.07383264                0.00085775                0.00151888                0.00957650
               0.96632077                1.00462550               55.04478149                0.01000000               -0.02511504               -0.02515382                0.08357207                0.00009704                0.00463553               -0.00459098
               1.96605474                1.00167313               55.04783705                0.01000000               -0.05517192               -0.01478200                0.09332525               -0.09494118               -0.04860809                0.00176171
               2.96521734                0.99964983               55.04976078                0.01000001               -0.61927026                0.20957029                0.08265787                0.30218287               -0.11166051                0.09846488
               3.95366933                1.01050139               55.05291210                0.01000000               -1.19566536                0.32175488                0.13664152                0.96924217                0.08109984               -0.06255229
               4.94130403                1.02652722               55.05420085                0.01000000               -0.95241795                0.03075596                0.14646216                1.52205827                0.04553099               -0.07714669
               5.93462097                1.04499591               55.05473954                0.01000001               -0.35017076               -0.44993999                0.10451355                1.22541567               -0.09902093                0.07881208
               6.93430061                1.04725745               55.05723177                0.91556347               -0.03256986               -0.03239812                0.10820598                0.00008269               -0.00033301               -0.00461882
               7.93396958                1.04955713               55.05974843                0.99999999               -0.03367648               -0.03363248                0.11217026                0.00001731                0.00119742               -0.00084745
               8.93362708                1.05189653               55.06227421                0.99999999               -0.03484531               -0.03485227                0.11610104               -0.00006382                0.00098828                0.00126726
               9.93327267                1.05427496               55.06478820                0.99695417               -0.03544146               -0.03601601                0.11993590               -0.00198431                0.00041057                0.00661661
              -0.03044932                2.00736735               55.04215013                0.01000001               -0.02522699                0.00852198                0.07902311                0.00453692                0.00380328                0.06011245
               0.96929841                2.00436543               55.04506270                0.01000000               -0.16738004               -0.04100235                0.08879027               -0.00450875                0.02335974                0.04721279
               1.96620308                2.00165082               55.04837040                0.01000001               -0.44077722                0.01443902                0.09978497                0.16531496                0.01505732                0.06677909
               2.96048287                2.00395611               55.05105020                0.01000000               -0.63328009                0.25389323                0.10592501                0.59586518                0.02050009                0.07917070
               3.95353748                2.01294978               55.05345818                0.01000000               -0.69910395                0.07783586                0.12319318                1.39210257               -0.02162155               -0.02034150
               4.94650079                2.02442402               55.05517290                0.01000001               -0.64463876               -0.35769125                0.13005585                1.94555477               -0.10145988                0.03916589
               5.94064471                2.03629142               55.05637250                0.01143315               -0.72369656               -0.54105949                0.11905142                1.76664708               -0.13250501                0.14082368
               6.93202686                2.04691492               55.05719444                0.01000000               -0.44942158               -0.31710277                0.12068282                1.03743229               -0.08709483                0.11090164
               7.93165627                2.04920244               55.05971616                0.06069215               -0.03770980               -0.03702825                0.12485977                0.00801787               -0.00297315                0.01270490
               8.93127266                2.05152901               55.06222787                1.00000000               -0.03877491               -0.03862384                0.12887803               -0.00025354               -0.00219225               -0.00020247
               9.93088078                2.05389619               55.06477270                0.99999999               -0.03918870               -0.03970733                0.13236792               -0.00197605               -0.00061711                0.00679742
              -0.02734839                3.00776523               55.04351222                0.01168698               -0.07044862                0.17126320                0.10712377                0.16976634                0.04850245                0.29726890
               0.97194712                3.00380545               55.04644660                0.01000001               -0.14406282               -0.11767831                0.10589636                0.25148807                0.04165165                0.13445163
               1.96977035                3.00196191               55.04978833                0.01000000               -0.30557208               -0.10184591                0.10672915                0.69259671                0.05304884                0.10427397
               2.96583568                3.00472770               55.05227165                0.01000000               -0.43634369               -0.02622817                0.11205200                1.29004454                0.02506941                0.07659226
               3.96104348                3.01205811               55.05463407                0.01197873               -0.44811010               -0.19756245                0.12001963                1.63129260                0.00288812                0.05250286
               4.95687348                3.01937339               55.05652057                0.01000000               -0.67902375               -0.34690687                0.12540128                2.09628179               -0.05290156                0.08184192
               5.94746300                3.03417472               55.05783316                0.01000001               -0.73676170               -0.39354691                0.12651058                2.11879090               -0.07879866                0.17279953
               6.94213825                3.04091540               55.05948255                0.01000001               -0.89735794               -0.50858780                0.13265820                1.92014382               -0.12118777                0.25640376
               7.92951585                3.04881657               55.05996183                0.01363106               -0.66049926               -0.26163755                0.15769700                1.48127418               -0.12082676                0.18864487
               8.92892826                3.05112405               55.06215303                0.01000000               -0.05085256               -0.52540519                0.14162162                1.14750870               -0.02077781                0.15875092
               9.92849879                3.05348081               55.06472908                0.86322156               -0.04294663               -1.19993137                0.14477119                1.43367932               -0.00171101                0.16884685
              -0.01913444                4.01079261               55.04703968                0.01000000               -0.07340697                0.18689841                0.05859557                0.38625942                0.00998658                0.32117772
               0.98013149                4.00201186               55.04925689                0.01000000               -0.08663911               -0.27750395                0.08547457                0.71848364                0.03216769                0.20965292
               1.97913278                3.99961390               55.05149583                0.01000000               -0.19719592               -0.29213290                0.10894895                1.31664773                0.04429365                0.10683664
               2.97618757                4.00343155               55.05390398                0.01197784               -0.38075704               -0.17317548                0.11656443                1.59950930                0.04648176                0.07919837
               3.97151763                4.00899853               55.05594759                0.01000000               -0.49388784               -0.34734420                0.12443543                1.93038203                0.03385433                0.07118393
               4.96630981                4.01748588               55.05808900                0.01000001               -0.50195561               -0.26672948                0.12983493                2.18019609                0.03890991                0.12831885
               5.96147852                4.02842049               55.06030023                0.01000001               -0.52609629               -0.54635336                0.13218045                2.40975469                0.03389340                0.24212201
               6.95578789                4.03674317               55.06237757                0.01193820               -0.52027114               -0.49587136                0.13731470                2.29616319               -0.02523035                0.28373467
               7.95107310                4.04396969               55.06355361                0.01070597               -0.31146477               -0.67409802                0.14477973                2.26272456               -0.05966948                0.37744537
               8.94955859                4.04102091               55.06529298                0.01000000                0.18838730               -1.04839723                0.15167870                1.46388941                0.00797397                0.39160824
               9.95484085                4.02989756               55.06795370                0.01262003                0.52822538               -1.82031736                0.14920686                1.21588400                0.06071629                0.34818221
              -0.00206171                5.01150320               55.05047647                0.01000000               -0.04427896               -0.46210928                0.08381985                0.93859559                0.00168849                0.31905208
               0.99749550                4.99825538               55.05188520                0.01000000               -0.16273350               -0.32622521                0.09788359                1.51629471                0.01783087                0.20101892
               1.99468362                4.99611926               55.05349404                0.01000001               -0.45271309               -0.27965561                0.11188524                1.89452441                0.04285807                0.09688740
               2.98844124                5.00126419               55.05535162                0.01000000               -0.45434159               -0.44583293                0.12204416                2.13636995                0.06680092                0.06231411
               3.98559679                5.00511122               55.05753930                0.01000001               -0.36928972               -0.34977156                0.12808288                2.19963909                0.11457247                0.09002289
               4.98105545                5.01403880               55.06028632                0.01000001               -0.45979917               -0.35603858                0.13096804                2.42367048                0.15780057                0.17013798
               5.97640081                5.02324765               55.06325839                0.01187756               -0.42715687               -0.49308441                0.13475991                2.35993593                0.11961931                0.22663352
               6.97251231                5.03099797               55.06518510                0.01010337               -0.29541051               -0.61386303                0.14024689                2.22048124                0.07163279                0.30914102
               7.97049260                5.03533461               55.06731386                0.01000000               -0.01170681               -0.91354806                0.14377392                1.79012179                0.11033217                0.46589232
               8.97227817                5.03015611               55.07016446                0.01000000                0.22852855               -1.01872783                0.14701603                1.07541969                0.10138365                0.53167824
               9.97506317                5.01707447               55.07220930                0.01000000                0.27849951               -0.96393693                0.15238981                0.49569847                0.05688767                0.44278212
               0.02613311                6.00155043               55.05433015                0.32551307               -0.02917901               -0.51086175                0.08849913                1.10832779               -0.00212802                0.16156576
               1.02584132                5.99548736               55.05494385                0.01000001               -0.60593295               -0.15465932                0.10536207                1.34515387               -0.01837641                0.10058349
               2.01401445                5.99402079               55.05524329                0.01143469               -0.79591586               -0.35345683                0.11844881                1.79613879                0.01145990                0.03852297
               3.00992300                5.99451489               55.05682607                0.01000001               -0.56393272               -0.48407960                0.12692736                2.14955422                0.12317376                0.03210755
               4.00273580                6.00200310               55.05939078                0.01000001               -0.66381060               -0.33501068                0.12936505                2.38653395                0.21283610                0.08334789
               4.99664679                6.01036511               55.06277164                0.01187930               -0.55088604               -0.34063100                0.13081464                2.33324408                0.22835627                0.12394429
               5.99171808                6.01855880               55.06549160                0.01008208               -0.42681178               -0.42924985                0.13817484                2.12942143                0.21964901                0.20476919
               6.98811056                6.02446591               55.06865511                0.01000000               -0.20003416               -0.59974952                0.14430620                1.75359360                0.28140119                0.40225579
               7.98771739                6.02569872               55.07259067                0.01000000                0.06082850               -0.87381294                0.14489844                1.21788516                0.29423576                0.57727803
               8.98932713                6.02064635               55.07593150                0.01181664                0.16003543               -0.79226010                0.14785668                0.60215296                0.18191708                0.53677306
               9.99091810                6.01061882               55.07764809                0.01000000                0.15909761               -0.42511166                0.15015313                0.24420913                0.09139629                0.42057764
               0.03223098                7.00128596               55.05550195                0.98869905               -0.03027666               -0.02728080                0.09255995                0.00036405               -0.01242563                0.02088423
               1.03192821                6.99516219               55.05590484                0.80027720               -0.03260564               -0.03299002                0.10934599               -0.00025511               -0.01664131               -0.00174758
               2.03157887                6.98905012               55.05622835                0.01000000               -0.42390978               -0.26778804                0.12461482                1.00572202                0.04976014               -0.00991089
               3.02345002                6.99158259               55.05797142                0.01000001               -0.70508070               -0.58885380                0.13811508                1.83251256                0.18251374               -0.06034067
               4.01747725                6.99841101               55.06104122                0.01194150               -0.61426938               -0.33561028                0.13172337                2.20389812                0.26159983                0.00469879
               5.01116463                7.00722618               55.06422352                0.01010147               -0.62944096               -0.23605703                0.13560512                2.10325900                0.31650372                0.06769463
               6.00488843                7.01466265               55.06819991                0.01000000               -0.53601884               -0.23582526                0.14286596                1.66652249                0.43187981                0.26012352
               7.00044425                7.01900298               55.07346955                0.01000000               -0.31092886               -0.44314682                0.14516829                1.07174523                0.50548961                0.48587036
               7.99866986                7.01785835               55.07865248                0.01186546               -0.05215599               -0.61400978                0.14770884                0.57236612                0.35848451                0.53369208
               8.99940113                7.01431091               55.08085946                0.01000002                0.06662759               -0.57978225                0.14713948                0.25349760                0.11592608                0.53710245
              10.00000241                7.00857223               55.08135700                0.01000000                0.06012745               -0.25994704                0.15196956                0.12258325                0.01222407                0.55489741
               0.03838794                8.00100481               55.05654440                1.00000000               -0.03158770               -0.02874977                0.09671344                0.00064238               -0.00312056                0.01827862
               1.03807206                7.99482756               55.05692765                0.99999999               -0.03397247               -0.03403084                0.11339433                0.00009368               -0.00430262                0.00272651
               2.03770849                7.98866503               55.05728937                0.04904373               -0.04298459               -0.03926533                0.12965228                0.01116850               -0.00208358               -0.00930550
               3.03721237                7.98273781               55.05772683                0.01363958               -0.32691588               -0.47611029                0.15481220                1.33201398                0.17107338               -0.09829730
               4.03117017                7.99529089               55.06155477                0.01071019               -0.73760212               -0.19309676                0.14773051                2.00327310                0.37305556               -0.04093199
               5.02246033                8.00564397               55.06582447                0.01000000               -0.89492182                0.01423191                0.14443512                1.59649324                0.49480242                0.10378906
               6.01327173                8.01384229               55.07179246                0.01000000               -0.80552790                0.01766570                0.14638675                1.03618009                0.64864178                0.27503937
               7.00634977                8.01560297               55.07875293                0.01186481               -0.47074733               -0.16344622                0.15210410                0.43454005                0.58778978                0.35016590
               8.00385679                8.01341853               55.08319711                0.01000002               -0.13332866               -0.36850463                0.14839495               -0.03654795                0.41434418                0.51875067
               9.00368319                8.00905071               55.08662342                0.01000002                0.04951658               -0.62158568                0.15294777               -0.24565028                0.31794734                0.89547443
              10.00484712                8.00541988               55.08926878                0.01000001                0.11639241               -0.34734183                0.16399836               -0.26597727                0.26271172                0.83563635
               0.04459833                9.00071097               55.05766289                0.99922716               -0.03284630               -0.03003167                0.10093042                0.00074380                0.00259843                0.01801896
               1.04426987                8.99448157               55.05798618                0.99999999               -0.03531731               -0.03528524                0.11766745                0.00009089                0.00231201                0.00288306
               2.04389198                8.98826481               55.05830299                0.99999999               -0.04027152               -0.04052391                0.13444264               -0.00003930               -0.00316336               -0.00729790
               3.04346444                8.98206039               55.05852458                0.01000000               -0.46277093               -0.05698001                0.15116112                0.93796185                0.18027344               -0.02534791
               4.03463656                8.99454907               55.06252690                0.01000000               -0.94606690                0.17417099                0.16935368                1.23019829                0.45201437                0.02727556
               5.02454310                9.00751082               55.06825125                0.01000000               -0.94917668                0.21070017                0.16251103                0.89018530                0.60680711                0.10042397
               6.01565303                9.01501597               55.07499635                0.01183040               -0.74921396                0.12082289                0.16290180                0.45921831                0.63793789                0.17354131
               7.00955882                9.01573405               55.08098002                0.01000002               -0.55809336                0.03796870                0.15739989                0.06505065                0.72057189                0.10427896
               8.00449116                9.01048826               55.08898182                0.01317126               -0.35360212               -0.15465082                0.14371209               -0.48315262                0.91939618                0.46677383
               9.00248678                9.00187919               55.09854914                1.00000000               -0.12733250               -0.38575701                0.18178305               -0.49057334                0.49538627                0.60807040
              10.00194451                9.00162540               55.09821104                0.99591217               -0.05422628               -0.21653815                0.17957596               -0.15788887                0.00012633                0.45913396
               0.05086160               10.00040418               55.05869623                1.00000000               -0.03415706               -0.03067895                0.10520902               -0.00190508                0.01447526                0.01410333
               1.05052003                9.99412185               55.05901689                0.99758555               -0.03663575               -0.03597178                0.12200850               -0.00246480                0.01876104                0.00139084
               2.05012889                9.98785455               55.05941904                0.99303598               -0.04163416               -0.04102608                0.13887345               -0.00249177                0.01889466               -0.00271558
               3.04968735                9.98159821               55.05974582                0.95637889               -0.99025918               -0.04621745                0.15567479                1.16827909                0.23594539               -0.00509907
               4.03032370                9.99877431               55.06450071                0.01318092               -1.49451053                0.42252409                0.19659198                0.98170150                0.48385107                0.07181036
               5.01979714               10.00985797               55.06993574                0.01000001               -0.80454163                0.23471464                0.19970335                0.39962562                0.57620746                0.05936291
               6.01423287               10.01625875               55.07668787                0.01000000               -0.38093211                0.12427811                0.19380842                0.18320266                0.55155315                0.09314377
               7.01217849               10.01636235               55.08146246                0.01000001               -0.30921375                0.06282917                0.17121087               -0.03469435                0.77377149                0.00723489
               8.00804859               10.01032551               55.09231268                0.01000000               -0.47219531               -0.01627433                0.16270861               -0.39559589                0.86482894                0.34296063
               9.00273459               10.00133557               55.09831125                0.99591124               -0.29258280               -0.05436282                0.18039209               -0.43703855                0.31672562               -0.00010800
              10.00219694               10.00108912               55.09797313                0.99115038               -0.05376495               -0.05362774                0.17818494                0.00059771               -0.00012018                0.00012141
              -0.03953531                0.00752503               56.04213047                0.98810756               -0.02194677               -0.02139595                0.06881092                0.00225675               -0.00910809                0.00897269
               0.96024522                0.00448083               56.04521431                0.99985030               -0.02324720               -0.02417941                0.07777442                0.00142297               -0.00966896               -0.00137179
               1.95999975                0.00145489               56.04828566                0.02133494                0.01597894               -0.02695074                0.08675322                0.08301771               -0.04866578               -0.00396509
               2.96056480                0.00008039               56.05058385                0.01376429               -0.00591021                0.01698721                0.08600378                0.29712354               -0.00683885                0.04061038
               3.95988154                0.00626249               56.05372669                0.01000000               -0.50685466                0.28883757                0.11204440                0.31758669               -0.05763997                0.03467399
               4.95042771                0.02125926               56.05456316                0.01000002               -1.27533970                0.32910424                0.13676910                0.98593779               -0.01702489               -0.09423236
               5.93437475                0.04517923               56.05561783                0.36945186               -0.81665834               -0.02960854                0.09216211                1.08343567               -0.06847340               -0.00058500
               6.93409454                0.04748590               56.05821446                0.99962740               -0.02857119               -0.03063866                0.09564275                0.00058811                0.00665712               -0.00411422
               7.93380333                0.04983360               56.06077155                1.00000000               -0.02969500               -0.03169155                0.09932361                0.00053732                0.00594509               -0.00070015
               8.93350064                0.05222147               56.06335355                0.99879090               -0.03079108               -0.03280774                0.10301099                0.00053522                0.00581397                0.00118129
               9.93318750                0.05465002               56.06590647                1.00000000               -0.03131388               -0.03405590                0.10668963               -0.00154015                0.00449043                0.00478870
              -0.03646854                1.00731107               56.04253093                0.98926090               -0.02369323               -0.02219659                0.07444020                0.00093132                0.00148843                0.00955816
               0.96329453                1.00423904               56.04561627                0.01000000               -0.02506557               -0.02509490                0.08339481                0.00010984                0.00460501               -0.00458080
               1.96303015                1.00118538               56.04876531                0.01000000               -0.10811464               -0.00246996                0.09234316               -0.03678704               -0.05698006                0.00083899
               2.96113223                1.00025026               56.05061606                0.01000001               -0.52810867                0.17176596                0.10453704                0.27574743               -0.19025416                0.15489553
               3.95246797                1.00915087               56.05408670                0.01000000               -1.01517572                0.27493482                0.11322664                0.78252738                0.01238981               -0.04092008
               4.94082872                1.02455030               56.05553186                0.01000000               -1.01860942                0.11356849                0.11718263                1.46803007               -0.03580690               -0.07763354
               5.93209579                1.04488314               56.05578898                0.01000001               -0.45277397               -0.45511736                0.10528133                1.32790393               -0.11514401                0.08067494
               6.93177324                1.04717951               56.05831642                0.90786661               -0.03274357               -0.03252904                0.10876962                0.00019586               -0.00044880               -0.00482425
               7.93144091                1.04951668               56.06087195                0.99999999               -0.03377292               -0.03371231                0.11234692                0.00009065                0.00129757               -0.00080537
               8.93109778                1.05189339               56.06343575                0.99999999               -0.03486842               -0.03479315                0.11607911               -0.00018699                0.00101389                0.00139731
               9.93074355                1.05430946               56.06598661                0.99664134               -0.03542356               -0.03599609                0.11978144               -0.00223516                0.00038578                0.00631855
              -0.03337261                2.00708110               56.04294556                0.01195226               -0.02542723                0.09982891                0.08004147                0.02958741                0.00381025                0.11407389
               0.96637311                2.00397894               56.04595194                0.01000000               -0.16873003               -0.05323912                0.08906998                0.00595062                0.02240620                0.07491526
               1.96325279                2.00140549               56.04933419                0.01000001               -0.41294273                0.01106002                0.09860106                0.19088833               -0.00437116                0.07845408
               2.95811426                2.00351571               56.05203516                0.01000000               -0.60103689                0.18972296                0.09828512                0.64243513                0.00779288                0.11172351
               3.95123205                2.01176119               56.05459118                0.01000000               -0.70291120                0.10578156                0.10497903                1.32431742               -0.02268683               -0.01672807
               4.94405604                2.02353063               56.05637949                0.01000001               -0.64642161               -0.29532148                0.11507274                1.91016791               -0.10105224                0.02045140
               5.93830362                2.03607688               56.05758848                0.01143288               -0.72955568               -0.55093461                0.12239925                1.81808333               -0.14141676                0.13304276
               6.92946492                2.04683532               56.05840674                0.01000000               -0.46061778               -0.31682362                0.12155175                1.05815538               -0.08921024                0.10967311
               7.92909126                2.04915935               56.06097027                0.06347570               -0.03804013               -0.04305367                0.12615892                0.01408940               -0.00284991                0.02932082
               8.92870412                2.05152560               56.06352042                0.99999999               -0.03903049               -0.03889328                0.12968644               -0.00022478               -0.00216969                0.00019973
               9.92831065                2.05393010               56.06609618                0.99999999               -0.03934688               -0.03977101                0.13245999               -0.00240130               -0.00085232                0.00615733
              -0.02967246                3.00930765               56.04544128                0.01292128               -0.12383867                0.18321417                0.12343622               -0.01506531               -0.00954754                0.26182136
               0.96908915                3.00317426               56.04794402                0.01000001               -0.15081981               -0.12414269                0.12756234                0.19956377               -0.01013699                0.14795028
               1.96731114                3.00140658               56.05073964                0.01000000               -0.27319598               -0.13145377                0.10200626                0.74132954                0.02449625                0.11032123
               2.96362523                3.00404472               56.05337910                0.01000000               -0.41858715               -0.04410491                0.10981579                1.30645349                0.02649874                0.08380121
               3.95893940                3.01126650               56.05580205                0.01197812               -0.44544235               -0.17860451                0.11618705                1.65483398                0.00479783                0.04878305
               4.95471639                3.01864387               56.05776456                0.01000000               -0.68933185               -0.33611130                0.12356246                2.15174069               -0.05449282                0.07240830
               5.94515276                3.03386445               56.05908845                0.01000001               -0.74312531               -0.40133170                0.12811131                2.17677153               -0.08297380                0.16337293
               6.93985388                3.04084304               56.06080452                0.01000001               -0.90601734               -0.50824047                0.12450478                1.95994556               -0.11615356                0.25031614
               7.92703242                3.04865561               56.06167474                0.01371553               -0.67656721               -0.25906059                0.21096265                1.50738163               -0.15494034                0.21148742
               8.92632254                3.05111552               56.06357618                0.01000000               -0.05729455               -0.53336625                0.14373661                1.17804065               -0.03634673                0.15873344
               9.92588653                3.05351404               56.06617773                0.85440331               -0.04360102               -1.21808587                0.14489193                1.46324742               -0.00148911                0.16367394
              -0.02140713                4.01074538               56.04758403                0.01000000               -0.03274094                0.08636925                0.07407498                0.38360955                0.02819116                0.27729665
               0.97826546                4.00149608               56.05003044                0.01000000               -0.06919779               -0.28839123                0.09004205                0.75214626                0.04799391                0.18358874
               1.97720892                3.99877641               56.05260899                0.01000000               -0.19410269               -0.31096032                0.11104469                1.35764170                0.05386413                0.11193704
               2.97438341                4.00263361               56.05505788                0.01197889               -0.37396703               -0.18391765                0.11602139                1.64098271                0.04413860                0.07557181
               3.96972958                4.00818910               56.05718552                0.01000000               -0.49452545               -0.35270088                0.12398872                1.97326071                0.03343865                0.06411110
               4.96449290                4.01680840               56.05938114                0.01000001               -0.50448480               -0.26706225                0.13001011                2.24427912                0.03670384                0.11655759
               5.95963988                4.02805025               56.06162064                0.01000001               -0.53101105               -0.55207009                0.13339516                2.49163762                0.03112017                0.23078628
               6.95387268                4.03667051               56.06375993                0.01195481               -0.53367348               -0.49856657                0.14108567                2.36257487               -0.02775092                0.27779349
               7.94896641                4.04397814               56.06499532                0.01076494               -0.32330904               -0.66193015                0.13407883                2.31208891               -0.05165793                0.36489885
               8.94740650                4.04085828               56.06683124                0.01000000                0.19060753               -1.05247777                0.15117697                1.50482902                0.00978284                0.38287848
               9.95277856                4.02956838               56.06944611                0.01326153                0.53720627               -1.84779298                0.15179586                1.25553939                0.05574781                0.34000771
              -0.00350166                5.01103504               56.05133938                0.01000000               -0.03972864               -0.50565188                0.08782146                0.97818102                0.00452840                0.33183744
               0.99610105                4.99740643               56.05288831                0.01000000               -0.15859431               -0.35170618                0.10160460                1.55016219                0.01979426                0.21114884
               1.99332645                4.99518737               56.05460840                0.01000001               -0.45344260               -0.28850229                0.11293586                1.94310705                0.04114313                0.09415694
               2.98703220                5.00036637               56.05657104                0.01000000               -0.45483154               -0.45823367                0.12270765                2.18259081                0.06386585                0.05592812
               3.98422982                5.00421248               56.05881341                0.01000001               -0.36456890               -0.36047711                0.12812890                2.25226425                0.10938278                0.07546509
               4.97974082                5.01330263               56.06158819                0.01000001               -0.45532052               -0.36517881                0.13140733                2.49859137                0.15476629                0.14940704
               5.97512341                5.02282305               56.06460609                0.01189060               -0.42816667               -0.50163954                0.13700989                2.44425332                0.12013070                0.20909750
               6.97117749                5.03087171               56.06659149                0.01012241               -0.30184927               -0.62144606                0.14335880                2.30397038                0.07159956                0.29746199
               7.96908642                5.03541700               56.06875537                0.01000000               -0.01743081               -0.91415367                0.15005007                1.86158240                0.10947317                0.45774848
               8.97082887                5.03006597               56.07165783                0.01000000                0.22453396               -1.01652568                0.15442248                1.11671678                0.10492252                0.52011027
               9.97357710                5.01655818               56.07377014                0.01000002                0.27482324               -0.97316820                0.16224311                0.51471201                0.06154814                0.43217223
               0.02541370                6.00063235               56.05521994                0.31499023               -0.02973327               -0.53343411                0.08944075                1.13903290               -0.00220459                0.16080675
               1.02511637                5.99446196               56.05600952                0.01000001               -0.61512894               -0.16375411                0.10774632                1.37937426               -0.02103544                0.10147066
               2.01311112                5.99300637               56.05643206                0.01143540               -0.80531276               -0.36405134                0.11924830                1.83197908                0.00524380                0.03887227
               3.00901011                5.99346893               56.05808567                0.01000001               -0.56362622               -0.49395154                0.12531437                2.18630159                0.11121052                0.02573710
               4.00183860                6.00097956               56.06066284                0.01000001               -0.65779769               -0.34844132                0.12670194                2.43578175                0.20306997                0.05760048
               4.99585416                6.00950483               56.06405644                0.01188848               -0.54413674               -0.35440854                0.12852697                2.40118684                0.22915490                0.09352715
               5.99095586                6.01801746               56.06686569                0.01010464               -0.42480143               -0.44283246                0.13918717                2.20985072                0.22630368                0.18154820
               6.98735813                6.02424159               56.07011954                0.01000000               -0.19760333               -0.60923888                0.15099420                1.83857839                0.28561043                0.38440376
               7.98700380                6.02569506               56.07409673                0.01000000                0.06207613               -0.88243721                0.15783797                1.28693765                0.29778949                0.56546646
               8.98859965                6.02052776               56.07751724                0.01191954                0.15422860               -0.79212026                0.16944267                0.63838334                0.18483009                0.52195150
               9.99008837                6.01010502               56.07926523                0.01000000                0.14887153               -0.41847973                0.17368928                0.26004277                0.09133676                0.40353053
               0.03161977                7.00036635               56.05642810                0.98902614               -0.03052569               -0.02733041                0.09269987                0.00029860               -0.01245810                0.02067299
               1.03131452                6.99413135               56.05700592                0.77380444               -0.03303589               -0.03347117                0.11090645               -0.00018559               -0.01753070               -0.00211648
               2.03095906                6.98790635               56.05748769                0.01000000               -0.42647390               -0.27468009                0.12725469                1.02245013                0.04693155               -0.00797188
               3.02278504                6.99048733               56.05936674                0.01000001               -0.70247461               -0.60102519                0.13636462                1.85180919                0.16808912               -0.05441438
               4.01690956                6.99724366               56.06230849                0.01195829               -0.60291901               -0.34820507                0.12094053                2.23255630                0.24813058               -0.02588838
               5.01072666                7.00621446               56.06553097                0.01012597               -0.61629500               -0.25133675                0.12625860                2.15707510                0.32161339                0.03015542
               6.00458366                7.01396640               56.06961531                0.01000000               -0.52276053               -0.24998545                0.14272809                1.74220337                0.44276903                0.22787380
               7.00027145                7.01868693               56.07494748                0.01000000               -0.30223321               -0.45145889                0.15293076                1.14970633                0.51683017                0.46340395
               7.99853900                7.01776826               56.08023941                0.01196301               -0.05424320               -0.61742807                0.16941547                0.63032864                0.36550610                0.51585980
               8.99918658                7.01422356               56.08247096                0.01000002                0.05422254               -0.57336486                0.17354989                0.28235243                0.11818969                0.52147453
               9.99962345                7.00818859               56.08300452                0.01000000                0.04368663               -0.24126295                0.17762770                0.13239919                0.01504676                0.54321185
               0.03788968                8.00008574               56.05750967                1.00000000               -0.03170185               -0.02862740                0.09634089                0.00055977               -0.00322791                0.01821065
               1.03757267                7.99379253               56.05806676                0.99999999               -0.03427715               -0.03436537                0.11445949                0.00009222               -0.00460493                0.00257945
               2.03720414                7.98751276               56.05859790                0.05032227               -0.04318392               -0.04008034                0.13214801                0.01021321                0.00486867               -0.00864489
               3.03670899                7.98144843               56.05935517                0.01371868               -0.32207688               -0.48566837                0.18641241                1.33944360                0.15440869               -0.09185895
               4.03076260                7.99401546               56.06300317                0.01076962               -0.72180344               -0.20029800                0.12641371                2.01788760                0.34514613               -0.06261445
               5.02227292                8.00447809               56.06720088                0.01000000               -0.87175736                0.00227453                0.12701674                1.63243427                0.50101157                0.06110949
               6.01332746                8.01301775               56.07321465                0.01000000               -0.78612599                0.00730893                0.14028706                1.09352984                0.67025096                0.23853267
               7.00655040                8.01521241               56.08029291                0.01195913               -0.46268594               -0.17028204                0.15788277                0.49387205                0.60573155                0.32610204
               8.00407374                8.01334650               56.08475725                0.01000002               -0.13620122               -0.36211743                0.16349440                0.01239413                0.42536423                0.49295364
               9.00382637                8.00906047               56.08825689                0.01000002                0.03662816               -0.60503338                0.17329192               -0.22081219                0.33060138                0.89147981
              10.00480630                8.00527976               56.09102557                0.01000001                0.09799267               -0.31585378                0.18709918               -0.24449736                0.27178424                0.83292403
               0.04421738                8.99979381               56.05866790                0.99888018               -0.03280428               -0.02976307                0.10006161                0.00065022                0.00258767                0.01798438
               1.04388934                8.99344404               56.05916568                0.99999999               -0.03549772               -0.03546095                0.11822787                0.00005983                0.00234788                0.00286722
               2.04350742                8.98710474               56.05965729                0.99999999               -0.04090587               -0.04119162                0.13650449               -0.00019639               -0.00311979               -0.00710187
               3.04307122                8.98077397               56.06005315                0.01000000               -0.46348844               -0.05729003                0.15475249                0.94235076                0.18096248               -0.03248229
               4.03423765                8.99323770               56.06424516                0.01000000               -0.93490829                0.16776620                0.16670484                1.23948053                0.44829252                0.01776279
               5.02437305                9.00625995               56.06982265                0.01000000               -0.92588563                0.20500390                0.13674422                0.90366413                0.61767384                0.06812398
               6.01571994                9.01411258               56.07657741                0.01193018               -0.72764592                0.11486019                0.15222391                0.48510337                0.66094172                0.15032221
               7.00982013                9.01528129               56.08254213                0.01000002               -0.53905596                0.03012425                0.15708055                0.09933032                0.72812026                0.08294875
               8.00493882                9.01052591               56.09041181                0.01290071               -0.34915252               -0.14893869                0.14316340               -0.44816696                0.94160325                0.45492200
               9.00283708                9.00212290               56.10036675                1.00000000               -0.13219528               -0.37405935                0.18174355               -0.46990875                0.51587001                0.61794721
              10.00229492                9.00187151               56.10000668                0.99622536               -0.05421657               -0.19722766                0.17955241               -0.13821069                0.00013028                0.46175689
               0.05060222                9.99949048               56.05974156                1.00000000               -0.03392884               -0.03033292                0.10383503               -0.00223225                0.01453726                0.01409662
               1.05026293                9.99308332               56.06023720                0.99729128               -0.03659645               -0.03607268                0.12202077               -0.00271786                0.01886641                0.00139865
               2.04987029                9.98668893               56.06081490                0.99788204               -0.04199422               -0.04158076                0.14021927               -0.00274776                0.01902359               -0.00273273
               3.04942304                9.98030263               56.06131658                0.99999999               -0.99020268               -0.04713370                0.15838015                1.16927517                0.25204239               -0.00523560
               4.03006624                9.99737078               56.06656476                0.01395397               -1.49758632                0.41330840                0.22656243                0.99663499                0.51028643                0.06335147
               5.01947132               10.00857817               56.07197485                0.01000001               -0.80290273                0.23182230                0.19574144                0.40703523                0.58707976                0.04407352
               6.01400818               10.01531495               56.07863089                0.01000000               -0.36738229                0.12023730                0.19055770                0.19066006                0.54837320                0.08352948
               7.01212367               10.01581489               56.08316005                0.01000001               -0.28696937                0.05336044                0.16895711               -0.01700722                0.76348784               -0.00742759
               8.00826879               10.01036773               56.09391644                0.01000000               -0.45205376               -0.01581820                0.15794180               -0.37878368                0.86994042                0.34959344
               9.00308260               10.00157928               56.10011530                0.99622385               -0.28619712               -0.05436145                0.18041833               -0.42707470                0.32783265               -0.00011473
              10.00254485               10.00133521               56.09975522                0.99125367               -0.05377469               -0.05363064                0.17822768                0.00058594               -0.00012756                0.00012600
              -0.04275488                0.00718601               57.04281953                0.98820176               -0.02188718               -0.02151485                0.06897682                0.00221432               -0.00913119                0.00894877
               0.95702625                0.00403714               57.04598910                0.99831506               -0.02308717               -0.02408938                0.07726882                0.00131842               -0.00969395               -0.00134532
               1.95678337                0.00090787               57.04914635                0.01085472                0.03317085               -0.02664875                0.08556189                0.13696497               -0.05832006               -0.00393113
               2.95768966                0.00051250               57.05133869                0.01000003               -0.04427247                0.07839368                0.10687135                0.11913325               -0.09820116                0.09649720
               3.95589792                0.00648814               57.05460792                0.01000000               -0.46835797                0.23303579                0.07602039                0.28405651               -0.20454855                0.08487219
               4.94832250                0.01998683               57.05585031                0.01000000               -1.20260384                0.31713801                0.11121321                0.97871475               -0.17441311               -0.01312410
               5.93184585                0.04493623               57.05654126                0.36592266               -0.83783236               -0.02974676                0.09247449                1.13326156               -0.08861711               -0.00062234
               6.93156586                0.04727669               57.05917108                0.99965310               -0.02855137               -0.03079988                0.09573415                0.00048495                0.00654112               -0.00405080
               7.93127482                0.04966029               57.06176451                1.00000000               -0.02963632               -0.03179835                0.09920394                0.00056793                0.00597137               -0.00094869
               8.93097313                0.05208529               57.06438227                0.99843231               -0.03067590               -0.03276842                0.10269409                0.00054287                0.00583989                0.00105052
               9.93066130                0.05455201               57.06697070                1.00000000               -0.03118270               -0.03403877                0.10617988               -0.00159153                0.00454253                0.00487101
              -0.03958388                1.00697086               57.04327833                0.99087652               -0.02376279               -0.02237690                0.07501156                0.00098953                0.00142336                0.00952502
               0.96017850                1.00379625               57.04644939                0.01000000               -0.02503897               -0.02505802                0.08328768                0.00010945                0.00452747               -0.00454668
               1.95991535                1.00064139               57.04968392                0.01000000               -0.20438183                0.01688472                0.09156420                0.03746287               -0.04553882                0.00238282
               2.95609086                1.00129644               57.05185152                0.01000001               -0.54570106                0.14575214                0.13021566                0.29345978               -0.25332650                0.17379564
               3.94900132                1.00881850               57.05517663                0.01000000               -0.86026261                0.22058636                0.07914355                0.73516306               -0.13609276                0.01860577
               4.93888561                1.02315821               57.05654451                0.01000000               -0.97338946                0.13067598                0.09839602                1.44900985               -0.16714601               -0.02237727
               5.92953353                1.04463876               57.05684517                0.01000001               -0.48384673               -0.46417108                0.10597401                1.38768765               -0.11482982                0.08282678
               6.92920867                1.04696869               57.05940716                0.89993283               -0.03286682               -0.03281994                0.10929551               -0.00007193               -0.00074019               -0.00507952
               7.92887620                1.04934231               57.06199537                0.99999999               -0.03379859               -0.03371186                0.11267333               -0.00001551                0.00117499               -0.00049345
               8.92853270                1.05175761               57.06459579                0.99999999               -0.03487626               -0.03463560                0.11614355               -0.00002318                0.00116936                0.00161251
               9.92817867                1.05421162               57.06718382                0.99631975               -0.03540283               -0.03618986                0.11971118               -0.00205311                0.00057977                0.00611544
              -0.03638587                2.00673847               57.04375096                0.01000001               -0.02562193                0.06961640                0.08101611                0.03170431                0.00383055                0.09784720
               0.96335791                2.00353598               57.04684410                0.01000000               -0.17908416               -0.05551444                0.08936405                0.03873135                0.02389608                0.08010466
               1.96003244                2.00124557               57.05034242                0.01000001               -0.39880822                0.01260769                0.10591810                0.24007081               -0.01695314                0.08686118
               2.95538174                2.00342754               57.05301590                0.01000000               -0.56465164                0.10422808                0.10919214                0.74333474               -0.01282880                0.11546844
               3.94873941                2.01089987               57.05555776                0.01000000               -0.69496515                0.08104603                0.10438930                1.34627321               -0.03739430                0.00977634
               4.94148244                2.02260035               57.05747436                0.01000001               -0.64751443               -0.26691516                0.10781784                1.91822729               -0.09760591                0.03409595
               5.93578912                2.03565281               57.05882048                0.01143638               -0.73107855               -0.56143712                0.12316337                1.86249851               -0.14877657                0.12775527
               6.92686087                2.04662029               57.05962547                0.01000000               -0.46517647               -0.32000811                0.12275953                1.06767302               -0.09117771                0.10026324
               7.92648559                2.04898606               57.06223934                0.33865545               -0.03787563               -0.01605257                0.12609178               -0.02292642               -0.00241189                0.08446379
               8.92610336                2.05139258               57.06482160                0.99999999               -0.03866869               -0.03848516                0.12947955                0.00038946               -0.00249594                0.00123013
               9.92571222                2.05382821               57.06742190                0.99999999               -0.03911374               -0.04036263                0.13322957               -0.00207574               -0.00148559                0.00526408
              -0.03254482                3.00836319               57.04598095                0.01000000               -0.10091588                0.18509865                0.09470367                0.07839885                0.02213316                0.19028007
               0.96644603                3.00268596               57.04899785                0.01000001               -0.13149916               -0.13983153                0.10725402                0.26194245                0.00434554                0.17955779
               1.96482520                3.00089354               57.05182846                0.01000000               -0.25713865               -0.16308399                0.10922510                0.79226071                0.01876109                0.10918505
               2.96130325                3.00338100               57.05446796                0.01000000               -0.40356107               -0.08382509                0.11276190                1.33289757                0.01872557                0.09147436
               3.95675398                3.01043942               57.05695781                0.01197696               -0.44030177               -0.18152431                0.11697735                1.67813214                0.00304821                0.05990714
               4.95249722                3.01781991               57.05899182                0.01000000               -0.69952068               -0.33034782                0.12465299                2.20484633               -0.05373452                0.07543035
               5.94276357                3.03341002               57.06039539                0.01000001               -0.76341659               -0.40671189                0.13222297                2.23408178               -0.09062517                0.15446589
               6.93722889                3.04056853               57.06197265                0.01000001               -0.95590929               -0.50541122                0.13223006                2.03042771               -0.07471137                0.24918356
               7.92364538                3.04902126               57.06418109                0.01379599               -0.67652740               -0.23995112                0.10874721                1.54512061               -0.12405570                0.17847122
               8.92369834                3.05098790               57.06502776                0.01000000               -0.01897398               -0.53978767                0.14278411                1.17916095               -0.09073085                0.15526549
               9.92326590                3.05340437               57.06762691                0.87682703               -0.04324364               -1.23614521                0.14667532                1.49233896               -0.00376932                0.16076422
              -0.02346344                4.01044044               57.04852118                0.01000000               -0.04701527                0.10704209                0.11619124                0.40368259                0.05198502                0.30549806
               0.97606640                4.00073935               57.05105773                0.01000000               -0.06769684               -0.30933454                0.11449354                0.78598971                0.04856830                0.17678036
               1.97518262                3.99798389               57.05371672                0.01000000               -0.17862958               -0.33571059                0.11189131                1.40051194                0.05407645                0.11332950
               2.97249381                4.00175104               57.05622441                0.01197952               -0.36597381               -0.20130207                0.11915667                1.67478932                0.04162169                0.07450674
               3.96786314                4.00726938               57.05842736                0.01000000               -0.49425213               -0.36481103                0.12659175                2.01278365                0.03187153                0.06082213
               4.96260877                4.01599340               57.06068920                0.01000001               -0.50705027               -0.27341326                0.13333249                2.30550303                0.03526848                0.10857243
               5.95772214                4.02751857               57.06296813                0.01000001               -0.53752929               -0.56127340                0.13886289                2.57776129                0.03115771                0.21969077
               6.95185818                4.03651207               57.06519928                0.01197274               -0.53767547               -0.49904673                0.14081267                2.46173010               -0.03539715                0.27414013
               7.94696863                4.04418703               57.06623519                0.01082049               -0.32773584               -0.68165432                0.14238168                2.40275521               -0.05550511                0.31932011
               8.94530347                4.04059683               57.06831652                0.01000000                0.18787235               -1.05577915                0.14561099                1.52908939                0.02417790                0.38242273
               9.95072608                4.02910530               57.07098961                0.01389906                0.54226085               -1.87527910                0.15895868                1.29102776                0.05860609                0.33649129
              -0.00506898                5.01050403               57.05223290                0.01000000               -0.03086423               -0.53812974                0.09041876                0.99818942                0.00293014                0.32950434
               0.99462237                4.99649927               57.05391729                0.01000000               -0.15536329               -0.36700980                0.10472067                1.59086962                0.02178435                0.21441558
               1.99182375                4.99417933               57.05575276                0.01000001               -0.45544158               -0.30324722                0.11743320                1.98581240                0.03874943                0.09266114
               2.98551354                4.99935496               57.05780577                0.01000000               -0.45282259               -0.47585522                0.12549699                2.21932459                0.05953585                0.04865141
               3.98276730                5.00314320               57.06010188                0.01000001               -0.35777249               -0.38046733                0.13210667                2.29799825                0.10381507                0.06038039
               4.97835809                5.01235164               57.06291447                0.01000001               -0.44835888               -0.38502615                0.13672733                2.57298105                0.15274709                0.12759651
               5.97380012                5.02218455               57.06599859                0.01189818               -0.42815347               -0.51690104                0.14364883                2.53474313                0.12251763                0.19054679
               6.96979502                5.03058759               57.06805228                0.01014691               -0.30921987               -0.63570387                0.15219655                2.39685815                0.07407653                0.28552641
               7.96761572                5.03538817               57.07031486                0.01000000               -0.02165850               -0.93315111                0.16039875                1.92957960                0.11079768                0.46295865
               8.96936185                5.02987232               57.07325291                0.01000000                0.22268882               -1.01622873                0.16587071                1.15311856                0.10630049                0.52205339
               9.97206950                5.01589878               57.07545416                0.01000002                0.27076467               -0.98251232                0.17423092                0.52878472                0.06598309                0.43322934
               0.02450986                5.99967785               57.05611897                0.30573956               -0.03013653               -0.55471691                0.09013215                1.16688838               -0.00234165                0.15914479
               1.02420850                5.99339916               57.05709878                0.01000001               -0.62333413               -0.17183240                0.10972828                1.40683631               -0.02509419                0.10240385
               2.01204318                5.99191894               57.05762826                0.01143656               -0.81460334               -0.37272458                0.12174098                1.85838577               -0.00545518                0.03818143
               3.00791643                5.99223394               57.05933236                0.01000001               -0.56083790               -0.50650736                0.12980677                2.21092796                0.09656288                0.01275738
               4.00082642                5.99966004               57.06192482                0.01000001               -0.64446948               -0.37951463                0.12981331                2.47836359                0.19289336                0.02003774
               4.99502704                6.00829287               57.06534218                0.01190027               -0.53226860               -0.38333909                0.13423701                2.47262474                0.23239591                0.05274170
               5.99018105                6.01718055               57.06827534                0.01012797               -0.42176575               -0.46566917                0.14665266                2.30161460                0.23785903                0.15418447
               6.98659173                6.02379799               57.07167499                0.01000000               -0.19527789               -0.62449523                0.16177021                1.93525947                0.29543096                0.36876797
               7.98627549                6.02552401               57.07574743                0.01000000                0.06317498               -0.89365730                0.17286906                1.36575236                0.30717683                0.56122936
               8.98785523                6.02027225               57.07932036                0.01202920                0.14866766               -0.79357908                0.18910013                0.67845098                0.19186455                0.52307164
               9.98924885                6.00945506               57.08112187                0.01000000                0.13936202               -0.41113259                0.19684450                0.27661671                0.09419746                0.40290191
               0.03082617                6.99940969               57.05735595                0.98904640               -0.03081623               -0.02743135                0.09293098                0.00026036               -0.01248182                0.02036581
               1.03051800                6.99306262               57.05812297                0.74494914               -0.03347409               -0.03398828                0.11259475               -0.00008115               -0.01862692               -0.00257699
               2.03015669                6.98672484               57.05877344                0.01000000               -0.42634985               -0.27982043                0.12987321                1.03182306                0.03860289               -0.00478827
               3.02199101                6.98922481               57.06069871                0.01000001               -0.69405248               -0.60098592                0.12826668                1.84034572                0.14065831               -0.04628890
               4.01627564                6.99555291               57.06346003                0.01197765               -0.58504654               -0.37790530                0.12030548                2.24305057                0.23489971               -0.09635917
               5.01029008                7.00468486               57.06674869                0.01014633               -0.59741693               -0.28591994                0.12483800                2.22801466                0.33647726               -0.03559260
               6.00432730                7.01287117               57.07105447                0.01000000               -0.50666633               -0.27648533                0.15037912                1.84082462                0.46619705                0.18495335
               7.00015675                7.01809769               57.07652817                0.01000000               -0.29353948               -0.46338124                0.16541526                1.24869680                0.54126443                0.44019361
               7.99845651                7.01751503               57.08204079                0.01206350               -0.05784623               -0.62094020                0.19125479                0.70138240                0.38482603                0.50528555
               8.99899983                7.01400074               57.08433046                0.01000002                0.03898573               -0.56438705                0.20118035                0.31663909                0.12639354                0.51361282
               9.99923622                7.00767613               57.08490956                0.01000000                0.02363963               -0.21894289                0.20712784                0.14236956                0.01699825                0.54009325
               0.03720921                7.99912922               57.05847122                1.00000000               -0.03174782               -0.02854612                0.09608648                0.00043460               -0.00329038                0.01814747
               1.03689173                7.99271939               57.05921684                0.99999999               -0.03458771               -0.03470721                0.11547705                0.00013704               -0.00492062                0.00248858
               2.03651745                7.98632254               57.05993233                0.05592257               -0.04982282               -0.04095286                0.13494193                0.01401285                0.03348269               -0.00785306
               3.03589527                7.98021422               57.06145508                0.01380110               -0.31450355               -0.48877398                0.24330270                1.31421031                0.15325165               -0.12855064
               4.03022738                7.99210193               57.06408305                0.01083179               -0.68130985               -0.21050835                0.07603096                1.99587690                0.30512471               -0.13854625
               5.02226908                8.00257447               57.06836481                0.01000000               -0.83213335               -0.02927669                0.12336377                1.69115774                0.54111516               -0.04346072
               6.01358472                8.01165084               57.07459821                0.01000000               -0.76736360               -0.01324970                0.14223930                1.18904866                0.72130666                0.18055483
               7.00692180                8.01453036               57.08191058                0.01205676               -0.45923128               -0.17858997                0.16896372                0.57922199                0.64059777                0.29872459
               8.00440009                8.01310521               57.08646700                0.01000002               -0.14474516               -0.35437624                0.18281329                0.07481266                0.44876489                0.46083926
               9.00402690                8.00898451               57.09008925                0.01000002                0.01726816               -0.58105033                0.19907566               -0.19097629                0.34979740                0.88130226
              10.00474545                8.00507620               57.09301076                0.01000001                0.07185522               -0.27726241                0.21971852               -0.21927937                0.28485843                0.82382142
               0.04365452                8.99883877               57.05966412                0.99851609               -0.03270878               -0.02952153                0.09925155                0.00056389                0.00255792                0.01796416
               1.04332743                8.99236848               57.06035074                0.99999999               -0.03562025               -0.03562984                0.11871286               -0.00003531                0.00243004                0.00287395
               2.04294211                8.98590578               57.06103308                0.99999999               -0.04158070               -0.04189295                0.13861486               -0.00033127               -0.00280310               -0.00685917
               3.04249582                8.97944933               57.06161963                0.01000000               -0.45545977               -0.06237833                0.15894383                0.92600127                0.17446376               -0.06083100
               4.03383292                8.99134274               57.06586099                0.01000000               -0.89657477                0.16501043                0.11556679                1.21468861                0.50266925               -0.05179378
               5.02456432                9.00409933               57.07098613                0.01000000               -0.88402693                0.19302815                0.10071562                0.92334761                0.70509379               -0.04475640
               6.01615238                9.01260617               57.07804083                0.01203305               -0.71387485                0.10857662                0.15025116                0.54284888                0.72889749                0.11329250
               7.01028683                9.01452589               57.08412164                0.01000002               -0.53268833                0.02237965                0.16363057                0.15311119                0.74755477                0.05858609
               8.00549861                9.01042750               57.09184509                0.01256569               -0.35387593               -0.13985466                0.14593108               -0.40270459                0.96500322                0.43460158
               9.00320931                9.00237973               57.10218401                1.00000000               -0.14156788               -0.35741712                0.18171675               -0.44355267                0.53617184                0.61784323
              10.00266726                9.00213088               57.10180209                0.99655438               -0.05420505               -0.17408209                0.17953223               -0.11643030                0.00013057                0.45291994
               0.05016107                9.99853879               57.06077293                1.00000000               -0.03370538               -0.02999785                0.10246582               -0.00254485                0.01446985                0.01406232
               1.04982401                9.99200679               57.06145731                0.99698676               -0.03655456               -0.03616841                0.12200222               -0.00304752                0.01880380                0.00141753
               2.04942998                9.98548468               57.06222343                0.99999989               -0.04228386               -0.04211030                0.14139188               -0.00322093                0.01890721               -0.00279172
               3.04897834                9.97896665               57.06291342                0.99999999               -0.97794090               -0.04826786                0.16057084                1.14412507                0.28596055               -0.00510343
               4.02987116                9.99540214               57.06903196                0.01000002               -1.47528695                0.40593986                0.25573162                0.97724311                0.68336884               -0.04464949
               5.01947260               10.00643504               57.07385057                0.01000001               -0.79280132                0.23357086                0.15495324                0.41183919                0.66112748               -0.01748112
               6.01401513               10.01382237               57.08049902                0.01000000               -0.36549482                0.12162010                0.18782512                0.21342112                0.56403534                0.07309649
               7.01216270               10.01497796               57.08484160                0.01000001               -0.27614883                0.04520668                0.16988163                0.01187452                0.75758546               -0.02386113
               8.00849215               10.01030811               57.09547152                0.01000000               -0.43551181               -0.01193870                0.15306454               -0.35773529                0.87684851                0.35246267
               9.00345246               10.00183617               57.10191961                0.99655480               -0.27888040               -0.05435649                0.18044380               -0.41136196                0.34137094               -0.00012526
              10.00291455               10.00159456               57.10153768                0.99137003               -0.05379178               -0.05363254                0.17825404                0.00056804               -0.00012069                0.00013378
              -0.04605707                0.00678641               58.04351001                0.98829783               -0.02184005               -0.02162669                0.06912288                0.00218310               -0.00910777                0.00894475
               0.95372453                0.00353336               58.04675968                0.99679545               -0.02295878               -0.02402518                0.07685018                0.00123218               -0.00968497               -0.00135295
               1.95348375                0.00030113               58.04999690                0.01000000               -0.02926598               -0.02641639                0.08455745                0.19591455               -0.03573599               -0.00391281
               2.95313921                0.00098468               58.05272128                0.01280118               -0.11023977                0.10642872                0.13733258                0.06944678               -0.08380560                0.01287947
               3.95127896                0.00682251               58.05524710                0.01000000               -0.40665505                0.17506376                0.05611681                0.30860259               -0.14736330                0.02456843
               4.94500611                0.01960838               58.05678742                0.01000000               -1.09986610                0.28703253                0.09042815                0.96793784               -0.19945765                0.02803324
               5.92928164                0.04455896               58.05746732                0.36264835               -0.80019997               -0.02985004                0.09262802                1.13170751               -0.09095716               -0.00053696
               6.92900211                0.04693273               58.06012915                0.99967300               -0.02850396               -0.03091989                0.09572518                0.00031092                0.00637223               -0.00397786
               7.92871156                0.04935292               58.06275563                1.00000000               -0.02954274               -0.03209317                0.09890659                0.00055810                0.00595521               -0.00075728
               8.92841125                0.05181544               58.06540744                0.99808192               -0.03050278               -0.03291247                0.10217288                0.00055987                0.00591421                0.00118926
               9.92810150                0.05432120               58.06803006                1.00000000               -0.03097521               -0.03406172                0.10546747               -0.00166730                0.00468716                0.00517951
              -0.04278219                1.00657014               58.04403116                0.99250162               -0.02383235               -0.02254894                0.07554817                0.00103547                0.00139578                0.00951167
               0.95697949                1.00329310               58.04728202                0.01000000               -0.02502885               -0.02503952                0.08324403                0.00009362                0.00451024               -0.00454328
               1.95671724                1.00003696               58.05059659                0.01000000               -0.32032523                0.03485200                0.09096407                0.10070171               -0.02675342                0.00914287
               2.95057299                1.00204897               58.05322037                0.01000001               -0.58320523                0.11119774                0.13043902                0.40196593               -0.09826817                0.04832271
               3.94505313                1.00857315               58.05566957                0.01000000               -0.73778623                0.16765145                0.07389578                0.75882434               -0.11679903                0.03135316
               4.93581726                1.02247871               58.05749978                0.01000000               -0.90582973                0.10784281                0.09592962                1.47611988               -0.18438540                0.02074693
               5.92693654                1.04426046               58.05790846                0.01000001               -0.46045117               -0.47385928                0.10674414                1.40200776               -0.11115925                0.08443782
               6.92660824                1.04662353               58.06050233                0.89209832               -0.03303794               -0.03288175                0.10983193               -0.00040377               -0.00065504               -0.00473244
               7.92627578                1.04903198               58.06312541                0.99999999               -0.03377632               -0.03450034                0.11321112               -0.00009327                0.00115463               -0.00090333
               8.92593271                1.05148632               58.06575862                0.99999999               -0.03483521               -0.03486040                0.11637821                0.00044951                0.00101992                0.00129438
               9.92557908                1.05398058               58.06838083                0.99597225               -0.03536367               -0.03644512                0.11967493               -0.00163196                0.00045424                0.00680552
              -0.03948228                2.00633543               58.04456588                0.01000002               -0.02581381                0.08864485                0.08194766                0.04564225                0.00383553                0.12169925
               0.96025958                2.00303257               58.04773922                0.01000000               -0.18878958               -0.03706608                0.08967288                0.05058977                0.03064487                0.08680404
               1.95674193                2.00099817               58.05145255                0.01000001               -0.38086169                0.00895072                0.10987985                0.28375415                0.01685788                0.06017693
               2.95264235                2.00320863               58.05421900                0.01000000               -0.53581106                0.03083658                0.12064518                0.87373862               -0.02836191                0.06988214
               3.94602570                2.01017554               58.05667896                0.01000000               -0.69005754                0.05109469                0.11192435                1.39899897               -0.05772908                0.05264694
               4.93884120                2.02176524               58.05853585                0.01000001               -0.64243674               -0.27705354                0.11119454                1.96465469               -0.09634486                0.05597030
               5.93317697                2.03508177               58.06005175                0.01143750               -0.73093443               -0.57271699                0.12349160                1.89663721               -0.14608747                0.12989063
               6.92422251                2.04627509               58.06086193                0.01000000               -0.46650347               -0.31853109                0.12438817                1.07734258               -0.09303609                0.10564383
               7.92384690                2.04866291               58.06349210                0.34779943               -0.03754287               -0.04013971                0.12579471                0.00317758               -0.00301087               -0.00173011
               8.92347165                2.05111823               58.06611001                0.99999999               -0.03832797               -0.03802050                0.12923192                0.00293813               -0.00226491               -0.00029817
               9.92308034                2.05359229               58.06876077                0.99999999               -0.03913076               -0.04094839                0.13426527               -0.00090603               -0.00089597                0.00666906
              -0.03526361                3.00834304               58.04733536                0.01021011               -0.14078426                0.21339795                0.12703370                0.12296116                0.00693772                0.27425706
               0.96332855                3.00255178               58.05008910                0.01000001               -0.12600697               -0.14601572                0.10587459                0.28273206                0.00737999                0.17541468
               1.96221625                3.00021598               58.05292414                0.01000000               -0.22290800               -0.19397344                0.10911616                0.82478787                0.01796507                0.09817724
               2.95887039                3.00266570               58.05563434                0.01000000               -0.38698718               -0.12113499                0.11908859                1.36209585                0.01532581                0.08221273
               3.95447651                3.00959504               58.05814159                0.01197811               -0.43331338               -0.19570309                0.12235731                1.70742226               -0.00229858                0.06365166
               4.95020412                3.01693763               58.06025761                0.01000000               -0.70585406               -0.33540191                0.12929387                2.25136895               -0.05252970                0.08457279
               5.94035943                3.03280612               58.06173291                0.01000001               -0.78150843               -0.41204546                0.13584583                2.29456281               -0.08086053                0.15267169
               6.93457395                3.04025291               58.06344912                0.01000001               -0.94316202               -0.51007045                0.14931146                2.05491245               -0.14086982                0.23688026
               7.92149619                3.04822919               58.06384969                0.01388362               -0.67559316               -0.22160710               -0.03380912                1.56825835               -0.11584319                0.18172335
               8.92106209                3.05072591               58.06643186                0.01000000               -0.04416751               -0.54183243                0.14085378                1.22982004               -0.00635640                0.14740528
               9.92061284                3.05316161               58.06911124                0.90030637               -0.04492526               -1.25606645                0.14927436                1.51977820               -0.00217809                0.16291811
              -0.02544054                4.01060339               58.04990785                0.01000000               -0.05181749                0.08421460                0.12414555                0.37347465                0.01137349                0.28167670
               0.97404128                4.00011225               58.05232031                0.01000000               -0.07178443               -0.34490411                0.11790396                0.81018179                0.03146822                0.18597027
               1.97312377                3.99711870               58.05484682                0.01000000               -0.17680404               -0.35434613                0.11700366                1.43351924                0.04547756                0.11056203
               2.97050520                4.00078593               58.05744101                0.01197805               -0.36107782               -0.22171265                0.12454060                1.70730914                0.03937842                0.07227964
               3.96590221                4.00626148               58.05971735                0.01000000               -0.49238522               -0.38362049                0.13226845                2.04960892                0.02931191                0.06105151
               4.96065750                4.01505720               58.06204779                0.01000001               -0.50746282               -0.28680290                0.13945587                2.36371593                0.03467730                0.10503597
               5.95575296                4.02684086               58.06439790                0.01000001               -0.53799069               -0.57396713                0.14684767                2.65465050                0.02844428                0.21104064
               6.94989768                4.03607368               58.06657618                0.01199360               -0.55069455               -0.50731923                0.14127065                2.55793482               -0.03085454                0.25891170
               7.94473907                4.04423077               58.06784296                0.01088754               -0.33810273               -0.65326283                0.16506044                2.44067304               -0.06216319                0.37820223
               8.94313563                4.04028159               58.06974346                0.01000000                0.19327177               -1.06113539                0.14645989                1.54968446                0.01463256                0.37662607
               9.94860450                4.02847096               58.07262528                0.01000002                0.54688716               -1.90355513                0.16736075                1.31300934                0.06874351                0.33752229
              -0.00681184                5.01002733               58.05314776                0.01000000               -0.01712882               -0.59556000                0.09795246                1.00502639                0.00234057                0.30567598
               0.99301688                4.99565370               58.05498272                0.01000000               -0.14876046               -0.39039484                0.11166032                1.60828164                0.02065776                0.20598019
               1.99021296                4.99312906               58.05695706                0.01000001               -0.45715402               -0.31846929                0.12302477                2.01112066                0.03628401                0.09332673
               2.98387380                4.99823144               58.05908098                0.01000000               -0.45077663               -0.49773975                0.13158700                2.24665912                0.05405707                0.04599533
               3.98119742                5.00192263               58.06145555                0.01000001               -0.34873708               -0.41196546                0.13989060                2.33772813                0.09887875                0.05047046
               4.97689905                5.01120158               58.06432274                0.01000001               -0.43807341               -0.41658797                0.14691644                2.64491015                0.15024372                0.11316618
               5.97243595                5.02132677               58.06747907                0.01191608               -0.42781543               -0.53978006                0.15420593                2.62661095                0.12442337                0.17694401
               6.96834275                5.03010652               58.06963542                0.01016885               -0.31671050               -0.64663130                0.16392822                2.48670701                0.07639906                0.27942630
               7.96610174                5.03516393               58.07196335                0.01000000               -0.02635821               -0.95185227                0.16920695                2.00797929                0.10922618                0.45095347
               8.96781558                5.02950320               58.07497524                0.01000000                0.21962618               -1.01849679                0.17699487                1.19267234                0.10232424                0.52838324
               9.97049427                5.01509051               58.07725476                0.01059116                0.26786864               -0.98816522                0.18585962                0.54696994                0.06312336                0.43691743
               0.02340725                5.99869219               58.05702259                0.29735609               -0.03020588               -0.58029569                0.09023267                1.19361339               -0.00257207                0.15705288
               1.02310519                5.99230435               58.05820409                0.01000001               -0.63194061               -0.18459748                0.11088822                1.42823677               -0.02845637                0.10294175
               2.01076844                5.99074931               58.05886688                0.01143808               -0.82301907               -0.38112747                0.12724288                1.87345976               -0.01304687                0.03716645
               3.00664481                5.99083114               58.06068181                0.01000001               -0.55408979               -0.53963060                0.13790645                2.21553382                0.08292058               -0.00191319
               3.99968664                5.99802217               58.06325911                0.01000001               -0.62466270               -0.43821907                0.14342941                2.51272294                0.18072190               -0.00840896
               4.99415156                6.00672544               58.06674118                0.01191492               -0.51532055               -0.43608004                0.14978926                2.54928978                0.23397415                0.01891170
               5.98938023                6.01604526               58.06979874                0.01014791               -0.41784453               -0.49920837                0.16164580                2.40538952                0.24579916                0.13447655
               6.98579467                6.02314106               58.07335495                0.01000000               -0.19391300               -0.64256536                0.17468208                2.04580663                0.30231439                0.35727509
               7.98550197                6.02519372               58.07755411                0.01000000                0.06339175               -0.90047664                0.18635652                1.45510394                0.31363587                0.56311461
               8.98706250                6.01991165               58.08129924                0.01214130                0.14336560               -0.78881392                0.20177649                0.72720228                0.19747703                0.52910791
               9.98836928                6.00870766               58.08320212                0.01000000                0.13067829               -0.39944690                0.21265184                0.29514840                0.09571337                0.40802851
               0.02983611                6.99842142               58.05828672                0.98857984               -0.03116165               -0.02758348                0.09337576                0.00030285               -0.01230049                0.02030519
               1.02952449                6.99196175               58.05925782                0.71429175               -0.03403693               -0.03449113                0.11431969               -0.00034829               -0.01984849               -0.00282742
               2.02915537                6.98550651               58.06008516                0.01000000               -0.43064345               -0.28266243                0.13280155                1.01720960                0.02330501               -0.00166092
               3.02091162                6.98743883               58.06193207                0.01000000               -0.67988926               -0.64373178                0.14728035                1.83151199                0.11371567               -0.00007919
               4.01555758                6.99315825               58.06471460                0.01199582               -0.55249318               -0.45893006                0.13409024                2.26549362                0.22312291               -0.19314092
               5.00986176                7.00247998               58.06802773                0.01017550               -0.57147268               -0.36770020                0.14742302                2.33064324                0.34464103               -0.09445977
               6.00412813                7.01134261               58.07262289                0.01000000               -0.48756686               -0.32013856                0.16694521                1.98014103                0.48865727                0.14773056
               7.00011042                7.01725521               58.07825579                0.01000000               -0.28474492               -0.47738116                0.18115403                1.37553427                0.56371417                0.42475309
               7.99843323                7.01715440               58.08406451                0.01216991               -0.06323649               -0.62173659                0.21221520                0.79200506                0.40587820                0.50151790
               8.99884569                7.01372692               58.08649456                0.01000002                0.01859940               -0.55393464                0.22911831                0.35816171                0.13363477                0.51728350
               9.99880522                7.00710157               58.08714707                0.01000000               -0.00404716               -0.19220005                0.24268900                0.15202371                0.02047654                0.55154166
               0.03633264                7.99814052               58.05943140                1.00000000               -0.03195064               -0.02850208                0.09602365                0.00036035               -0.00355578                0.01810536
               1.03601314                7.99161453               58.06037630                0.99999998               -0.03485476               -0.03503510                0.11661213                0.00000159               -0.00503104                0.00227831
               2.03563555                7.98509607               58.06129674                0.27668872               -0.01949147               -0.04150217                0.13670819               -0.03154607                0.09326152               -0.00662307
               3.03562331                7.97795650               58.06422122                0.01388870               -0.28400888               -0.46699118                0.13028569                1.22842302                0.07018102               -0.08181638
               4.02995537                7.98884357               58.06452379                0.01089635               -0.65216224               -0.29526709                0.10705967                2.03909434                0.18993370               -0.32990966
               5.02258006                7.99937143               58.06966815                0.01000000               -0.78737780               -0.13004608                0.14823502                1.86161296                0.62850456               -0.18869242
               6.01420781                8.00964249               58.07605944                0.01000000               -0.75432525               -0.04324959                0.16439990                1.36281298                0.76885122                0.13279358
               7.00749356                8.01359343               58.08367219                0.01215808               -0.46687252               -0.18666081                0.18306606                0.69865240                0.67345129                0.27960182
               8.00487036                8.01275899               58.08841351                0.01000002               -0.16074966               -0.34704857                0.20654347                0.14914023                0.48226620                0.42288453
               9.00427856                8.00883296               58.09223841                0.01000003               -0.01049516               -0.55387595                0.25777911               -0.15687478                0.38474019                0.86366640
              10.00466046                8.00486366               58.09541994                0.01000001                0.03818963               -0.23492912                0.29443405               -0.18412159                0.28246532                0.79315167
               0.04289529                8.99785138               58.06065293                0.99815482               -0.03263147               -0.02932103                0.09862473                0.00047802                0.00235877                0.01787078
               1.04256898                8.99126105               58.06153994                0.99999999               -0.03564083               -0.03579983                0.11916396                0.00002292                0.00250449                0.00300069
               2.04218247                8.98467646               58.06242959                0.99999999               -0.04181982               -0.04218316                0.14000234               -0.00026339               -0.00179014               -0.00674462
               3.04173258                8.97809901               58.06323203                0.01263398               -0.36289689               -0.01717610                0.16140896                0.76434289                0.11973965               -0.11994269
               4.03492454                8.98725291               58.06655649                0.01000000               -0.77187443                0.06461444                0.10488321                1.23105673                0.77982673               -0.49749203
               5.02629509                8.99987905               58.07183696                0.01000000               -0.88810736                0.15641168                0.13093527                1.09357273                0.90402461               -0.20279674
               6.01716239                9.01047762               58.07958243                0.01213795               -0.76640618                0.11090060                0.17116235                0.68664947                0.80518736                0.09097038
               7.01096697                9.01352200               58.08581474                0.01000002               -0.54929398                0.01521574                0.17802646                0.22725701                0.75693395                0.03834826
               8.00617651                9.01021343               58.09333043                0.01214540               -0.36817218               -0.12974285                0.15319737               -0.35076050                0.98013784                0.40305103
               9.00360352                9.00264940               58.10400108                1.00000000               -0.15575635               -0.33636889                0.18169721               -0.41225784                0.55383294                0.60181615
              10.00306138                9.00240299               58.10359732                0.99689315               -0.05421413               -0.14984846                0.17949979               -0.09234989                0.00014511                0.42284443
               0.04952286                9.99755410               58.06179087                1.00000000               -0.03343523               -0.02972769                0.10129375               -0.00279945                0.01434341                0.01393743
               1.04918851                9.99089854               58.06267724                0.99666845               -0.03652704               -0.03625135                0.12188538               -0.00313159                0.01851752                0.00159052
               2.04879232                9.98425240               58.06364274                1.00000000               -0.04273936               -0.04240615                0.14267934               -0.00329305                0.01848689               -0.00303310
               3.04833372                9.97761298               58.06452799                0.99999999               -0.79979306               -0.04860277                0.16347446                0.95428684                0.32700277               -0.00688698
               4.03279646                9.99013585               58.07167939                0.01000001               -1.35534561                0.28829471                0.14980848                1.03152668                1.32347719               -0.60684388
               5.02122681               10.00249967               58.07507391                0.01000001               -0.92492989                0.26206136                0.15832010                0.57940422                0.74827763               -0.05631898
               6.01429786               10.01186050               58.08238740                0.01000000               -0.44619623                0.13828864                0.19076596                0.28345121                0.60173854                0.07011661
               7.01230289               10.01389775               58.08655768                0.01000001               -0.27850564                0.03757503                0.17707950                0.04877327                0.74130081               -0.03932711
               8.00872775               10.01016413               58.09697773                0.01000000               -0.42295180               -0.00492964                0.14668273               -0.33448447                0.88141232                0.34757262
               9.00384385               10.00210558               58.10372418                0.99689871               -0.27107278               -0.05438234                0.18046612               -0.39083962                0.35742958               -0.00011028
              10.00330629               10.00186669               58.10332030                0.99149871               -0.05375557               -0.05362982                0.17829476                0.00060209               -0.00018815                0.00012362
              -0.04943639                0.00632259               59.04420199                0.98839403               -0.02179561               -0.02173776                0.06927653                0.00215186               -0.00909206                0.00895318
               0.95034565                0.00296540               59.04752611                0.99528181               -0.02282749               -0.02395591                0.07643181                0.00114438               -0.00968295               -0.00137418
               1.95010706               -0.00036976               59.05083750                0.01845145                0.02088519               -0.02616466                0.08355984                0.17381208               -0.01327805               -0.00391373
               2.95076335               -0.00022810               59.05408535                0.01000001               -0.06112686                0.09932670                0.07282599                0.15413278               -0.02998856               -0.06910395
               3.94888452                0.00613457               59.05573026                0.01000000               -0.43251154                0.18791337                0.09089236                0.31768449               -0.12700510                0.02347641
               4.94211312                0.01912277               59.05765887                0.01000000               -1.10997714                0.27019540                0.09027999                0.98002084               -0.16300013                0.02684666
               5.92668498                0.04404321               59.05839382                0.35951687               -0.78540640               -0.03001210                0.09260610                1.12868239               -0.08985904               -0.00046149
               6.92640500                0.04645076               59.06108558                0.99963243               -0.02846705               -0.03095062                0.09544629                0.00048100                0.00621564               -0.00393092
               7.92611564                0.04890558               59.06374265                1.00000000               -0.02940088               -0.03178114                0.09842824                0.00053379                0.00590395               -0.00056202
               8.92581698                0.05140671               59.06642573                0.99770664               -0.03029236               -0.03257915                0.10139143                0.00049479                0.00594436                0.00136523
               9.92550979                0.05395407               59.06908005                0.99992337               -0.03071895               -0.03370446                0.10437412               -0.00190882                0.00479185                0.00551156
              -0.04605769                1.00610522               59.04478930                0.99413379               -0.02390427               -0.02271674                0.07607736                0.00109053                0.00137535                0.00950857
               0.95370327                1.00272584               59.04811427                0.01000000               -0.02501934               -0.02502090                0.08320077                0.00009306                0.00450221               -0.00454806
               1.95344193                0.99936859               59.05150320                0.01000000               -0.23253769                0.02456574                0.09034994                0.09110468               -0.01379872                0.01489323
               2.94905252                1.00076517               59.05446030                0.01000001               -0.55279972                0.13196591                0.11044880                0.37349259                0.05083180               -0.04711978
               3.94238593                1.00801370               59.05665455                0.01000000               -0.80467547                0.16731092                0.10456529                0.77215062               -0.09949445                0.04473330
               4.93295901                1.02182472               59.05846310                0.01000000               -0.90390652                0.09195795                0.10315571                1.48995126               -0.17238247                0.02572541
               5.92430780                1.04374309               59.05898005                0.01000001               -0.44901930               -0.48085229                0.10764923                1.40864251               -0.10733147                0.08558473
               6.92397862                1.04614126               59.06160380                0.88454768               -0.03324004               -0.03321923                0.11057642               -0.00002627               -0.00057008               -0.00439558
               7.92364300                1.04858777               59.06425959                0.99999995               -0.03404697               -0.03392015                0.11346380                0.00006571                0.00112332               -0.00142316
               8.92329768                1.05108092               59.06692336                0.99999999               -0.03498302               -0.03466646                0.11642258                0.00008323                0.00086452                0.00085249
               9.92294334                1.05361702               59.06957732                0.99561380               -0.03543416               -0.03614433                0.11949127               -0.00223940                0.00032568                0.00747145
              -0.04265584                2.00586826               59.04538992                0.01134890               -0.02600230                0.12005718                0.08285268                0.06687958                0.00383724                0.13650521
               0.95708414                2.00246499               59.04863756                0.01000000               -0.17271673               -0.05563392                0.08999555                0.07774312                0.03639026                0.08990188
               1.95388982                2.00012155               59.05254002                0.01000001               -0.37480191                0.00471147                0.10332662                0.30717887                0.04711737                0.03773441
               2.94958810                2.00241122               59.05542880                0.01000000               -0.53109210                0.05190353                0.11254437                0.83495171               -0.03862995                0.03747937
               3.94326798                2.00948079               59.05779625                0.01000000               -0.67026705                0.03301804                0.11585173                1.41247509               -0.06018918                0.06173021
               4.93618276                2.02096193               59.05969825                0.01000001               -0.63633455               -0.29126507                0.11944233                1.99208396               -0.09280052                0.06881110
               5.93054129                2.03442617               59.06129031                0.01144301               -0.73114811               -0.58128951                0.12508146                1.92357513               -0.14382237                0.13544377
               6.92155979                2.04578638               59.06211324                0.01000000               -0.46819995               -0.32746888                0.12560791                1.10585510               -0.09453006                0.11157651
               7.92117729                2.04822718               59.06475524                0.08548902               -0.03852021               -0.01414505                0.12840047               -0.01851127               -0.00379682               -0.08967080
               8.92078939                2.05071338               59.06740623                0.99549700               -0.03922515               -0.03891770                0.13143180                0.00079891               -0.00205079               -0.00236404
               9.92039279                2.05323118               59.07010720                0.99999999               -0.03966012               -0.04094016                0.13497705               -0.00220790               -0.00016335                0.00815698
              -0.03791355                3.00850636               59.04852162                0.01272917               -0.10816113                0.21966581                0.07374260                0.04042837               -0.02344989                0.21702019
               0.96100484                3.00161317               59.05111534                0.01000001               -0.12235911               -0.14499232                0.09230800                0.28145662                0.02704677                0.15706685
               1.95963927                2.99946282               59.05401078                0.01000000               -0.23062596               -0.19796714                0.11200978                0.86358614                0.02568672                0.09234059
               2.95639232                3.00180324               59.05684973                0.01000000               -0.37772687               -0.13306166                0.12226076                1.40169933                0.01656786                0.07355375
               3.95208473                3.00867406               59.05940496                0.01198146               -0.42685075               -0.21521628                0.12824815                1.73853994               -0.00705958                0.06802374
               4.94785530                3.01599942               59.06157769                0.01000000               -0.70649390               -0.34664667                0.13471567                2.29411298               -0.05286382                0.09177765
               5.93795485                3.03211730               59.06311230                0.01000001               -0.77802948               -0.42164727                0.14029447                2.34069011               -0.07317600                0.15537674
               6.93229471                3.03959188               59.06495888                0.01000000               -0.98045375               -0.51411910                0.13946001                2.12119025               -0.21118164                0.22918049
               7.91834578                3.04830487               59.06350490                0.01397622               -0.69925282               -0.22948804                0.11508312                1.60457388               -0.12159753                0.18306699
               8.91830966                3.05030256               59.06784484                0.01000000               -0.02410989               -0.55637070                0.14640968                1.22588793                0.07909935                0.14185379
               9.91786358                3.05279822               59.07061240                0.92557952               -0.04460790               -1.27594767                0.15050234                1.54679189                0.00006507                0.16790557
              -0.02806089                4.01026157               59.05100409                0.01000000               -0.01823055                0.04982284                0.08618504                0.39142942               -0.01260842                0.21402171
               0.97175680                3.99956514               59.05341581                0.01000000               -0.04838200               -0.34390342                0.10460611                0.80610123                0.01310259                0.16974965
               1.97097147                3.99616221               59.05605679                0.01000000               -0.16729809               -0.37185098                0.12126753                1.44983762                0.04189018                0.11282119
               2.96841084                3.99974999               59.05871522                0.01198127               -0.35644343               -0.23845854                0.12994887                1.73590648                0.03516517                0.07244423
               3.96384260                4.00517646               59.06107273                0.01000000               -0.48945347               -0.40316020                0.13844640                2.08486967                0.02651036                0.06378948
               4.95862177                4.01402899               59.06347832                0.01000001               -0.50399846               -0.30389229                0.14627801                2.41504516                0.03317243                0.10768349
               5.95376263                4.02599322               59.06590509                0.01000001               -0.54128702               -0.58973594                0.15348329                2.72480281                0.02366637                0.20993912
               6.94779603                4.03550400               59.06802469                0.01201013               -0.56022729               -0.50972630                0.15499561                2.60941042               -0.02884634                0.25040222
               7.94255809                4.04363742               59.06953639                0.01095562               -0.34911179               -0.68043905                0.15588873                2.50983089               -0.07019411                0.44087337
               8.94081380                4.03958597               59.07124572                0.01000000                0.18896129               -1.07091764                0.15894354                1.59410383                0.00055442                0.37258253
               9.94633731                4.02771223               59.07433683                0.01000001                0.55235152               -1.93689651                0.17410908                1.35809370                0.07681352                0.34392946
              -0.00869209                5.00950282               59.05419195                0.01000003               -0.00816806               -0.62908125                0.10473524                1.03104372                0.00092713                0.27828585
               0.99122623                4.99473510               59.05615049                0.01000000               -0.14283688               -0.41911227                0.11672458                1.62806302                0.01273909                0.19462439
               1.98845117                4.99202580               59.05821326                0.01000001               -0.45650139               -0.33140155                0.12717825                2.03160144                0.02810676                0.09235461
               2.98209620                4.99703407               59.06043751                0.01000000               -0.44740251               -0.52027023                0.13805981                2.26784128                0.04920879                0.04784449
               3.97950312                5.00061086               59.06289969                0.01000001               -0.33783774               -0.44718242                0.14868270                2.37131915                0.09451782                0.05371608
               4.97533944                5.00992157               59.06585280                0.01000001               -0.42636078               -0.45314386                0.15856963                2.71284212                0.14636936                0.11408715
               5.97097590                5.02032258               59.06908271                0.01192531               -0.42503577               -0.56334812                0.16632104                2.70982086                0.12086476                0.17659275
               6.96683873                5.02939735               59.07133084                0.01020635               -0.32577383               -0.65904381                0.17301844                2.57300589                0.07195624                0.28106728
               7.96446043                5.03469609               59.07369900                0.01000000               -0.03609021               -0.94761390                0.17821228                2.07663448                0.10232458                0.44092660
               8.96611692                5.02888421               59.07679281                0.01000000                0.21562504               -1.01254384                0.18465995                1.23535798                0.09600573                0.53289445
               9.96877293                5.01406029               59.07917135                0.01143720                0.26560034               -0.99944563                0.19736087                0.56860968                0.05890420                0.43909771
               0.02209542                5.99767995               59.05792362                0.28838588               -0.03003407               -0.60479183                0.08985261                1.21679685               -0.00275430                0.14924157
               1.02179508                5.99118289               59.05931654                0.01000001               -0.63954472               -0.19506178                0.11145391                1.44752992               -0.02946544                0.09969012
               2.00930453                5.98953418               59.06017312                0.01144461               -0.83062333               -0.38820243                0.13262084                1.88295273               -0.01631659                0.03845779
               3.00518261                5.98934458               59.06209049                0.01000001               -0.54615223               -0.56751296                0.14803197                2.21191581                0.07657456                0.01298809
               3.99838148                5.99623281               59.06479341                0.01000001               -0.60078619               -0.50927257                0.16036871                2.53804248                0.17322630               -0.01272749
               4.99316689                6.00496612               59.06833797                0.01192615               -0.49491056               -0.50264373                0.17007278                2.62143042                0.22794827                0.01927162
               5.98848327                6.01472626               59.07150826                0.01017677               -0.41421207               -0.53787512                0.17930283                2.51267403                0.24245535                0.13468350
               6.98488265                6.02232312               59.07516864                0.01000000               -0.19396745               -0.65609208                0.18738624                2.15547815                0.29661334                0.35544409
               7.98460392                6.02468514               59.07947456                0.01000000                0.06370540               -0.90050541                0.19617697                1.54434188                0.30843194                0.56927102
               8.98615676                6.01933509               59.08335589                0.01226434                0.13767132               -0.77384845                0.21287040                0.77556044                0.19367480                0.53351483
               9.98735735                6.00772332               59.08537491                0.01000000                0.12005919               -0.37855711                0.22588983                0.31721282                0.09425964                0.41375970
               0.02863795                6.99740698               59.05922347                0.98787127               -0.03153596               -0.02774168                0.09400168                0.00033229               -0.01210340                0.02089771
               1.02832260                6.99083386               59.06040936                0.68258055               -0.03447107               -0.03500280                0.11603938               -0.00072683               -0.02075363               -0.00220891
               2.02794853                6.98426175               59.06142947                0.01000000               -0.43433562               -0.28442682                0.13538618                1.00415942                0.03015008               -0.00070234
               3.01963588                6.98568381               59.06364432                0.01000000               -0.66530478               -0.60333263                0.15841754                1.75264424                0.09612071               -0.06148733
               4.01464244                6.99042541               59.06614183                0.01201308               -0.51806397               -0.62854858                0.16669289                2.21912662                0.19778817               -0.19316245
               5.00927460                6.99986870               59.06969715                0.01019893               -0.53850293               -0.49873628                0.18441292                2.46381538                0.34389106               -0.09906634
               6.00387238                7.00956508               59.07439338                0.01000000               -0.46425951               -0.36895457                0.18667678                2.14406234                0.48253230                0.14969443
               6.99998941                7.01627551               59.08015125                0.01000000               -0.27685405               -0.48798381                0.19622774                1.51375030                0.56568447                0.42417952
               7.99833530                7.01668598               59.08628510                0.01228166               -0.06997276               -0.61940813                0.23279777                0.90035006                0.40484411                0.49586560
               8.99858996                7.01340724               59.08891282                0.01000002                0.00027163               -0.52918845                0.23392491                0.41808458                0.13535775                0.53376955
               9.99834073                7.00648915               59.08976334                0.01000000               -0.02492269               -0.16171655                0.25604433                0.14190802                0.02725006                0.58441576
               0.03524830                7.99712512               59.06039169                1.00000000               -0.03225306               -0.02851327                0.09614877                0.00025846               -0.00356337                0.01805353
               1.03492577                7.99048284               59.06154908                0.99999998               -0.03552676               -0.03531559                0.11777339               -0.00006025               -0.00576462                0.00196495
               2.03453776                7.98384564               59.06266650                0.26173990               -0.04269621               -0.04184310                0.13823305                0.00303902                0.00549563               -0.00585250
               3.03407184                7.97727793               59.06406080                0.01397945               -0.29793193               -0.44700548                0.05908702                1.04720092                0.03603112               -0.04704211
               4.02857913                7.98366184               59.06622424                0.01095604               -0.53841622               -0.80940522                0.19713505                2.19477714                0.23872981               -0.37396826
               5.02330352                7.99499139               59.07132951                0.01000000               -0.68107107               -0.26155353                0.18937083                2.20148005                0.61066519               -0.18830616
               6.01495770                8.00734717               59.07788620                0.01000000               -0.76333821               -0.07337287                0.19723361                1.59890097                0.75831973                0.13864085
               7.00803676                8.01256345               59.08557190                0.01226810               -0.47392550               -0.19340774                0.19911673                0.83189508                0.67420562                0.27904713
               8.00547919                8.01229698               59.09059787                0.01000002               -0.16607382               -0.33808393                0.20947416                0.23838037                0.52075915                0.38582859
               9.00471528                8.00875132               59.09524484                0.01000004               -0.07237493               -0.52384762                0.40478790               -0.11894389                0.43093766                0.77417714
              10.00403170                8.00448898               59.09889944                0.01000000               -0.06835842               -0.19008677                0.46257092               -0.16938623                0.35816021                0.76749909
               0.04192768                8.99683671               59.06163661                0.99778046               -0.03268162               -0.02917324                0.09824265                0.00042877                0.00215684                0.01781039
               1.04160086                8.99012755               59.06273402                0.99999999               -0.03567298               -0.03594204                0.11968093                0.00024536                0.00213581                0.00280924
               2.04121422                8.98342489               59.06383313                1.00000000               -0.04185794               -0.04239655                0.14077661                0.00136743               -0.00221220               -0.00595520
               3.04076370                8.97674370               59.06484781                0.03479963               -0.01948487               -0.05204747                0.16381701                0.21111523                0.09877136               -0.03193237
               4.04082452                8.97423730               59.06795866                0.01000000               -0.55724147               -0.53211863                0.19229431                1.75547915                0.68950481               -0.65593329
               5.02961887                8.99463763               59.07360484                0.01000000               -1.12730891                0.19216793                0.20739579                1.71434746                0.87454330               -0.18548862
               6.01827834                9.00809762               59.08146408                0.01225398               -0.89706838                0.11338065                0.20342371                0.86890787                0.78453189                0.09388142
               7.01167751                9.01240736               59.08768216                0.01000002               -0.56816560                0.00710448                0.19307049                0.30941496                0.72875878                0.03516785
               8.00691503                9.00992430               59.09490904                0.01156140               -0.38292171               -0.11660085                0.16103287               -0.30011765                0.97950948                0.36224568
               9.00401907                9.00293029               59.10581796                1.00000000               -0.17186777               -0.31817703                0.18173824               -0.38468393                0.56695485                0.54317817
              10.00347768                9.00268741               59.10539208                0.99724300               -0.05413962               -0.11689529                0.17949782               -0.03994575                0.00010201                0.33925080
               0.04867520                9.99654165               59.06279881                0.99993814               -0.03327024               -0.02950628                0.10042368               -0.00301318                0.01406350                0.01389088
               1.04834250                9.98976400               59.06389502                0.99633733               -0.03631202               -0.03635533                0.12187612               -0.00303339                0.01834783                0.00152372
               2.04794896                9.98299771               59.06507701                0.99999998               -0.04303799               -0.04271791                0.14328947               -0.00287663                0.01888517               -0.00237780
               3.04748174                9.97623698               59.06618291                0.99794026               -0.10770896               -0.05067198                0.16745921                0.17289122                0.25253303               -0.00590626
               4.04579478                9.97301947               59.07202813                0.01000001               -1.18757963               -0.12178343                0.01143717                1.62691425                1.24673124               -0.69994760
               5.02373015                9.99883475               59.07701697                0.01000001               -1.56143242                0.41971197                0.20202114                1.24089288                0.75221016               -0.06506357
               6.01456613               10.00961478               59.08431434                0.01000000               -0.56658836                0.15171576                0.19168673                0.32231818                0.56734907                0.06985606
               7.01239838               10.01270554               59.08838319                0.01000001               -0.28061113                0.02981768                0.18676484                0.08959604                0.70047446               -0.04832364
               8.00895391               10.00996496               59.09840517                0.01000000               -0.40699444                0.00406587                0.13651985               -0.31200000                0.87756660                0.33043809
               9.00425849               10.00238778               59.10552893                0.99724364               -0.26176882               -0.05425101                0.18046272               -0.36675236                0.37708717               -0.00023051
              10.00371853               10.00215108               59.10510358                0.99163966               -0.05399562               -0.05363338                0.17822759                0.00041568                0.00014772                0.00019066
              -0.05288714                0.00579086               60.04489554                0.98848930               -0.02174954               -0.02184756                0.06943184                0.00212009               -0.00907954                0.00896400
               0.94689536                0.00232955               60.04828832                0.99377456               -0.02269529               -0.02388599                0.07600965                0.00105654               -0.00968332               -0.00139465
               1.94665895               -0.00110855               60.05166810                0.01178612                0.03756590               -0.02591439                0.08256006                0.16978494               -0.05361866               -0.00391111
               2.94764668               -0.00114731               60.05417780                0.01069493               -0.07468104                0.09104226                0.06521530                0.20675884               -0.08565477                0.06540592
               3.94516533                0.00544345               60.05706494                0.01000000               -0.42820690                0.19583736                0.11260236                0.37371999               -0.14289787                0.00898720
               4.93908254                0.01853686               60.05859302                0.01000000               -1.05537934                0.24169775                0.09608663                0.99284701               -0.19131981                0.02956647
               5.92405774                0.04337726               60.05931945                0.35646800               -0.76524745               -0.03016001                0.09254324                1.12318792               -0.09182527               -0.00051924
               6.92377759                0.04581768               60.06203807                0.99958624               -0.02841289               -0.03097199                0.09518368                0.00049714                0.00615060               -0.00388702
               7.92348949                0.04830779               60.06472419                1.00000000               -0.02924284               -0.03168569                0.09786914                0.00041090                0.00589199               -0.00086858
               8.92319274                0.05084750               60.06743526                0.99733736               -0.03003921               -0.03246342                0.10052200                0.00040805                0.00591098                0.00111414
               9.92288870                0.05343688               60.07011755                0.99957285               -0.03040345               -0.03340239                0.10317747               -0.00216662                0.00478345                0.00542533
              -0.04940462                1.00557239               60.04555271                0.99577264               -0.02397431               -0.02288264                0.07660338                0.00114561                0.00135649                0.00950762
               0.95035563                1.00209069               60.04894604                0.01000000               -0.02500729               -0.02500092                0.08314981                0.00009217                0.00449803               -0.00455525
               1.95009523                0.99863231               60.05240359                0.01000000               -0.19586809                0.01769092                0.08972333                0.09532515               -0.01378471                0.01534035
               2.94643827                0.99976311               60.05542935                0.01000000               -0.55173919                0.13580492                0.08811714                0.38681754               -0.09744529                0.05955687
               3.93906045                1.00740182               60.05776088                0.01000000               -0.81970814                0.16081413                0.11228327                0.82889346               -0.12533044                0.02179498
               4.93004411                1.02095384               60.05956290                0.01000000               -0.87056171                0.07450021                0.10879467                1.50412043               -0.17809888                0.02757692
               5.92164921                1.04307566               60.06006145                0.01000001               -0.43634041               -0.48594301                0.10867616                1.41909579               -0.10966539                0.08682546
               6.92131730                1.04550796               60.06271386                0.87711572               -0.03352631               -0.03330708                0.11135303                0.00023300               -0.00084865               -0.00472353
               7.92097869                1.04799093               60.06539469                1.00000000               -0.03425152               -0.03418034                0.11391001                0.00016924                0.00089728               -0.00115467
               8.92063227                1.05052287               60.06808707                0.99999999               -0.03505157               -0.03490145                0.11659723               -0.00010695                0.00094596                0.00111942
               9.92027765                1.05310286               60.07077065                0.99523710               -0.03546152               -0.03582632                0.11928390               -0.00267880                0.00050426                0.00747011
              -0.04590083                2.00533321               60.04622294                0.01528185               -0.02618887                0.07484425                0.08374909                0.07386033                0.00383861                0.10579105
               0.95383728                2.00182953               60.04953913                0.01000000               -0.16030715               -0.05879096                0.09031396                0.09683751                0.03684023                0.08233630
               1.95089303                1.99924527               60.05351909                0.01000001               -0.36118830               -0.00431486                0.09836152                0.33198121                0.02970892                0.06173866
               2.94661352                2.00156879               60.05646989                0.01000000               -0.51702771                0.05436219                0.10681462                0.83918786               -0.02169161                0.05376967
               3.94055248                2.00865973               60.05899600                0.01000000               -0.65612009                0.01386033                0.11837437                1.45024927               -0.05985271                0.05685318
               4.93349112                2.02002686               60.06092469                0.01000001               -0.63334707               -0.29803591                0.12371953                2.01970293               -0.09598772                0.07229602
               5.92788554                2.03365840               60.06255338                0.01144866               -0.73120678               -0.58883895                0.12781869                1.94950947               -0.14615273                0.13996794
               6.91886698                2.04515154               60.06337409                0.01000003               -0.47037841               -0.32914507                0.12712470                1.13031016               -0.09563816                0.10440051
               7.91847797                2.04762418               60.06606011                0.08272098               -0.03941556               -0.04407787                0.13080372                0.00987609               -0.00330049               -0.03049286
               8.91807867                2.05014947               60.06873865                0.99999993               -0.04014121               -0.03996832                0.13345129                0.00002425               -0.00221748               -0.00084063
               9.91767514                2.05272035               60.07146031                0.99999999               -0.04035273               -0.04063811                0.13538635               -0.00284359               -0.00046565                0.00800919
              -0.04092005                3.00706927               60.04881021                0.01000001               -0.06996263                0.19401414                0.02597667                0.15379265                0.00010615                0.13607433
               0.95838032                3.00091487               60.05193526                0.01000000               -0.10421766               -0.16787184                0.07837826                0.34450404                0.02178565                0.17434170
               1.95699560                2.99854601               60.05516434                0.01000000               -0.22863766               -0.20363117                0.11683711                0.88523105                0.02914622                0.09484215
               2.95380757                3.00085036               60.05807955                0.01000000               -0.36941193               -0.14608736                0.12285982                1.43560333                0.01112586                0.08175730
               3.94960736                3.00767903               60.06070656                0.01198536               -0.41840338               -0.23085994                0.13144081                1.76298033               -0.00802979                0.07284429
               4.94543950                3.01499312               60.06295193                0.01000000               -0.70463160               -0.35455493                0.13921487                2.33086607               -0.05482921                0.09809440
               5.93551473                3.03129888               60.06453880                0.01000001               -0.77408904               -0.42945777                0.14286259                2.38631587               -0.08424698                0.15875159
               6.92995772                3.03892506               60.06623832                0.01000000               -0.96682244               -0.52208884                0.13987800                2.13164809               -0.16991727                0.23945262
               7.91617828                3.04710937               60.06615135                0.01407043               -0.72105707               -0.23850207                0.22889137                1.62173141               -0.09696837                0.15235538
               8.91553658                3.04972350               60.06936005                0.01000000               -0.05496309               -0.56821016                0.15093652                1.27241687                0.02074102                0.14389126
               9.91507901                3.05229010               60.07212129                0.95176880               -0.04575650               -1.29648760                0.15124524                1.57083020               -0.00211543                0.17288075
              -0.03051616                4.00921349               60.05163155                0.01000000               -0.02332117                0.08021211                0.09168716                0.43634319                0.04186129                0.24297094
               0.96925063                3.99847209               60.05441243                0.01000000               -0.04108370               -0.36347044                0.10832000                0.84145916                0.03300460                0.16239641
               1.96866216                3.99517265               60.05727217                0.01000000               -0.15290287               -0.38430941                0.12074976                1.48337132                0.04204465                0.11326565
               2.96619257                3.99864704               60.06003999                0.01197988               -0.34964215               -0.25186440                0.13388996                1.76169252                0.03177788                0.07583622
               3.96166932                4.00404253               60.06248628                0.01000000               -0.48519897               -0.42013787                0.14291313                2.11769292                0.02344721                0.07077054
               4.95648859                4.01293576               60.06497335                0.01000001               -0.49947052               -0.31847227                0.15162980                2.46153171                0.03016795                0.11632354
               5.95167991                4.02506924               60.06746756                0.01000001               -0.53995702               -0.60217113                0.15929234                2.78172400                0.01965890                0.21856844
               6.94568945                4.03470976               60.06967610                0.01203199               -0.57828775               -0.51705688                0.16742638                2.64963770               -0.04450987                0.26266820
               7.94011416                4.04285414               60.07096073                0.01102390               -0.36715824               -0.65325368                0.15665103                2.52917494               -0.08101839                0.40234924
               8.93834628                4.03878527               60.07292233                0.01000000                0.19221995               -1.08362889                0.17508204                1.63316148                0.01108446                0.38216102
               9.94395855                4.02679060               60.07610746                0.01000001                0.56122703               -1.97278587                0.18136552                1.39234608                0.07784525                0.35654163
              -0.01071038                5.00867352               60.05524246                0.01000003               -0.00392666               -0.62839953                0.09621450                1.05131859               -0.00380153                0.27592522
               0.98925035                4.99364546               60.05731721                0.01000000               -0.14007723               -0.42164016                0.11361113                1.66010333                0.00853774                0.19309845
               1.98648807                4.99085983               60.05950063                0.01000001               -0.45394077               -0.34351978                0.12913599                2.05868022                0.02299731                0.09438800
               2.98017154                4.99581307               60.06184218                0.01000000               -0.44077906               -0.53814756                0.14059522                2.28899435                0.04707185                0.05618052
               3.97767249                4.99927627               60.06442920                0.01000001               -0.32640542               -0.47585274                0.15485459                2.40224861                0.09248492                0.06637862
               4.97364343                5.00862367               60.06749413                0.01000001               -0.41486427               -0.48346228                0.16728536                2.77431327                0.14172056                0.13103264
               5.96937521                5.01925546               60.07080549                0.01194032               -0.42389244               -0.58204909                0.17610830                2.78395038                0.11105804                0.19120827
               6.96516558                5.02858392               60.07309579                0.01022580               -0.33444683               -0.66401155                0.18021956                2.64300130                0.05940711                0.29024038
               7.96268627                5.03404430               60.07552759                0.01000000               -0.04511172               -0.94305464                0.18391542                2.14181014                0.09153279                0.45919026
               8.96426334                5.02805092               60.07866844                0.01000000                0.21144975               -1.01616685                0.19272641                1.27397203                0.09069927                0.54546639
               9.96691527                5.01283438               60.08120198                0.01227459                0.26519210               -1.01998673                0.21028044                0.59123926                0.06100319                0.45370865
               0.02056632                5.99664550               60.05881964                0.27736953               -0.02999389               -0.61511075                0.08953497                1.23600997               -0.00298529                0.14187494
               1.02026638                5.99003929               60.06043317                0.01000001               -0.64490817               -0.19802121                0.11217156                1.46549044               -0.02946390                0.09776026
               2.00766816                5.98830225               60.06151929                0.01144901               -0.83551877               -0.39303722                0.13532507                1.89400678               -0.01289171                0.04153660
               3.00355601                5.98788409               60.06364244                0.01000001               -0.53822357               -0.57871454                0.15367495                2.20866820                0.07605058                0.02353604
               3.99690369                5.99452548               60.06646648                0.01000001               -0.57801688               -0.57060507                0.16951837                2.55852260                0.17084768                0.01775724
               4.99199567                6.00326652               60.07014264                0.01193970               -0.47525100               -0.55582827                0.18552471                2.68736921                0.21812502                0.05314463
               5.98739867                6.01342826               60.07338480                0.01020153               -0.41175194               -0.56484513                0.19183877                2.60562417                0.22742460                0.15627672
               6.98376063                6.02142953               60.07710267                0.01000000               -0.19576547               -0.66241934                0.19667158                2.24657990                0.28016823                0.36742532
               7.98348336                6.02399305               60.08147765                0.01000000                0.06375066               -0.90479483                0.20606297                1.60573321                0.29816563                0.58806739
               8.98503565                6.01846193               60.08555665                0.01238879                0.13665338               -0.77687792                0.22481671                0.81045407                0.18932711                0.53212572
               9.98621643                6.00639087               60.08771992                0.01000000                0.11807814               -0.37845104                0.24154052                0.32959020                0.09176302                0.41209954
               0.02722225                6.99637130               60.06016675                0.98764461               -0.03188372               -0.02785297                0.09458062                0.00038746               -0.01185040                0.02234804
               1.02690341                6.98968504               60.06157861                0.64916921               -0.03494199               -0.03550588                0.11775043               -0.00077836               -0.02202994               -0.00085474
               2.02652341                6.98299908               60.06279288                0.01000001               -0.43908678               -0.28634459                0.13727861                1.00596624                0.02219937               -0.00024143
               3.01812168                6.98423878               60.06510042                0.01000000               -0.65314465               -0.60359579                0.15358172                1.70476346                0.10812258               -0.05852591
               4.01346052                6.98786417               60.06804845                0.01203183               -0.48168225               -0.74890516                0.19689609                2.19129473                0.20111404               -0.12317377
               5.00848803                6.99750711               60.07171598                0.01023122               -0.50679191               -0.57844470                0.20561644                2.56150573                0.32280415               -0.04015079
               6.00332468                7.00795855               60.07635643                0.01000000               -0.44778195               -0.40418254                0.20039905                2.27807865                0.45052071                0.18779574
               6.99953239                7.01533554               60.08218034                0.01000000               -0.27780708               -0.48930364                0.20824437                1.62476097                0.55317807                0.44169614
               7.99776854                7.01594840               60.08872047                0.01239717               -0.07288943               -0.60707136                0.24566233                0.96535419                0.37243546                0.48101201
               8.99807460                7.01251336               60.09117306                0.01000002               -0.00596711               -0.55252821                0.24457520                0.44385293                0.10754330                0.63041790
               9.99764919                7.00526536               60.09226796                0.01000000               -0.04254092               -0.09029869                0.26371271                0.19010101                0.03964679                0.70881592
               0.03394660                7.99608845               60.06135438                0.99999999               -0.03235664               -0.02854152                0.09629031                0.00014087               -0.00377944                0.01811486
               1.03362304                7.98932917               60.06273177                0.99903871               -0.03564306               -0.03568697                0.11884385               -0.00006570               -0.00630371                0.00146765
               2.03323374                7.98257536               60.06406140                0.26250998               -0.04184249               -0.04261181                0.14077567               -0.00079815               -0.00830183               -0.00533727
               3.03278619                7.97581217               60.06540296                0.01407260               -0.28862449               -0.44502646                0.14807960                0.92164071                0.07832380               -0.07350286
               4.02746125                7.97954738               60.06846649                0.01102504               -0.48273923               -0.97669095                0.23111437                2.11912690                0.28460582               -0.20497261
               5.02313140                7.99169762               60.07345557                0.01000000               -0.61647198               -0.35126449                0.20870183                2.37948706                0.52039032               -0.05140491
               6.01513181                8.00534461               60.08000411                0.01000000               -0.74327001               -0.10157221                0.21431319                1.76984290                0.69302063                0.19286345
               7.00826600                8.01164346               60.08765452                0.01238465               -0.47595992               -0.19607319                0.20932938                0.95358997                0.63052506                0.29507645
               8.00561262                8.01185162               60.09260300                0.01000002               -0.18351270               -0.31486797                0.21627173                0.28151389                0.61838242                0.35239861
               9.00459575                8.00741137               60.10033417                0.01852076               -0.05490780               -0.46422471                0.41622814               -0.04408748                0.55549631                0.67767439
              10.00451446                8.00458489               60.10467136                0.01000000               -0.00812899               -0.11407459                0.38248161                0.03065183                0.39823785                0.68968890
               0.04074361                8.99580047               60.06261778                0.99740209               -0.03284327               -0.02904554                0.09793789                0.00033790                0.00193638                0.01788326
               1.04041518                8.98897130               60.06393356                0.99999999               -0.03595850               -0.03610746                0.12040416                0.00002966                0.00159520                0.00261967
               2.04002444                8.98214684               60.06524512                0.99999999               -0.04163519               -0.04291454                0.14223217                0.00076694               -0.00185727               -0.00633110
               3.03958248                8.97533825               60.06650837                0.32660663               -0.00334199               -0.04937593                0.16483653               -0.00847076                0.12566908               -0.01844892
               4.03995760                8.96833035               60.07040238                0.01000000               -0.46509692               -0.57747099                0.12455888                1.72896675                0.31240836               -0.20946405
               5.03028054                8.99048182               60.07598488                0.01000000               -1.05909511                0.13382505                0.22287397                1.92250793                0.63997889               -0.04114423
               6.01877570                9.00592711               60.08365091                0.01237372               -0.90916782                0.11062447                0.21668881                1.00395350                0.68874510                0.12181796
               7.01209718                9.01141407               60.08967615                0.01000002               -0.55723974               -0.00571148                0.20100934                0.38397361                0.66476479                0.04410386
               8.00763091                9.00965104               60.09655109                0.01068591               -0.38188024               -0.10354947                0.16371689               -0.23322417                0.95953071                0.33516619
               9.00445958                9.00322887               60.10763585                1.00000000               -0.18578662               -0.23661748                0.18101994               -0.32878709                0.57532787                0.38154681
              10.00391517                9.00298387               60.10718728                0.99760373               -0.05444029               -0.10686919                0.17972072               -0.04222537               -0.00114904                0.13976751
               0.04761171                9.99550753               60.06379935                0.99957306               -0.03344550               -0.02929368                0.09967373               -0.00324121                0.01407909                0.01397775
               1.04727726                9.98860702               60.06511476                0.99598218               -0.03647913               -0.03642738                0.12223160               -0.00331538                0.01793854                0.00156252
               2.04688213                9.98171707               60.06650853                0.98963982               -0.04219960               -0.04297734                0.14382903               -0.00334958                0.01967585               -0.00275987
               3.04643327                9.97482466               60.06787718                0.99999998                0.00074445               -0.05135924                0.16766858               -0.00087682                0.15062825               -0.00449514
               4.04689702                9.96799796               60.07190814                0.01202123               -1.12242305               -0.03323963               -0.00493383                1.67141512                0.50188832               -0.16500126
               5.02398480                9.99437413               60.07911434                0.01000001               -1.63091948                0.38923082                0.16575865                1.34838386                0.66196295               -0.03991751
               6.01427863               10.00755710               60.08622113                0.01000000               -0.58816314                0.16299894                0.18591164                0.40804807                0.49899609                0.06907106
               7.01222154               10.01152923               60.09029298                0.01000001               -0.25726475                0.01151578                0.19009444                0.12361260                0.63930430               -0.04819360
               8.00913333               10.00978063               60.09970813                0.01000000               -0.37671786                0.01295863                0.13062709               -0.29226776                0.87105192                0.29823865
               9.00468718               10.00267902               60.10733343                0.99760318               -0.24866877               -0.05498521                0.18024969               -0.34389507                0.40535795                0.00166454
              10.00415996               10.00244751               60.10688485                0.99179091               -0.05272257               -0.05363544                0.17889752                0.00132797                0.00147428               -0.00147378
              -0.05640355                0.00518753               61.04559063                0.98858320               -0.02170275               -0.02195626                0.06958789                0.00208736               -0.00906879                0.00897706
               0.94337942                0.00162207               61.04904630                0.99227483               -0.02256235               -0.02381462                0.07558516                0.00096797               -0.00968517               -0.00141628
               1.94314520               -0.00191897               61.05248870                0.01126475                0.01369952               -0.02566218                0.08155559                0.20151472               -0.03719904               -0.00390943
               2.94365341               -0.00142307               61.05538965                0.01000002               -0.07669296                0.10872961                0.10092320                0.15136215               -0.10439479                0.03615706
               3.94161134                0.00492245               61.05798230                0.01000000               -0.38105932                0.15961003                0.08873142                0.37331390               -0.15202211                0.03463487
               4.93603223                0.01777434               61.05958060                0.01000000               -1.01039628                0.22702450                0.09782136                0.98774247               -0.19681727                0.02730644
               5.92140342                0.04254883               61.06024468                0.35334208               -0.74544829               -0.03031582                0.09261875                1.11836713               -0.09615167               -0.00053416
               6.92112326                0.04502145               61.06298926                0.99959267               -0.02835668               -0.03106790                0.09510034                0.00043437                0.00618377               -0.00400435
               7.92083628                0.04754722               61.06570003                1.00000000               -0.02907078               -0.03184626                0.09742818                0.00034136                0.00587163               -0.00082904
               8.92054184                0.05012538               61.06843617                0.99697041               -0.02976954               -0.03254572                0.09979765                0.00033599                0.00592914                0.00116258
               9.92024089                0.05275636               61.07114360                0.99920535               -0.03009513               -0.03326988                0.10215862               -0.00236480                0.00475946                0.00533744
              -0.05281722                1.00496797               61.04632136                0.99741697               -0.02404311               -0.02304764                0.07712564                0.00120015                0.00133780                0.00950780
               0.94694235                1.00138393               61.04977726                0.01000000               -0.02499292               -0.02497913                0.08309159                0.00009064                0.00449542               -0.00456466
               1.94668292                0.99782441               61.05329766                0.01000000               -0.25980121                0.02572715                0.08909066                0.13441708               -0.02195482                0.01637497
               2.94174633                0.99966422               61.05622264                0.01000000               -0.54685739                0.11297441                0.08931356                0.43590401               -0.12172473                0.07015812
               3.93574577                1.00651855               61.05890022                0.01000000               -0.73249328                0.13748596                0.10115949                0.81925702               -0.11694601                0.02831669
               4.92709646                1.02004458               61.06063899                0.01000000               -0.83911209                0.06222389                0.10707264                1.52002583               -0.18508553                0.03357652
               5.91896353                1.04224567               61.06115358                0.01000001               -0.42340263               -0.49003290                0.10970064                1.42158059               -0.11014968                0.08852175
               6.91862841                1.04471077               61.06383086                0.86938987               -0.03378991               -0.03357600                0.11210307                0.00000623               -0.00086585               -0.00496102
               7.91828773                1.04722876               61.06653779                1.00000000               -0.03438861               -0.03432811                0.11450636               -0.00002085                0.00096534               -0.00112215
               8.91794064                1.04979992               61.06925530                0.99999999               -0.03507365               -0.03508947                0.11687518               -0.00010516                0.00095484                0.00119721
               9.91758626                1.05242366               61.07196300                0.99484789               -0.03543735               -0.03578126                0.11914488               -0.00266280                0.00048391                0.00710511
              -0.04921146                2.00472658               61.04706490                0.01139637               -0.02637453                0.04256305                0.08464155                0.07237556                0.00383830                0.07156463
               0.95052479                2.00112249               61.05044384                0.01000000               -0.16176440               -0.05786123                0.09062060                0.10065352                0.03788114                0.07081415
               1.94755325                1.99859558               61.05450725                0.01000001               -0.34237181               -0.01089144                0.10169603                0.35544518                0.02099211                0.07976421
               2.94367735                2.00083641               61.05756510                0.01000000               -0.49685639                0.01020326                0.10981272                0.92014430               -0.02689894                0.07739749
               3.93761612                2.00767217               61.06016373                0.01000000               -0.64858672                0.00610555                0.11602281                1.47441936               -0.06610187                0.06081443
               4.93070562                2.01901882               61.06217264                0.01000001               -0.62236391               -0.30659669                0.12327043                2.04530092               -0.09696678                0.08198446
               5.92516884                2.03274817               61.06384669                0.01144368               -0.72826616               -0.59337611                0.13066687                1.96755513               -0.14994256                0.14402659
               6.91614030                2.04434993               61.06465573                0.01000003               -0.47110610               -0.33159229                0.12898262                1.13839511               -0.09757307                0.10759231
               7.91574672                2.04686066               61.06737131                0.08342619               -0.03977285               -0.03887019                0.13160347                0.00352989               -0.00324234               -0.00763529
               8.91534484                2.04942359               61.07007526                1.00000000               -0.04032829               -0.04016065                0.13395247               -0.00030089               -0.00227609               -0.00053428
               9.91494015                2.05204073               61.07281493                0.99999997               -0.04046857               -0.04074876                0.13584704               -0.00265816               -0.00065702                0.00722770
              -0.04416153                3.00581923               61.04904115                0.01005866               -0.07520471                0.19810802                0.08067417                0.26204932                0.05865658                0.23416371
               0.95508642                3.00022670               61.05268291                0.01000000               -0.08802832               -0.18456857                0.10213969                0.40194236                0.03754100                0.17738166
               1.95407790                2.99760658               61.05634752                0.01000000               -0.20069008               -0.22521704                0.11483158                0.91365728                0.03077118                0.10634558
               2.95107262                2.99986829               61.05930693                0.01000000               -0.35130719               -0.16661626                0.12385252                1.45945043                0.00491640                0.09179231
               3.94705176                3.00664066               61.06203378                0.01198451               -0.40730723               -0.24014714                0.13317216                1.79032135               -0.00943753                0.08249959
               4.94292647                3.01391265               61.06436199                0.01000000               -0.70341180               -0.36027767                0.14175282                2.36378608               -0.05975047                0.10739919
               5.93298352                3.03037815               61.06596956                0.01000001               -0.78213265               -0.43251350                0.14554955                2.42252503               -0.08889306                0.16518956
               6.92728382                3.03807893               61.06775644                0.01000000               -0.98494227               -0.52250200                0.15488704                2.16727880               -0.16337424                0.24690141
               7.91328468                3.04645136               61.06808273                0.01417610               -0.72646394               -0.22762504                0.17645373                1.64312712               -0.12867072                0.18486246
               8.91275454                3.04899671               61.07086357                0.01000000               -0.04929363               -0.57513950                0.15095255                1.28506245               -0.00113897                0.15244257
               9.91229880                3.05160869               61.07363731                0.97901813               -0.04557389               -1.31391836                0.15252870                1.59038836               -0.00172984                0.18070260
              -0.03278542                4.00868874               61.05283783                0.01000000               -0.04382938                0.10070035                0.10520020                0.43643374                0.01490225                0.29431024
               0.96677628                3.99743112               61.05558221                0.01000000               -0.05148850               -0.38251830                0.11373666                0.87274477                0.02311664                0.19060524
               1.96618481                3.99409124               61.05847179                0.01000000               -0.14719992               -0.39700741                0.12282524                1.51906097                0.03477769                0.11333783
               2.96383229                3.99750409               61.06139302                0.01198414               -0.34033123               -0.26565300                0.13558099                1.79072163                0.02996107                0.08120470
               3.95937818                4.00286923               61.06393099                0.01000000               -0.47942164               -0.43412149                0.14574915                2.14791425                0.02086860                0.07897075
               4.95424385                4.01181326               61.06651092                0.01000001               -0.49625577               -0.32698555                0.15507196                2.50498835                0.02741838                0.12843213
               5.94945307                4.02409790               61.06909093                0.01000001               -0.54155929               -0.60743183                0.16408393                2.83492545                0.01354352                0.23299306
               6.94341267                4.03389989               61.07137322                0.01205180               -0.58807925               -0.51516709                0.17044580                2.71156028               -0.05660945                0.27650907
               7.93769148                4.04230816               61.07266942                0.01109414               -0.37619540               -0.65441899                0.17385940                2.57273311               -0.08203873                0.40269630
               8.93588876                4.03792080               61.07474736                0.01000000                0.19162401               -1.09187409                0.18325415                1.64780950                0.01245154                0.39694326
               9.94152396                4.02576237               61.07796414                0.01000001                0.56352038               -2.00433405                0.19103293                1.41551261                0.07227645                0.38153911
              -0.01291762                5.00783323               61.05611624                0.01000003                0.00564359               -0.65477873                0.09162085                1.05401411                0.00160050                0.26312183
               0.98713882                4.99257633               61.05842272                0.01000000               -0.13481162               -0.42772060                0.11260095                1.67815305                0.01204316                0.19299196
               1.98438615                4.98966643               61.06079598                0.01000001               -0.45148784               -0.35092881                0.12958802                2.08157486                0.02193384                0.10011701
               2.97810906                4.99455523               61.06324942                0.01000000               -0.43426416               -0.54735128                0.14209681                2.31079740                0.04566137                0.05952853
               3.97570087                4.99795823               61.06599678                0.01000001               -0.31557482               -0.49502599                0.15655131                2.43688847                0.09445954                0.07903648
               4.97179757                5.00737294               61.06919851                0.01000001               -0.40527315               -0.50030556                0.17141207                2.83192506                0.13868353                0.15416461
               5.96759540                5.01822951               61.07260487                0.01195499               -0.42463975               -0.58985200                0.18073896                2.85106529                0.09985890                0.21350938
               6.96330477                5.02777558               61.07493523                0.01025899               -0.34384857               -0.66564089                0.18539829                2.70569795                0.04306098                0.30767398
               7.96071843                5.03336298               61.07737731                0.01000000               -0.05241229               -0.95272725                0.18802558                2.19027095                0.07988181                0.47926852
               8.96225652                5.02715922               61.08064734                0.01000000                0.21037417               -1.02239078                0.20059422                1.29856497                0.08934092                0.56647718
               9.96492592                5.01152200               61.08337696                0.01308710                0.26693915               -1.04315219                0.22151689                0.60338311                0.06380624                0.48206803
               0.01880866                5.99559316               61.05971432                0.26396256               -0.03025150               -0.62570174                0.08964255                1.25309695               -0.00333094                0.14406352
               1.01850615                5.98887671               61.06155997                0.01000001               -0.64856239               -0.20290844                0.11349121                1.47982721               -0.03003353                0.10005395
               2.00583741                5.98707266               61.06287962                0.01145028               -0.83748542               -0.39758096                0.13691943                1.90824561               -0.00881967                0.04248161
               3.00175644                5.98655706               61.06516399                0.01000001               -0.52695870               -0.59012241                0.13831060                2.21648733                0.08635709                0.02781008
               3.99529824                5.99296871               61.06818378                0.01000001               -0.55726828               -0.59981556                0.17102908                2.57991893                0.17926377                0.05221051
               4.99061107                6.00180715               61.07204846                0.01195340               -0.46132551               -0.58100913                0.18898403                2.74786523                0.21155630                0.09524317
               5.98607173                6.01230086               61.07534504                0.01023282               -0.41089543               -0.57639138                0.19605114                2.68014749                0.20871197                0.18597258
               6.98239316                6.02058707               61.07910207                0.01000000               -0.19792337               -0.66089983                0.20054906                2.31684579                0.26510281                0.39148264
               7.98211326                6.02325361               61.08359582                0.01000000                0.06539332               -0.90910515                0.21240849                1.64793832                0.28881613                0.62470371
               8.98370103                6.01747298               61.08785222                0.01252012                0.13764015               -0.79605720                0.23294285                0.82912570                0.18547597                0.56641075
               9.98486606                6.00489932               61.09020572                0.01000000                0.11650351               -0.39039892                0.25470570                0.34353179                0.08883322                0.44280676
               0.02557724                6.99531920               61.06111508                0.98827995               -0.03213696               -0.02783909                0.09496339                0.00036015               -0.01164297                0.02439505
               1.02525587                6.98851817               61.06276437                0.61407069               -0.03532653               -0.03597323                0.11933010               -0.00089310               -0.02383342                0.00085873
               2.02487071                6.98171481               61.06417504                0.01000001               -0.43565525               -0.28930007                0.13932090                1.00488672                0.02028744                0.00074740
               3.01654276                6.98275278               61.06671596                0.01000000               -0.64107752               -0.60785678                0.16466789                1.68619493                0.11595419               -0.04051931
               4.01204916                6.98596192               61.07007975                0.01205357               -0.45600239               -0.78801227                0.18705995                2.19601872                0.21548230               -0.04198063
               5.00742271                6.99575276               61.07380948                0.01025769               -0.48153608               -0.60563761                0.20522173                2.61512014                0.29673338                0.02266242
               6.00241843                7.00670169               61.07840136                0.01000000               -0.43668899               -0.41954530                0.20375881                2.36761322                0.41986612                0.23023918
               6.99868893                7.01455759               61.08431614                0.01000000               -0.28135714               -0.48089542                0.21333985                1.70671983                0.54273329                0.46381795
               7.99679129                7.01518087               61.09119834                0.01252246               -0.07478025               -0.58696436                0.24359273                0.98672152                0.37941492                0.50976076
               8.99719333                7.01123808               61.09380433                0.01000002                0.00762887               -0.58154803                0.25526586                0.42944848                0.09897097                0.69430134
               9.99694387                7.00371403               61.09503759                0.01000000               -0.02494610               -0.07679402                0.25959369                0.17039473                0.03325566                0.68873045
               0.03241793                7.99503638               61.06231750                0.99996335               -0.03252636               -0.02848953                0.09623675               -0.00003280               -0.00392191                0.01828933
               1.03209267                7.98815724               61.06392595                0.99999995               -0.03586989               -0.03606090                0.11992261               -0.00000802               -0.00668230                0.00102310
               2.03170053                7.98128666               61.06548201                0.26697890               -0.04297188               -0.04318353                0.14265352               -0.00128793               -0.01045350               -0.00481470
               3.03123323                7.97439993               61.06702239                0.01417716               -0.27409502               -0.44261363                0.16377678                0.87494332                0.10162661               -0.07089901
               4.02621863                7.97720846               61.07084653                0.01110036               -0.45297616               -0.96777704                0.21995203                2.04207504                0.28369854               -0.16065928
               5.02217371                7.98969440               61.07550355                0.01000000               -0.57997359               -0.37983910                0.19819245                2.42243534                0.45485254                0.04424167
               6.01461916                8.00390996               61.08217247                0.01000000               -0.70626681               -0.11923599                0.21176368                1.86091493                0.63894737                0.24866839
               7.00804837                8.01096916               61.08975849                0.01250706               -0.47259818               -0.19533057                0.21109556                1.04940298                0.59623823                0.31266130
               8.00516720                8.01151433               61.09492331                0.01000002               -0.21457635               -0.28291906                0.22698400                0.31137591                0.64406965                0.31948080
               9.00375684                8.00584202               61.10356940                0.01847328               -0.09225659               -0.38380598                0.27000194               -0.02273872                0.53539187                0.72096643
              10.00332207                8.00336344               61.10654907                0.01000000               -0.04347780               -0.02223789                0.18806591                0.12254035                0.23636075                0.63433511
               0.03933486                8.99474941               61.06359537                0.99702094               -0.03294306               -0.02891523                0.09759454                0.00015474                0.00212665                0.01815600
               1.03900543                8.98779695               61.06514210                0.99999999               -0.03662995               -0.03622040                0.12103215                0.00005770                0.00150460                0.00261498
               2.03860226                8.98085114               61.06667777                0.98689566               -0.04428020               -0.04354801                0.14492233               -0.00084573               -0.00317922               -0.00699297
               3.03811983                8.97390051               61.06814454                0.39947223               -0.05030393               -0.04952325                0.16550491               -0.01916503                0.03349809               -0.01818735
               4.03759618                8.96660638               61.07044983                0.01000000               -0.44749501               -0.52502640                0.01995890                1.63161121                0.30296297               -0.09888456
               5.02916992                8.98815598               61.07806232                0.01000000               -0.96171070                0.10415384                0.19489692                1.90966446                0.62908185                0.05345442
               6.01836197                9.00431697               61.08579785                0.01250258               -0.85486511                0.09729016                0.20695866                1.06216248                0.61224164                0.15685307
               7.01207262                9.01065098               61.09170235                0.01000002               -0.51080076               -0.02305776                0.19967245                0.44273092                0.59435118                0.05459683
               8.00814595                9.00952249               61.09818338                0.01000006               -0.35915921               -0.09493395                0.16921293               -0.14608571                0.91360613                0.29477659
               9.00488944                9.00356196               61.10943836                1.00000000               -0.18970610               -0.14080576                0.17866258               -0.24105697                0.58244981                0.31128265
              10.00435183                9.00326927               61.10898650                0.99797301               -0.05376077               -0.03184919                0.18030286                0.03688616               -0.00240081                0.13462630
               0.04632595                9.99445808               61.06479228                0.99920724               -0.03338627               -0.02913335                0.09895542               -0.00341523                0.01474441                0.01430388
               1.04599209                9.98743283               61.06633965                0.99562641               -0.03729442               -0.03641149                0.12242450               -0.00345306                0.01813938                0.00162181
               2.04558006                9.98041570               61.06795359                0.99305999               -0.04486957               -0.04354470                0.14684420               -0.00338841                0.01913593               -0.00350140
               3.04509470                9.97340946               61.06953628                0.99999998               -0.04923367               -0.04910439                0.16733598                0.01209887                0.05638553               -0.00441735
               4.04459539                9.96670793               61.07192945                0.01419270               -1.12191433                0.01015539                0.01992472                1.61832145                0.35193686               -0.00043003
               5.02265641                9.99177748               61.08033215                0.01000001               -1.56139889                0.36215021                0.13183820                1.30603984                0.65019889                0.01497776
               6.01336741               10.00585576               61.08803257                0.01000000               -0.54794728                0.15387936                0.17677092                0.43707089                0.48104359                0.07405072
               7.01169746               10.01050801               61.09218508                0.01000001               -0.20164555               -0.01429668                0.18649811                0.15047860                0.57870245               -0.04394647
               8.00933450               10.00961565               61.10101771                0.01000000               -0.32542681                0.00931564                0.14499934               -0.25525049                0.85860650                0.26087597
               9.00518893               10.00302591               61.10913393                0.99797460               -0.23446625               -0.05360552                0.17966267               -0.31451047                0.43212836                0.00356075
              10.00464517               10.00272646               61.10868153                0.99195647               -0.05437533               -0.05428094                0.18130823               -0.00061025                0.00280141               -0.00313809
              -0.05997986                0.00450894               62.04628729                0.98867685               -0.02165521               -0.02206610                0.06974985                0.00205453               -0.00906672                0.00899581
               0.93980359                0.00083929               62.04980002                0.99078411               -0.02242609               -0.02374379                0.07515555                0.00088527               -0.00969422               -0.00144301
               1.93957162               -0.00280466               62.05329921                0.01039001                0.01307970               -0.02540735                0.08053164                0.21744146               -0.04024863               -0.00390496
               2.94006518               -0.00209015               62.05619626                0.01000000               -0.08188401                0.10809834                0.08362878                0.18885383               -0.08611137                0.03178160
               3.93793394                0.00430032               62.05883957                0.01000000               -0.35906825                0.14864046                0.08028980                0.38994224               -0.14438937                0.03197891
               4.93288382                0.01696621               62.06054945                0.01000001               -0.96039395                0.20671200                0.09978868                0.98294524               -0.19827243                0.03661961
               5.91872606                0.04154879               62.06117182                0.35011956               -0.72189466               -0.03046984                0.09280198                1.10723876               -0.09917926               -0.00058122
               6.91844592                0.04405439               62.06394008                0.99963875               -0.02830277               -0.03121275                0.09508508                0.00032941                0.00631458               -0.00401865
               7.91816000                0.04661568               62.06667276                1.00000000               -0.02890871               -0.03184783                0.09705917                0.00025964                0.00590345               -0.00083334
               8.91786775                0.04923249               62.06943122                0.99657414               -0.02954833               -0.03247730                0.09917479                0.00029795                0.00594906                0.00114314
               9.91756904                0.05190483               62.07216072                0.99882922               -0.02987123               -0.03311953                0.10128838               -0.00247726                0.00480955                0.00520154
              -0.05628967                1.00428827               62.04709522                0.99906475               -0.02410894               -0.02321103                0.07764669                0.00125366                0.00132709                0.00951258
               0.94346924                1.00060185               62.05060787                0.01000000               -0.02497876               -0.02495609                0.08303112                0.00009794                0.00449856               -0.00458130
               1.94321075                0.99694126               62.05418540                0.01000000               -0.25340069                0.02976809                0.08846578                0.15044881               -0.01953335                0.02042184
               2.93840123                0.99899083               62.05721562                0.01000000               -0.54527880                0.10613023                0.09720143                0.45996691               -0.07198151                0.05191967
               3.93230518                1.00578673               62.05978407                0.01000000               -0.71560950                0.12210687                0.08712640                0.83657292               -0.11944350                0.04852998
               4.92408904                1.01903333               62.06170435                0.01000000               -0.80254118                0.04886708                0.09900414                1.52211863               -0.17313274                0.04436586
               5.91625435                1.04124409               62.06225546                0.01000001               -0.40866334               -0.49129184                0.11063501                1.41932351               -0.10933919                0.09067125
               6.91591577                1.04374227               62.06495592                0.86126448               -0.03404028               -0.03382947                0.11290751               -0.00009562               -0.00077584               -0.00505388
               7.91557355                1.04629720               62.06768482                1.00000000               -0.03448067               -0.03445745                0.11488794               -0.00004784                0.00101450               -0.00106578
               8.91522616                1.04890772               62.07042458                1.00000000               -0.03508087               -0.03509891                0.11694867               -0.00008945                0.00097321                0.00125213
               9.91487193                1.05157363               62.07315355                0.99445589               -0.03542244               -0.03571115                0.11895568               -0.00272742                0.00049008                0.00697577
              -0.05258194                2.00404471               62.04791577                0.01229015               -0.02654969                0.08456712                0.08553758                0.09250750                0.00384825                0.09428211
               0.94715256                2.00034017               62.05135155                0.01000000               -0.16132196               -0.06388617                0.09091420                0.10507567                0.04194015                0.08631805
               1.94419162                1.99779070               62.05555301                0.01000001               -0.33667521               -0.01164397                0.10345355                0.37342623                0.03180860                0.08164135
               2.94041905                2.00003245               62.05866614                0.01000000               -0.47843603               -0.00662757                0.10990150                0.93850910               -0.03657072                0.08215537
               3.93462290                2.00674246               62.06131645                0.01000000               -0.62751138               -0.01124831                0.11500086                1.49847337               -0.07032174                0.08571559
               4.92786883                2.01794355               62.06339010                0.01000001               -0.61096513               -0.31152521                0.11902779                2.06000838               -0.09886071                0.09964265
               5.92240359                2.03172295               62.06516671                0.01145228               -0.72389658               -0.59428331                0.13304679                1.97611578               -0.15144042                0.15177990
               6.91339090                2.04337780               62.06595374                0.01000003               -0.47050011               -0.32983334                0.13059987                1.14324372               -0.09962301                0.11290062
               7.91299359                2.04592653               62.06869218                0.08419096               -0.04006815               -0.03943431                0.13267294                0.00384472               -0.00309599               -0.00250737
               8.91258953                2.04853052               62.07141770                1.00000000               -0.04054614               -0.04037354                0.13464998               -0.00014302               -0.00228736               -0.00044429
               9.91218267                2.05119060               62.07417725                0.99999996               -0.04068642               -0.04093474                0.13652660               -0.00274061               -0.00078782                0.00703046
              -0.04703043                3.00597962               62.05042369                0.01000001               -0.11448000                0.19899490                0.12616112                0.17820442                0.00329280                0.21505567
               0.95182477                2.99932413               62.05397806                0.01000000               -0.09912874               -0.18978906                0.12091160                0.38276033                0.01175804                0.21249110
               1.95098700                2.99670838               62.05746097                0.01000000               -0.18025626               -0.23998717                0.11268475                0.94447218                0.01567475                0.11217290
               2.94821965                2.99885828               62.06055660                0.01000000               -0.33117257               -0.18519010                0.12552578                1.48834552                0.00343347                0.10233366
               3.94436354                3.00556176               62.06337000                0.01198423               -0.39554664               -0.25417600                0.13458839                1.81452246               -0.01311100                0.09597086
               4.94030871                3.01280283               62.06578698                0.01000000               -0.70105633               -0.36378295                0.14381479                2.39024259               -0.06233561                0.12159134
               5.93034242                3.02935842               62.06744979                0.01000001               -0.78658261               -0.43145825                0.14921274                2.45138283               -0.09030095                0.17265949
               6.92457706                3.03714560               62.06933606                0.01000000               -0.99223437               -0.51583276                0.15700679                2.18689895               -0.16114051                0.25570850
               7.91049773                3.04550852               62.06968042                0.01428255               -0.73089179               -0.21565230                0.15637974                1.65301509               -0.12793535                0.18460745
               8.90995922                3.04810025               62.07237910                0.01000000               -0.05003933               -0.57950753                0.15240639                1.29787397               -0.00601365                0.15996100
               9.90949694                3.05075494               62.07517186                0.99999998               -0.04622807               -1.32544365                0.15426872                1.60486162               -0.00188019                0.19330681
              -0.03570688                4.00802461               62.05373556                0.01000000               -0.02141188                0.05399233                0.09625762                0.43893261               -0.00478026                0.26694060
               0.96407900                3.99654439               62.05668717                0.01000000               -0.03731040               -0.38982951                0.11099653                0.89765237                0.01148897                0.18970998
               1.96354691                3.99299095               62.05972867                0.01000000               -0.13732064               -0.41270237                0.12617393                1.54486583                0.03217291                0.12205123
               2.96133259                3.99632865               62.06275161                0.01199006               -0.32890564               -0.28128032                0.13748311                1.81661477                0.02606208                0.08665170
               3.95696880                4.00165894               62.06540127                0.01000000               -0.47277850               -0.44787719                0.14850597                2.17941459                0.01859709                0.08730899
               4.95187702                4.01066789               62.06807479                0.01000001               -0.49401604               -0.33167035                0.15751952                2.54675712                0.02400796                0.14080172
               5.94708848                4.02309379               62.07074924                0.01000001               -0.54491189               -0.60434409                0.16606024                2.88432475                0.00733354                0.24575036
               6.94097878                4.03306115               62.07308501                0.01207171               -0.59946180               -0.50685228                0.16987131                2.75985024               -0.06692018                0.28564302
               7.93509924                4.04161349               62.07443792                0.01116916               -0.38390933               -0.64026270                0.17296875                2.59766449               -0.09241497                0.40343055
               8.93330059                4.03694037               62.07658742                0.01000000                0.19356438               -1.09123237                0.18211661                1.65797643                0.00667849                0.41128139
               9.93897053                4.02468173               62.07992812                0.01000001                0.56699359               -2.02603915                0.19847674                1.43589642                0.06779577                0.41262115
              -0.01529133                5.00705946               62.05707488                0.01000003                0.01028042               -0.67483392                0.09654878                1.07257170               -0.00069874                0.26400728
               0.98481148                4.99152754               62.05956923                0.01000000               -0.13043112               -0.44228368                0.11615681                1.69081429                0.00812133                0.19493818
               1.98210005                4.98845434               62.06209239                0.01000001               -0.44637611               -0.36090682                0.13152516                2.10229877                0.01476263                0.10182468
               2.97588396                4.99323267               62.06468411                0.01000000               -0.42437290               -0.56774494                0.14481996                2.33981438                0.04490308                0.04727281
               3.97361259                4.99660422               62.06756023                0.01000001               -0.30374729               -0.50861100                0.15845427                2.47862192                0.09457740                0.08656699
               4.96980901                5.00616942               62.07092237                0.01000001               -0.39884677               -0.50537428                0.17241048                2.89279231                0.13802379                0.17135178
               5.96563566                5.01727154               62.07442027                0.01196766               -0.42773231               -0.58712804                0.18042189                2.91349794                0.08844769                0.23420714
               6.96125436                5.02700855               62.07680376                0.01029044               -0.35319271               -0.65914334                0.18502304                2.76324246                0.02746464                0.32523022
               7.95857180                5.03270326               62.07928810                0.01000000               -0.06019268               -0.94737013                0.18898914                2.23386690                0.06637973                0.49826271
               8.96005051                5.02627560               62.08268032                0.01000000                0.20801694               -1.01536063                0.19899258                1.31827804                0.08150879                0.59715163
               9.96273214                5.01023415               62.08563232                0.01385256                0.26816323               -1.05476792                0.22207244                0.61163312                0.05994529                0.52419615
               0.01680840                5.99452793               62.06061249                0.24826538               -0.03079865               -0.64017197                0.09034952                1.26618465               -0.00382679                0.14274225
               1.01650041                5.98769871               62.06270299                0.01000001               -0.64603237               -0.20956562                0.11548056                1.49000912               -0.03128806                0.10146766
               2.00388775                5.98577282               62.06425768                0.01145058               -0.82607104               -0.40213493                0.13791648                1.90762783               -0.01936411                0.04678994
               2.99997899                5.98497375               62.06640866                0.01000001               -0.51416317               -0.58313417                0.13828101                2.21829989                0.07738019                0.00117602
               3.99360449                5.99148672               62.06988706                0.01000001               -0.54567268               -0.61212043                0.16896416                2.63253507                0.21637201                0.04714318
               4.98906554                6.00056041               62.07392232                0.01196969               -0.45425940               -0.58320744                0.18563481                2.80782936                0.20833989                0.12759932
               5.98451930                6.01135122               62.07730582                0.01026099               -0.41268170               -0.57678176                0.19378175                2.74487805                0.19383769                0.21072970
               6.98081191                6.01987828               62.08111366                0.01000000               -0.20048863               -0.65265420                0.19900665                2.38252856                0.25179269                0.41616732
               7.98050953                6.02266608               62.08572582                0.01000000                0.06616789               -0.89435663                0.20851866                1.70258548                0.28294540                0.66454072
               8.98213526                6.01663315               62.09021550                0.01266083                0.13882807               -0.77966962                0.23042396                0.85422755                0.18449581                0.61027773
               9.98328609                6.00358637               62.09281403                0.01000000                0.11508270               -0.37687692                0.25509431                0.35110387                0.08878034                0.47349083
               0.02369081                6.99425602               62.06206602                0.98936106               -0.03240298               -0.02769975                0.09518873                0.00016294               -0.01140286                0.02671520
               1.02336678                6.98733623               62.06396521                0.57710002               -0.03566179               -0.03634074                0.12082229               -0.00099613               -0.02592929                0.00265585
               2.02297757                6.98041164               62.06557930                0.01000003               -0.44153632               -0.28982370                0.14111025                1.01371249                0.01950019                0.00179653
               3.01453605                6.98156999               62.06839378                0.01000000               -0.61504669               -0.60040700                0.13324521                1.67126916                0.26388765               -0.17651888
               4.01067664                6.98436181               62.07178965                0.01207645               -0.42174796               -0.77613057                0.17474421                2.19924291                0.24026830                0.00779846
               5.00610109                6.99450527               62.07582042                0.01029043               -0.47306466               -0.61153937                0.19503392                2.66055364                0.29040249                0.05824847
               6.00121534                7.00573591               62.08043160                0.01000000               -0.42555086               -0.42148706                0.20107320                2.42933561                0.39907029                0.25855362
               6.99759007                7.01395547               62.08644714                0.01000000               -0.26733514               -0.46839065                0.20900514                1.78541252                0.53800356                0.48527119
               7.99586864                7.01481613               62.09359232                0.01265191               -0.06876508               -0.57049424                0.22847658                1.04501572                0.39238415                0.54670697
               8.99621477                7.01068221               62.09627838                0.01000002               -0.00104302               -0.52182435                0.23191288                0.47115208                0.09087583                0.73837969
               9.99584778                7.00269662               62.09745983                0.01000000               -0.03669920               -0.01318411                0.23273383                0.20125240                0.00248034                0.69005499
               0.03065125                7.99397394               62.06327911                0.99999999               -0.03263745               -0.02836077                0.09600178               -0.00011037               -0.00402308                0.01861297
               1.03032488                7.98697190               62.06513022                1.00000000               -0.03615062               -0.03631619                0.12078206               -0.00007496               -0.00744427                0.00042718
               2.02992824                7.97997634               62.06691447                0.27105505               -0.04353369               -0.04381172                0.14455187               -0.00127182               -0.01228933               -0.00358213
               3.02945420                7.97296561               62.06867850                0.01428507               -0.26370871               -0.45546907                0.16549451                0.89660435                0.10750417               -0.07251592
               4.02465407                7.97596411               62.07286553                0.01117109               -0.42758448               -0.95460370                0.17998325                2.03932281                0.27210177               -0.17677890
               5.02090251                7.98832962               62.07741942                0.01000000               -0.54991258               -0.38914833                0.19434495                2.41852202                0.42970883                0.08118108
               6.01365581                8.00292148               62.08423939                0.01000000               -0.67312924               -0.12659196                0.20251940                1.91730021                0.61292287                0.27861100
               7.00743993                8.01051047               62.09187643                0.01263232               -0.44863566               -0.19380229                0.20949904                1.11716617                0.57191903                0.32034373
               8.00468310                8.01125620               62.09714268                0.01000002               -0.18810548               -0.26819821                0.21160402                0.39922897                0.63954886                0.30414800
               9.00367782                8.00619667               62.10573420                0.01842158               -0.07003860               -0.33961090                0.19666919                0.05785846                0.54810726                0.77629414
              10.00328233                8.00332269               62.10843268                0.01000000               -0.03954909                0.04236593                0.18836150                0.15875721                0.25874818                0.66131561
               0.03769268                8.99368881               62.06456967                0.99663866               -0.03298058               -0.02870723                0.09702410                0.00014022                0.00195207                0.01858195
               1.03736287                8.98660990               62.06635420                0.99999999               -0.03671284               -0.03637630                0.12154894                0.00002234                0.00230560                0.00245788
               2.03695842                8.97953540               62.06814357                0.99889010               -0.04412507               -0.04404751                0.14629536               -0.00046602               -0.00301933               -0.00575179
               3.03648037                8.97246061               62.06981847                0.24471260               -0.04296697               -0.05063922                0.16921612               -0.00673777               -0.04292737               -0.01745078
               4.03609908                8.96526973               62.07080156                0.01000000               -0.44831081               -0.54669963                0.16026788                1.63737597                0.32572193               -0.15740383
               5.02751416                8.98672230               62.07988281                0.01000000               -0.93592922                0.09022007                0.17619896                1.89587414                0.67909337                0.08000686
               6.01738050                9.00320407               62.08779008                0.01263775               -0.79577377                0.08235956                0.19771294                1.08739387                0.57723769                0.17610211
               7.01159868                9.01007942               62.09366960                0.01000002               -0.46067381               -0.04128095                0.19520500                0.48093104                0.54124466                0.05617866
               8.00816702                9.00945217               62.09993535                0.01000000               -0.31466148               -0.09633625                0.18068304               -0.07579593                0.85732896                0.26588224
               9.00530545                9.00388999               62.11120910                1.00000000               -0.16980733               -0.14187886                0.17554526               -0.19600586                0.58168573                0.29071374
              10.00477088                9.00354393               62.11079334                0.99834962               -0.05345750               -0.01640027                0.18111173                0.05731691               -0.00244442                0.12972499
               0.04481187                9.99339979               62.06577846                0.99881563               -0.03331365               -0.02890138                0.09803790               -0.00362337                0.01498247                0.01481934
               1.04447873                9.98624437               62.06756325                0.99525889               -0.03718263               -0.03655299                0.12262138               -0.00363438                0.02011979                0.00158392
               2.04406822                9.97909539               62.06944541                0.99768444               -0.04468072               -0.04400092                0.14783399               -0.00359816                0.02032544               -0.00250572
               3.04358512                9.97195283               62.07122390                0.99999998               -0.04641629               -0.05077817                0.17057169                0.00721053               -0.01932125               -0.00631024
               4.04313989                9.96503012               62.07230663                0.02254703               -1.13497258               -0.02396187                0.16525698                1.61314032                0.36078680               -0.03462621
               5.02088567                9.99013402               62.08175110                0.01000001               -1.55466587                0.34117176                0.15341230                1.31407883                0.69000658                0.03071820
               6.01204657               10.00456867               62.08975655                0.01000000               -0.50376077                0.13646084                0.17739631                0.44414865                0.46992338                0.07894336
               7.01081045               10.00968485               62.09402294                0.01000000               -0.13449795               -0.03945739                0.18431352                0.15921687                0.53774370               -0.03956839
               8.00935661               10.00932948               62.10260812                0.01000000               -0.25722570               -0.01226921                0.17144175               -0.19732907                0.82328417                0.23257328
               9.00566594               10.00335909               62.11092668                0.99834955               -0.21179138               -0.05309042                0.17886482               -0.28069108                0.44012797                0.00344212
              10.00512079               10.00299469               62.11051102                0.99214035               -0.05451503               -0.05492491                0.18445732               -0.00144952                0.00313822               -0.00307180
              -0.06361034                0.00375159               63.04698562                0.98877397               -0.02160363               -0.02218479                0.06990469                0.00202863               -0.00908275                0.00898969
               0.93617362               -0.00002249               63.05054941                0.98930527               -0.02228349               -0.02367386                0.07470278                0.00079945               -0.00972060               -0.00149501
               1.93594399               -0.00376945               63.05409933                0.01000000                0.01086001               -0.02514960                0.07947007                0.23386834               -0.03952611               -0.00389028
               2.93639082               -0.00282616               63.05706223                0.01000001               -0.07868073                0.10588919                0.08677564                0.20384590               -0.09249242                0.02935777
               3.93437037                0.00367304               63.05958810                0.01000000               -0.33281462                0.13392276                0.08494084                0.40093400               -0.13816185                0.03007137
               4.92973453                0.01619692               63.06157638                0.01000001               -0.91705872                0.18943218                0.06994982                0.97763265               -0.25707037                0.09371365
               5.91602920                0.04036993               63.06210072                0.34650833               -0.69929570               -0.03057268                0.09305143                1.08522166               -0.10475679               -0.00051629
               6.91574862                0.04290940               63.06489096                0.99967006               -0.02829919               -0.03133627                0.09508816                0.00031745                0.00648964               -0.00399868
               7.91546322                0.04550644               63.06764121                1.00000000               -0.02878758               -0.03184195                0.09666090                0.00022188                0.00595328               -0.00080967
               8.91517286                0.04816152               63.07041967                1.00000000               -0.02925671               -0.03230438                0.09822999                0.00026417                0.00611362                0.00103536
               9.91487808                0.05087473               63.07316937                0.99842970               -0.02947826               -0.03280818                0.09980201               -0.00267679                0.00507279                0.00491884
              -0.05981598                1.00352974               63.04787430                0.99987872               -0.02418835               -0.02339231                0.07822021                0.00131745                0.00134306                0.00949969
               0.93994214                0.99974078               63.05143789                0.01117548               -0.02497580               -0.02494248                0.08300954                0.00010201                0.00452418               -0.00463791
               1.93968451                0.99597905               63.05506698                0.01000000               -0.26170527                0.03611434                0.08785754                0.17113983               -0.01859144                0.02345383
               2.93470803                0.99823274               63.05816667                0.01000000               -0.54081660                0.09823469                0.09739598                0.49124457               -0.08714737                0.05144884
               3.92886817                1.00501227               63.06064274                0.01000000               -0.67728106                0.10637514                0.09254790                0.84869294               -0.14326877                0.06778045
               4.92116241                1.01809124               63.06261908                0.01000000               -0.76714975                0.03660567                0.08688952                1.50977735               -0.24462561                0.11147257
               5.91352518                1.04006420               63.06336628                0.01000001               -0.39894386               -0.48902472                0.11160938                1.40259926               -0.10020587                0.09295945
               6.91318353                1.04259603               63.06608901                0.85285411               -0.03429044               -0.03407955                0.11373154               -0.00012137               -0.00054743               -0.00509983
               7.91283937                1.04518802               63.06883555                1.00000000               -0.03460860               -0.03457683                0.11529899                0.00000362                0.00105347               -0.00105907
               8.91249136                1.04783848               63.07159427                1.00000000               -0.03506295               -0.03506744                0.11687480               -0.00001100                0.00105455                0.00118061
               9.91213811                1.05054664               63.07434212                0.99999999               -0.03532515               -0.03558442                0.11844908               -0.00282299                0.00060847                0.00677451
              -0.05600606                2.00328375               63.04877565                0.02567033               -0.02675895                0.03854032                0.08654838                0.05007068                0.00387574                0.10423246
               0.94372635                1.99947866               63.05226212                0.01000000               -0.15595604               -0.02999370                0.09130864                0.10056263                0.04501409                0.09282672
               1.94087482                1.99695283               63.05657632                0.01000001               -0.32719303               -0.01523385                0.09880501                0.38941087                0.03973334                0.08598438
               2.93718249                1.99913854               63.05976313                0.01000000               -0.46945498               -0.02016219                0.11301211                0.96859691               -0.03668783                0.08918192
               3.93148572                2.00580055               63.06246375                0.01000000               -0.61521757               -0.02685032                0.11779346                1.52407397               -0.08476706                0.11664447
               4.92487814                2.01692904               63.06455320                0.01000001               -0.59546641               -0.32157277                0.12162053                2.06132241               -0.09152679                0.13241144
               5.91957640                2.03058944               63.06650762                0.01145837               -0.71278863               -0.59076954                0.13428883                1.97010087               -0.15060574                0.15628314
               6.91062237                2.04222780               63.06726773                0.01000003               -0.46777774               -0.32671038                0.13224279                1.14361571               -0.10176675                0.11606012
               7.91022084                2.04481490               63.07002477                0.08474980               -0.04041748               -0.03951278                0.13389145                0.00379630               -0.00303042               -0.00174817
               8.90981402                2.04746017               63.07276826                1.00000000               -0.04077737               -0.04061345                0.13552277               -0.00001973               -0.00231743               -0.00049331
               9.90940529                2.05016304               63.07554546                0.99393496               -0.04087273               -0.04113441                0.13711256               -0.00283494               -0.00082415                0.00695338
              -0.05120440                3.00430055               63.05156438                0.01000001               -0.05112953                0.20463067                0.08160154                0.34512561               -0.05113526                0.13626084
               0.94828430                2.99914090               63.05510114                0.01000000               -0.04913744               -0.19222618                0.08444312                0.43302087               -0.01238905                0.22631719
               1.94781285                2.99567437               63.05860122                0.01000000               -0.15260215               -0.25259957                0.11532720                0.92887951                0.01187345                0.11686976
               2.94523226                2.99782949               63.06181745                0.01000000               -0.31268471               -0.20144640                0.12717288                1.51496640                0.00197064                0.11312953
               3.94155916                3.00447526               63.06472554                0.01198797               -0.38161453               -0.26876843                0.13787572                1.83857573               -0.01408088                0.11104345
               4.93759997                3.01165979               63.06723829                0.01000000               -0.69653638               -0.37175618                0.14656486                2.41357208               -0.06528115                0.13874089
               5.92762843                3.02824881               63.06895381                0.01000001               -0.78847944               -0.42735025                0.15098645                2.47075791               -0.09086347                0.17794651
               6.92183038                3.03606183               63.07089657                0.01000000               -0.99727507               -0.50413746                0.15548221                2.19560831               -0.16574062                0.25842284
               7.90768293                3.04439776               63.07121033                0.01438890               -0.73437730               -0.20229070                0.15258029                1.65421614               -0.13132351                0.18465454
               8.90714283                3.04702621               63.07391170                0.01000001               -0.05036194               -0.58074857                0.15417334                1.30221494               -0.00685936                0.16431595
               9.90667569                3.04972396               63.07672268                1.00000000               -0.04671471               -1.33043517                0.15579377                1.60943333               -0.00187634                0.20700488
              -0.03878425                4.00737636               63.05476298                0.01000000               -0.02028062                0.09679489                0.10014019                0.48998371               -0.01222297                0.24636224
               0.96101295                3.99563414               63.05780214                0.01000000               -0.02259660               -0.43408135                0.11338346                0.92619593               -0.00105089                0.18375871
               1.96076382                3.99190084               63.06099527                0.01000000               -0.11660077               -0.42502289                0.12508678                1.56145697                0.02938936                0.12842330
               2.95868093                3.99510961               63.06414268                0.01198779               -0.31684405               -0.29929287                0.14051933                1.84156784                0.02347747                0.09286628
               3.95442694                4.00042518               63.06690111                0.01000000               -0.46524487               -0.46357456                0.15173433                2.20896529                0.01480181                0.09705719
               4.94937604                4.00949391               63.06966131                0.01000001               -0.49187120               -0.33536716                0.15999001                2.58576413                0.01896379                0.15077572
               5.94458952                4.02204243               63.07241214                0.01000001               -0.54952259               -0.59458690                0.16587329                2.92528435               -0.00269804                0.25402040
               6.93838558                4.03214506               63.07477065                0.01209548               -0.61243696               -0.49051401                0.16585624                2.79412543               -0.08372067                0.29029158
               7.93234078                4.04076909               63.07612879                0.01124652               -0.39267274               -0.61787172                0.16462155                2.60933394               -0.10901527                0.40448527
               8.93053213                4.03584520               63.07838969                0.01000000                0.19288463               -1.07760207                0.17494337                1.65924489               -0.01081238                0.44027904
               9.93619847                4.02355433               63.08193367                0.01000001                0.56663419               -2.03019703                0.18582638                1.44817061                0.04500035                0.48239363
              -0.01792029                5.00623645               63.05804722                0.01000000                0.02040290               -0.69597442                0.10024741                1.08905108               -0.00159811                0.25153061
               0.98228374                4.99045927               63.06074585                0.01000000               -0.12565950               -0.45620296                0.11784381                1.70798549                0.00570301                0.19402326
               1.97956652                4.98717392               63.06342648                0.01000001               -0.43722279               -0.36896475                0.13524257                2.11825007                0.00798117                0.10370870
               2.97353928                4.99184364               63.06614581                0.01000000               -0.41061805               -0.61193462                0.14931444                2.35117913                0.04274394                0.04955224
               3.97135416                4.99520377               63.06916587                0.01000001               -0.29206425               -0.53715155                0.16326529                2.53969417                0.09095214                0.09356549
               4.96769800                5.00495245               63.07264672                0.01000001               -0.39355932               -0.50164113                0.17252770                2.95681880                0.13065403                0.18382510
               5.96348297                5.01635707               63.07621331                0.01198528               -0.43558839               -0.57691526                0.17745342                2.97333647                0.07290699                0.24850459
               6.95898623                5.02625155               63.07863569                0.01032706               -0.36567572               -0.64390111                0.18012568                2.81533458                0.00693017                0.33790215
               7.95616946                5.03204033               63.08115709                0.01000000               -0.07218708               -0.92644388                0.18224629                2.27760830                0.04037514                0.51636000
               8.95754249                5.02547417               63.08462719                0.01000000                0.20256905               -0.98823604                0.18639751                1.34251435                0.05860556                0.63601401
               9.96022084                5.00912001               63.08781841                0.01000000                0.26783505               -1.05063560                0.21288084                0.62689162                0.04879732                0.57434861
               0.01455112                5.99345687               63.06152131                0.23129807               -0.03159338               -0.65247841                0.09158422                1.27887555               -0.00444837                0.14150129
               1.01423519                5.98651008               63.06386958                0.01000001               -0.64033304               -0.21576108                0.11789923                1.50024690               -0.03418790                0.10261372
               2.00174446                5.98452155               63.06563795                0.01145614               -0.82802652               -0.40399813                0.13809672                1.88132270               -0.02216385                0.05088625
               2.99767466                5.98287092               63.06792961                0.01000001               -0.48162246               -0.74455369                0.16405347                2.36157377                0.06463163               -0.03593828
               3.99211201                5.98968215               63.07156306                0.01000001               -0.51577752               -0.60321770                0.17141342                2.73319470                0.22286564                0.04895834
               4.98735911                5.99946109               63.07576116                0.01198908               -0.46774331               -0.57659076                0.18293620                2.88563978                0.19977360                0.14374017
               5.98275715                6.01050413               63.07922067                0.01029733               -0.41750451               -0.57089397                0.18919962                2.80480438                0.17730228                0.22758281
               6.97900902                6.01926703               63.08308220                0.01000000               -0.20434137               -0.63756557                0.19368035                2.45190711                0.23331336                0.43352710
               7.97867032                6.02224021               63.08776619                0.01000000                0.06468564               -0.86710881                0.19805808                1.77258636                0.26912263                0.69329577
               8.98030273                6.01608048               63.09246070                0.01281809                0.13871463               -0.74935979                0.21599676                0.89511262                0.17798982                0.64520678
               9.98144461                6.00254162               63.09530761                0.01000000                0.11418809               -0.36117661                0.24223766                0.36660009                0.08554479                0.49675155
               0.02155080                6.99318688               63.06301885                0.99040221               -0.03267991               -0.02759434                0.09543374               -0.00007606               -0.01106744                0.02884352
               1.02122400                6.98614405               63.06518082                0.53778498               -0.03593309               -0.03666446                0.12223973               -0.00098476               -0.02860664                0.00414352
               2.02083214                6.97909395               63.06699725                0.01617806               -0.28069200               -0.29354006                0.14240037                0.84852583               -0.01771948                0.00448430
               3.01561016                6.97695256               63.06938086                0.01000000               -0.57021286               -0.56729992                0.14506466                1.69015295                0.34299987               -0.25883172
               4.00942788                6.98313942               63.07357464                0.01209304               -0.55106733               -0.75105849                0.18081056                2.36379017                0.27170045                0.01351642
               5.00458881                6.99342063               63.07771016                0.01032684               -0.48273818               -0.61027318                0.18850153                2.69173499                0.27997696                0.07314069
               5.99977312                7.00493919               63.08242282                0.01000000               -0.41502639               -0.41902147                0.19712321                2.48715291                0.38297539                0.27282650
               6.99628829                7.01350023               63.08849624                0.01000000               -0.24826902               -0.45567279                0.20085228                1.86667002                0.52512873                0.50120392
               7.99480774                7.01469815               63.09576787                0.01279387               -0.05724772               -0.54929757                0.20852640                1.12084119                0.37985103                0.56311516
               8.99514333                7.01048697               63.09844259                0.01003478               -0.00885870               -0.48216496                0.21062936                0.51622934                0.07665885                0.73737725
               9.99463056                7.00189648               63.09969227                0.01000003               -0.05127690                0.03573156                0.22254972                0.22372452               -0.00886573                0.67459731
               0.02863526                7.99290498               63.06423753                1.00000000               -0.03268364               -0.02825873                0.09573694               -0.00011669               -0.00428792                0.01887213
               1.02830842                7.98577679               63.06634160                0.99999995               -0.03643933               -0.03654908                0.12154246               -0.00002954               -0.00798050               -0.00015168
               2.02790647                7.97865075               63.06837305                0.27181481               -0.04380835               -0.04443918                0.14639375               -0.00032030               -0.01562256               -0.00252325
               3.02743225                7.97152492               63.07033228                0.01438919               -0.24933617               -0.29732370                0.16499978                0.75016771                0.08858455               -0.03751963
               4.02291975                7.97466098               63.07444619                0.01124852               -0.40191110               -0.95611063                0.17200417                2.01745500                0.26607718               -0.14384241
               5.01939403                7.98725563               63.07939044                0.01000000               -0.52495724               -0.39981016                0.19639403                2.43185879                0.42784668                0.08301258
               6.01242060                8.00212370               63.08622286                0.01000000               -0.64052862               -0.13086752                0.19768894                1.96223836                0.59449948                0.28917198
               7.00658346                8.01015358               63.09394847                0.01277773               -0.41600994               -0.19360973                0.20514251                1.17972643                0.55085611                0.32351909
               8.00410040                8.01125426               63.09915539                0.01000002               -0.15772346               -0.26617293                0.19661973                0.46144524                0.60794322                0.30364267
               9.00342899                8.00643718               63.10750278                0.01829313               -0.05001592               -0.31516084                0.16749537                0.12619115                0.52059727                0.75264043
              10.00310009                8.00325625               63.11031630                0.01000000               -0.03289049                0.09444729                0.18277011                0.20710212                0.25056639                0.63315748
               0.03580485                8.99262171               63.06553585                1.00000000               -0.03272017               -0.02840434                0.09607867                0.00017387                0.00194393                0.01892621
               1.03547765                8.98541307               63.06757308                0.99999999               -0.03636221               -0.03651951                0.12168564                0.00012846                0.00190274                0.00259842
               2.03507761                8.97820517               63.06960368                0.99133048               -0.04371811               -0.04444279                0.14723435                0.00062351               -0.00346700               -0.00637214
               3.03460329                8.97100609               63.07152886                0.26795849               -0.05156659               -0.05262619                0.17449993                0.01134172                0.00120638               -0.01556808
               4.03404627                8.96401721               63.07365519                0.01000000               -0.44200081               -0.58278552                0.26248650                1.63912567                0.29359751               -0.11282804
               5.02576327                8.98542443               63.08158630                0.01000000               -0.89631700                0.06998209                0.18705728                1.89586142                0.62849973                0.07107921
               6.01611993                9.00232184               63.08975211                0.01278349               -0.75055095                0.06889978                0.19750252                1.11385222                0.56703248                0.18175250
               7.01075225                9.00962804               63.09560645                0.01000002               -0.41834486               -0.05718079                0.19554045                0.50350799                0.50711301                0.05402494
               8.00775304                9.00937470               63.10179704                0.01000001               -0.25435438               -0.11663445                0.18745258               -0.03241217                0.81658722                0.25838694
               9.00566516                9.00418376               63.11294926                1.00000000               -0.13092849               -0.13888011                0.17248432               -0.14648349                0.57183023                0.28702643
              10.00513447                9.00378543               63.11260873                0.99872131               -0.05306965               -0.00132938                0.18195188                0.08212642               -0.00242941                0.12409132
               0.04305600                9.99233690               63.06675304                0.99844039               -0.03284780               -0.02848080                0.09648099               -0.00393402                0.01533381                0.01518678
               1.04272753                9.98504640               63.06879207                0.99488692               -0.03650394               -0.03666689                0.12220813               -0.00376248                0.01985741                0.00192377
               2.04232593                9.97776189               63.07091027                1.00000000               -0.04402363               -0.04432796                0.14782868               -0.00386828                0.02039715               -0.00301941
               3.04184705                9.97047240               63.07294771                1.00000000               -0.05210022               -0.05336917                0.17533604               -0.01345444                0.02878375               -0.00606588
               4.04128392                9.96300527               63.07523459                0.01000000               -1.14202158               -0.10119405                0.26596717                1.63290843                0.33062553               -0.01661309
               5.01900662                9.98865527               63.08340039                0.01000001               -1.53949425                0.32308407                0.18747511                1.34915663                0.62924575                0.03149800
               6.01049404               10.00350169               63.09158050                0.01000000               -0.47029267                0.11798472                0.18877591                0.45514497                0.46144570                0.08023243
               7.00960077               10.00900996               63.09587135                0.01000000               -0.07987964               -0.06180775                0.18981734                0.15584586                0.51310002               -0.03859963
               8.00889644               10.00892157               63.10444655                0.01000000               -0.17560901               -0.04531243                0.18860583               -0.15317830                0.79049361                0.22396917
               9.00608859               10.00365958               63.11271122                0.99872983               -0.16785857               -0.05241761                0.17804068               -0.24225271                0.43372341                0.00345864
              10.00553927               10.00322966               63.11237068                0.99233198               -0.05493167               -0.05557632                0.18750303               -0.00251099                0.00307147               -0.00308272
              -0.06728909                0.00291139               64.04768539                0.98887952               -0.02154462               -0.02231422                0.07003879                0.00201481               -0.00910261                0.00898534
               0.93249547               -0.00096756               64.05129408                0.98784277               -0.02213185               -0.02360564                0.07421378                0.00069970               -0.00974933               -0.00154355
               1.93226828               -0.00481777               64.05488861                0.01000000                0.01155493               -0.02488816                0.07836169                0.24697002               -0.03777629               -0.00387892
               2.93272657               -0.00371189               64.05793178                0.01000001               -0.08058631                0.10307957                0.09223591                0.21610628               -0.08090149                0.02584480
               3.93065655                0.00279246               64.06053839                0.01000003               -0.37483910                0.14742239                0.09004695                0.45643374               -0.16764443                0.02477092
               4.92522978                0.01675509               64.06194844                0.01211009               -0.86701042                0.15308754                0.08473397                0.93506519               -0.27836280                0.16463748
               5.91331634                0.03900735               64.06303285                0.34122004               -0.60972790               -0.03109753                0.09413138                0.98755800               -0.07718401               -0.00039738
               6.91303523                0.04157832               64.06584184                0.99972115               -0.02829919               -0.03148232                0.09513261                0.00020529                0.00673953               -0.00398411
               7.91275036                0.04421082               64.06860598                1.00000000               -0.02866801               -0.03183502                0.09625016                0.00018268                0.00585980               -0.00084112
               8.91246187                0.04690399               64.07139582                1.00000000               -0.02896325               -0.03212483                0.09722731                0.00022624                0.00590532                0.00112196
               9.91217109                0.04965771               64.07415676                1.00000000               -0.02907726               -0.03246794                0.09822418               -0.00289554                0.00479466                0.00513942
              -0.06338999                1.00268824               64.04865962                1.00000000               -0.02429701               -0.02360497                0.07889111                0.00139913                0.00136463                0.00949595
               0.93636704                0.99879638               64.05226806                0.01111395               -0.02499356               -0.02494929                0.08305721                0.00009070                0.00455200               -0.00469283
               1.93611014                0.99493335               64.05594255                0.01000000               -0.26422622                0.03969558                0.08726592                0.18697659               -0.01475174                0.02301520
               2.93108252                0.99731891               64.05916354                0.01000000               -0.55613694                0.09386020                0.10530284                0.52023160               -0.07708170                0.04996366
               3.92498740                1.00426668               64.06163502                0.01000000               -0.73047629                0.11000438                0.10941826                0.92239949               -0.16667604                0.07557687
               4.91647299                1.01828596               64.06344214                0.01000000               -0.71035475               -0.03912602                0.10055255                1.55971637               -0.27255623                0.17757563
               5.91078031                1.03869638               64.06448765                0.01000001               -0.30187208               -0.48731366                0.11358724                1.31690693               -0.08561898                0.09436330
               6.91043555                1.04126350               64.06723055                0.84433095               -0.03454770               -0.03434415                0.11459916               -0.00003635               -0.00020861               -0.00517443
               7.91008935                1.04389247               64.06999079                1.00000000               -0.03474335               -0.03470107                0.11573190                0.00006676                0.00101910               -0.00112355
               8.90974068                1.04658274               64.07276207                1.00000000               -0.03504661               -0.03503816                0.11681253                0.00005966                0.00096756                0.00124696
               9.90938842                1.04933303               64.07552253                1.00000000               -0.03522624               -0.03543017                0.11790532               -0.00293659                0.00048265                0.00696045
              -0.05947738                2.00243929               64.04964673                0.04031082               -0.02704496                0.00146292                0.08776071                0.02258284                0.00390547                0.08092607
               0.94025217                1.99853345               64.05317772                0.01000000               -0.15186706               -0.02429629                0.09190012                0.08549827                0.04462459                0.07097627
               1.93748528                1.99597615               64.05752911                0.01000001               -0.32271530               -0.01532624                0.09787161                0.40149426                0.04287115                0.08769916
               2.93379787                1.99816532               64.06092638                0.01000000               -0.46738976               -0.02887970                0.11911686                1.00343106               -0.03268771                0.09205802
               3.92813749                2.00499255               64.06367232                0.01000000               -0.59017240               -0.04607090                0.12772737                1.57404680               -0.08886219                0.13273997
               4.92199442                2.01597257               64.06582251                0.01000001               -0.57302699               -0.39082148                0.13250889                2.12851827               -0.08913975                0.15966843
               5.91667695                2.02926108               64.06785249                0.01145371               -0.70780028               -0.58417706                0.13464388                1.95027145               -0.15268677                0.15955344
               6.90783841                2.04089144               64.06859860                0.01000003               -0.46222474               -0.32261802                0.13389058                1.14129490               -0.10307466                0.11736660
               7.90743245                2.04351679               64.07137001                0.08484842               -0.04079592               -0.03974380                0.13516510                0.00392869               -0.00291353               -0.00252145
               8.90702249                2.04620323               64.07412816                1.00000000               -0.04103325               -0.04088021                0.13644699                0.00006569               -0.00224872               -0.00047459
               9.90661179                2.04894911               64.07691950                0.99854122               -0.04107084               -0.04131041                0.13764562               -0.00296052               -0.00079890                0.00706314
              -0.05512666                3.00271750               64.05205572                0.01000000               -0.03331912                0.20148660                0.05966217                0.43168114               -0.01720216                0.16537638
               0.94454015                2.99831045               64.05566692                0.01000000               -0.01825893               -0.19793011                0.06105575                0.47414251                0.01721856                0.19572468
               1.94450816                2.99462683               64.05976752                0.01000000               -0.12027058               -0.26209930                0.11341275                0.93698689                0.03892096                0.12388651
               2.94213473                2.99674131               64.06310006                0.01000000               -0.29235366               -0.21538552                0.12991689                1.54084323                0.00550111                0.11679066
               3.93866109                3.00334527               64.06612751                0.01198419               -0.36799553               -0.29163955                0.14280523                1.86684721               -0.01292588                0.11968209
               4.93477482                3.01046953               64.06871828                0.01000000               -0.68971111               -0.38487939                0.15026178                2.42092092               -0.06844204                0.14750312
               5.92486686                3.02701284               64.07046952                0.01000001               -0.78845454               -0.41731936                0.15227288                2.47949175               -0.09401079                0.17875676
               6.91900573                3.03481114               64.07244570                0.01000000               -1.00053628               -0.48817895                0.15454992                2.19170267               -0.17329158                0.25638882
               7.90485614                3.04309759               64.07273203                0.01450412               -0.73480249               -0.18801827                0.15277074                1.64107188               -0.13234272                0.17825211
               8.90430968                3.04576514               64.07546257                0.01051190               -0.05093433               -0.55863855                0.15602380                1.28331006               -0.00613311                0.16199931
               9.90383745                3.04850682               64.07828773                0.99351389               -0.04722322               -1.28576154                0.15721831                1.58270783               -0.00191079                0.20476773
              -0.04202966                4.00646902               64.05573836                0.01000000               -0.01446420                0.13071235                0.09747781                0.53088799               -0.00285357                0.25438680
               0.95782570                3.99457485               64.05895484                0.01000000               -0.00880897               -0.44849449                0.11004036                0.96356347                0.00482196                0.20191550
               1.95779416                3.99073416               64.06223041                0.01000000               -0.09647021               -0.43704998                0.12237790                1.58171559                0.02925173                0.13029200
               2.95589629                3.99385761               64.06556200                0.01198782               -0.30239744               -0.31522606                0.14218627                1.86451538                0.02650586                0.10072644
               3.95174621                3.99915976               64.06843595                0.01000000               -0.45755126               -0.47658443                0.15470287                2.23435119                0.01134324                0.10526985
               4.94674527                4.00827498               64.07127459                0.01000001               -0.49105169               -0.33617321                0.16224976                2.61773808                0.01125456                0.15660139
               5.94192518                4.02091469               64.07406671                0.01000001               -0.55787762               -0.57898684                0.16515185                2.95454182               -0.01903911                0.25673997
               6.93558771                4.03112786               64.07640214                0.01211711               -0.63126435               -0.46780486                0.16161731                2.81425949               -0.10913939                0.28971917
               7.92929989                4.03975643               64.07773035                0.01133045               -0.41541258               -0.58522641                0.15666969                2.62171353               -0.13948142                0.39994770
               8.92727946                4.03503046               64.08008628                0.01000000                0.17413429               -1.04201311                0.16371024                1.68645332               -0.06524485                0.48737176
               9.93278257                4.02323388               64.08364465                0.01000000                0.55031123               -2.00798156                0.16751019                1.49475170               -0.03574316                0.59890797
              -0.02072056                5.00533175               64.05907983                0.01000003                0.02668382               -0.70413484                0.10411950                1.10350909               -0.00177646                0.23754451
               0.97954627                4.98934056               64.06192611                0.01000000               -0.12098614               -0.46294117                0.11900589                1.72142001                0.00359564                0.19086607
               1.97685971                4.98588583               64.06479724                0.01000001               -0.42734147               -0.37571939                0.13643226                2.13432613                0.01008817                0.11042719
               2.97099944                4.99043679               64.06767040                0.01000000               -0.39644886               -0.64188334                0.15289004                2.36889859                0.03828419                0.06752907
               3.96893074                4.99381358               64.07082553                0.01000001               -0.28123972               -0.55513193                0.16621101                2.58966590                0.08315554                0.10647156
               4.96537465                5.00374607               64.07437292                0.01000001               -0.39129580               -0.49516061                0.17237885                3.01388282                0.11233518                0.19423470
               5.96110482                5.01543310               64.07796934                0.01200449               -0.44627311               -0.56106625                0.17390706                3.02640493                0.05090167                0.25588615
               6.95644919                5.02545504               64.08040627                0.01036541               -0.38585035               -0.62197905                0.17486010                2.86524485               -0.02145535                0.34540396
               7.95338781                5.03139306               64.08293303                0.01000000               -0.09439424               -0.89176058                0.17459669                2.33417135               -0.00219048                0.53388507
               8.95456130                5.02492488               64.08640827                0.01000000                0.19689171               -0.96542825                0.17206665                1.39141559                0.01950707                0.68467546
               9.95732565                5.00834719               64.08988993                0.01000000                0.27643439               -1.07931651                0.20084814                0.66826125                0.03453496                0.64440038
               0.01202289                5.99238632               64.06244417                0.21419948               -0.03228704               -0.66075387                0.09279576                1.28627536               -0.00512193                0.13789311
               1.01170002                5.98531603               64.06506097                0.01000001               -0.63192170               -0.21967400                0.11990849                1.50517132               -0.03859899                0.10469470
               1.99938445                5.98321977               64.06701962                0.01145693               -0.81767513               -0.40598027                0.13925570                1.86336696               -0.02087254                0.04958426
               2.99534651                5.98101994               64.06968973                0.01000001               -0.45771007               -0.82230551                0.17591244                2.43282821                0.07279176                0.01640737
               3.99023025                5.98805712               64.07331533                0.01000001               -0.49715563               -0.60322865                0.17527789                2.81012209                0.18115173                0.07958962
               4.98540340                5.99837177               64.07758105                0.01200082               -0.47429740               -0.57036367                0.18042245                2.95570223                0.17795039                0.15051827
               5.98074430                6.00969337               64.08108982                0.01033373               -0.42353753               -0.56214244                0.18503135                2.86502323                0.15520265                0.23757965
               6.97693265                6.01868828               64.08498726                0.01000000               -0.21154107               -0.61708830                0.18786551                2.52631303                0.20678906                0.44348899
               7.97651348                6.02192122               64.08968698                0.01000000                0.06104970               -0.83519095                0.18769763                1.85825571                0.24295626                0.71202295
               8.97815364                6.01572189               64.09453544                0.01298193                0.13948441               -0.72686011                0.20277830                0.94942908                0.16470470                0.67378614
               9.97930317                6.00164755               64.09765879                0.01000000                0.11495256               -0.35836613                0.23158610                0.38483819                0.08097755                0.51404968
               0.01914553                6.99211667               64.06397469                0.99134991               -0.03292852               -0.02759692                0.09582360               -0.00023445               -0.01067296                0.03064671
               1.01881625                6.98494708               64.06641000                0.49569835               -0.03611984               -0.03697132                0.12348255               -0.00103558               -0.03179303                0.00530042
               2.01842314                6.97776622               64.06842731                0.01617683               -0.19987939               -0.29501602                0.14298253                0.76421265               -0.01004384                0.00823046
               3.01481866                6.97399068               64.07129507                0.01000000               -0.53208944               -0.54763613                0.17528056                1.68945102                0.17205606               -0.09647673
               4.00778135                6.98174901               64.07540586                0.01212024               -0.59831082               -0.75252069                0.18299042                2.45176526                0.22210412                0.00616221
               5.00285244                6.99233880               64.07959045                0.01036033               -0.48462881               -0.61290173                0.18698486                2.73603155                0.25904109                0.07771720
               5.99808877                7.00419025               64.08437407                0.01000000               -0.40524229               -0.41588666                0.19361533                2.55089757                0.36217394                0.27860292
               6.99474760                7.01311328               64.09046419                0.01000000               -0.22847288               -0.44088210                0.19345915                1.95454307                0.50166668                0.51090357
               7.99351931                7.01468924               64.09776285                0.01295644               -0.04620215               -0.53106633                0.19360521                1.20242859                0.35827589                0.57039628
               8.99382356                7.01038767               64.10049097                0.01025667               -0.01741061               -0.44895463                0.20149746                0.56329158                0.06068070                0.71740380
               9.99317110                7.00117987               64.10191083                0.01000003               -0.06524535                0.07109156                0.22115742                0.24739194               -0.01762176                0.64698162
               0.02635737                7.99183438               64.06519385                1.00000000               -0.03276171               -0.02824214                0.09570796               -0.00020010               -0.00460572                0.01892088
               1.02602975                7.98457660               64.06756107                0.99959124               -0.03661312               -0.03678459                0.12220864                0.00009631               -0.00901947               -0.00108547
               2.02562511                7.97731945               64.06984235                0.26791541               -0.04385004               -0.04477441                0.14752093                0.00003928               -0.02087443               -0.00032887
               3.02515275                7.97006722               64.07197849                0.01450887               -0.23538322               -0.22284366                0.16544088                0.66607890                0.08160520               -0.04567445
               4.02091744                7.97300671               64.07630562                0.01133140               -0.37349830               -0.97621162                0.18575970                2.00893836                0.25763231               -0.12703769
               5.01768279                7.98611373               64.08134730                0.01000000               -0.49648337               -0.41024285                0.19579136                2.47518585                0.41130805                0.08131695
               6.01098778                8.00137564               64.08819316                0.01000000               -0.60791321               -0.13543885                0.19633902                2.01845632                0.57802559                0.29186751
               7.00552452                8.00987064               64.09597928                0.01293652               -0.38500598               -0.19381133                0.20314196                1.24363363                0.52885096                0.32874277
               8.00328766                8.01129989               64.10107507                0.01000002               -0.12978359               -0.26802486                0.19108175                0.52544019                0.56229090                0.30212615
               9.00292885                8.00674280               64.10908411                0.01800471               -0.03105181               -0.29827963                0.15102730                0.19381458                0.48622630                0.73737938
              10.00266662                8.00306938               64.11208808                0.01000002               -0.02622301                0.13957597                0.17139221                0.24427011                0.24222118                0.59834829
               0.03365710                8.99155183               64.06649125                1.00000000               -0.03239935               -0.02826106                0.09545998                0.00011159                0.00141824                0.01880825
               1.03333311                8.98421139               64.06878791                0.99999999               -0.03618974               -0.03658663                0.12160751                0.00038988                0.00168440                0.00220436
               2.03293330                8.97687073               64.07108825                0.99999983               -0.04400604               -0.04488206                0.14837462                0.00089142               -0.00197029               -0.00560377
               3.03245299                8.96953381               64.07330847                0.28758020               -0.05098529               -0.05367066                0.17742279                0.00188795                0.02012956               -0.00933633
               4.03191360                8.96222477               64.07605129                0.01000000               -0.42328767               -0.57338273                0.23998309                1.64912042                0.28756904               -0.09753778
               5.02398723                8.98413394               64.08362396                0.01000000               -0.86063022                0.05110279                0.20346038                1.93492961                0.59435091                0.07303953
               6.01470099                9.00148147               64.09174013                0.01294028               -0.71456078                0.05704581                0.20190481                1.14599332                0.55112802                0.18208741
               7.00969602                9.00923705               64.09758041                0.01000002               -0.37725186               -0.07437854                0.20144422                0.52645746                0.48463711                0.05395894
               8.00715596                9.00932874               64.10368440                0.01000001               -0.18828273               -0.13950267                0.19237956                0.01119918                0.78551699                0.25981887
               9.00593036                9.00442208               64.11465879                1.00000000               -0.08763041               -0.14192307                0.16942306               -0.09349653                0.55724174                0.29010197
              10.00540335                9.00397139               64.11443237                0.99910328               -0.05270122                0.01698835                0.18277995                0.11476534               -0.00242781                0.12335279
               0.04104047                9.99126916               64.06770808                1.00000000               -0.03218278               -0.02826666                0.09531586               -0.00409235                0.01491316                0.01486281
               1.04071864                9.98384487               64.07000742                0.99449756               -0.03599764               -0.03665267                0.12153604               -0.00381381                0.01992648                0.00176826
               2.04032052                9.97642181               64.07240199                0.99999999               -0.04410856               -0.04489243                0.14861523               -0.00383175                0.02188793               -0.00232905
               3.03983647                9.96899380               64.07473062                0.99670371               -0.05103986               -0.05400061                0.17751529               -0.00578926                0.04695082               -0.00539967
               4.03929972                9.96153905               64.07762597                0.01000000               -1.13558980               -0.06857221                0.23947768                1.64571150                0.32480511               -0.00358865
               5.01712468                9.98713579               64.08550060                0.01000001               -1.52475944                0.30018495                0.21108022                1.36261947                0.59516174                0.03762327
               6.00880453               10.00251655               64.09353207                0.01000000               -0.44591381                0.10350769                0.20106685                0.47271765                0.44323143                0.08090448
               7.00820640               10.00838307               64.09781929                0.01000000               -0.02389624               -0.08539823                0.20135380                0.15070268                0.49755954               -0.03953044
               8.00832661               10.00850984               64.10638023                0.01000000               -0.08950620               -0.08189078                0.20228111               -0.10687146                0.77204794                0.22653543
               9.00641628               10.00390434               64.11448750                0.99910616               -0.12316473               -0.05177436                0.17721315               -0.20644320                0.42013176                0.00344988
              10.00586331               10.00340914               64.11426108                0.99254075               -0.05529632               -0.05622441                0.19057054               -0.00352301                0.00307875               -0.00307516
              -0.07100978                0.00198283               65.04838640                0.98899699               -0.02148133               -0.02245093                0.07016728                0.00200671               -0.00910996                0.00899186
               0.92877541               -0.00200132               65.05203369                0.98640020               -0.02197307               -0.02353979                0.07370295                0.00059673               -0.00976680               -0.00157304
               1.92855076               -0.00595492               65.05566657                0.01000001                0.01738009               -0.02462237                0.07721423                0.25574990               -0.02985518               -0.00387779
               2.92912301               -0.00477279               65.05890695                0.01000000               -0.07749721                0.10101879                0.09870431                0.23159711               -0.07061897                0.02290801
               3.92700082                0.00197519               65.06138904                0.01000003               -0.37251000                0.14146826                0.10237900                0.48927637               -0.13468477                0.03702499
               4.92167281                0.01650228               65.06327106                0.01143363               -0.82043501                0.12664106                0.07322117                0.89244493               -0.23784034                0.09690687
               5.91059212                0.03745239               65.06398335                0.33695640               -0.56812664               -0.03205617                0.09586874                0.92072807               -0.09663591               -0.00036958
               6.91031028                0.04005230               65.06679361                0.99980015               -0.02828409               -0.03165058                0.09521286               -0.00002716                0.00629375               -0.00404825
               7.91002644                0.04271998               65.06956622                1.00000000               -0.02850471               -0.03184633                0.09582693                0.00013745                0.00576450               -0.00087688
               8.90974019                0.04545145               65.07236421                1.00000000               -0.02871731               -0.03203735                0.09645574                0.00017826                0.00582041                0.00116529
               9.90945209                0.04824597               65.07513385                1.00000000               -0.02880955               -0.03228570                0.09714267               -0.00307389                0.00469307                0.00523483
              -0.06700556                1.00175832               65.04945212                1.00000000               -0.02441913               -0.02383283                0.07961685                0.00148935                0.00137181                0.00950529
               0.93275025                0.99776328               65.05309903                0.01109341               -0.02502239               -0.02496712                0.08314052                0.00008041                0.00456776               -0.00471978
               1.93249399                0.99379886               65.05681230                0.01000000               -0.26381599                0.04183859                0.08668744                0.19534711               -0.00469212                0.02517586
               2.92747393                0.99623740               65.06027273                0.01000000               -0.56189704                0.09079820                0.11476732                0.54267642               -0.05274188                0.04230290
               3.92125605                1.00338988               65.06283111                0.01000000               -0.73076325                0.09938301                0.13057010                0.96714076               -0.14148579                0.07210860
               4.91285866                1.01776869               65.06463013                0.01000000               -0.66158316               -0.08280057                0.12283526                1.54921582               -0.23495667                0.13067833
               5.90802439                1.03713183               65.06563802                0.01000001               -0.25912252               -0.48268802                0.11635596                1.25607816               -0.08840706                0.09435437
               6.90767621                1.03973579               65.06838099                0.83539924               -0.03480783               -0.03461558                0.11548299                0.00013832               -0.00067291               -0.00534913
               7.90732823                1.04240152               65.07115019                1.00000000               -0.03486195               -0.03483694                0.11616768                0.00009327                0.00100136               -0.00119841
               8.90697897                1.04513108               65.07393052                1.00000000               -0.03506959               -0.03506346                0.11689484                0.00004798                0.00095465                0.00127848
               9.90662684                1.04792311               65.07670022                1.00000000               -0.03521346               -0.03534332                0.11762656               -0.00307077                0.00044487                0.00703316
              -0.06298991                2.00150617               65.05053086                0.05586481               -0.02736113               -0.01209321                0.08908047                0.01105281                0.00391637                0.06723868
               0.93673648                1.99749933               65.05410013                0.01000000               -0.15132528               -0.02425000                0.09258997                0.07711600                0.04682067                0.05301857
               1.93398358                1.99488186               65.05853375                0.01000001               -0.31754749               -0.01740283                0.10176933                0.41039895                0.05543561                0.08575724
               2.93038553                1.99704318               65.06214546                0.01000000               -0.45856154               -0.03538541                0.12413028                1.02946761               -0.01206346                0.08302230
               3.92481235                2.00396285               65.06501830                0.01000000               -0.57351739               -0.06423009                0.14001515                1.61147248               -0.07363598                0.11881895
               4.91891518                2.01484626               65.06720337                0.01000001               -0.55328864               -0.43054562                0.14604131                2.14331160               -0.09032960                0.15094136
               5.91374658                2.02779863               65.06920050                0.01145491               -0.69359094               -0.57610481                0.13548647                1.92550612               -0.15507838                0.16068398
               6.90504336                2.03935998               65.06994554                0.01000003               -0.45567828               -0.31748641                0.13549039                1.13252194               -0.10346739                0.11700249
               7.90463301                2.04202324               65.07272807                0.08434803               -0.04119032               -0.03995249                0.13645565                0.00405873               -0.00271448               -0.00377923
               8.90421955                2.04475018               65.07549720                1.00000000               -0.04131961               -0.04115057                0.13738489                0.00006761               -0.00214353               -0.00043790
               9.90380662                2.04753910               65.07829837                0.99999999               -0.04129327               -0.04144709                0.13816257               -0.00309351               -0.00077254                0.00712797
              -0.05877083                3.00151645               65.05275762                0.01000000               -0.03122842                0.19669102                0.07602490                0.46196511               -0.00253004                0.19180011
               0.94091688                2.99727828               65.05632225                0.01000000               -0.00355198               -0.20430360                0.07262715                0.49076091                0.04757898                0.18646702
               1.94115813                2.99345080               65.06086947                0.01000000               -0.09672994               -0.27024485                0.11011284                0.95047663                0.07251782                0.11998623
               2.93898228                2.99552969               65.06441578                0.01000000               -0.27378554               -0.22446911                0.13194367                1.56372255                0.02104765                0.11191732
               3.93568242                3.00210527               65.06758165                0.01199460               -0.35465812               -0.30651499                0.14714483                1.88784698               -0.00756074                0.11448439
               4.93188912                3.00915777               65.07024352                0.01000000               -0.68308127               -0.39374829                0.15402986                2.42798257               -0.07142444                0.14362816
               5.92202079                3.02560973               65.07199927                0.01000001               -0.78935398               -0.40606083                0.15398766                2.47814510               -0.10114778                0.17611547
               6.91610204                3.03338606               65.07398757                0.01000000               -1.00007920               -0.46905556                0.15466239                2.17442638               -0.18083530                0.25070440
               7.90201921                3.04160247               65.07426574                0.01462881               -0.73187868               -0.17280984                0.15460296                1.60779993               -0.13174059                0.16699946
               8.90146447                3.04430807               65.07703217                0.01135367               -0.05160322               -0.50516261                0.15788927                1.22925426               -0.00483284                0.15239659
               9.90098714                3.04709417               65.07986705                0.99889267               -0.04773258               -1.18044024                0.15864640                1.50662279               -0.00191985                0.19778315
              -0.04527426                4.00543999               65.05671254                0.01000003               -0.01083938                0.13825373                0.10123594                0.55345027                0.01431306                0.27171542
               0.95461734                3.99341326               65.06000295                0.01000000                0.00079808               -0.45539105                0.10356103                0.98791646                0.02367257                0.21330341
               1.95474170                3.98947696               65.06344283                0.01000000               -0.08059182               -0.44287764                0.11916346                1.60031978                0.04455531                0.13486134
               2.95300551                3.99255380               65.06698641                0.01199220               -0.29002436               -0.32316040                0.14184431                1.88249922                0.03551620                0.10396647
               3.94894121                3.99783255               65.06999517                0.01000000               -0.45175669               -0.48257253                0.15636885                2.25249172                0.01001300                0.10755579
               4.94397037                4.00697130               65.07290630                0.01000001               -0.49300096               -0.33135434                0.16367766                2.63783167                0.00162780                0.15552942
               5.93908119                4.01967741               65.07571518                0.01000001               -0.57156098               -0.55790210                0.16493781                2.97272228               -0.03838882                0.25350672
               6.93253915                4.02997887               65.07800299                0.01214268               -0.66070937               -0.44057818                0.16079803                2.81905112               -0.13941412                0.28477048
               7.92586700                4.03856704               65.07926218                0.01141934               -0.46131078               -0.54205318                0.15486533                2.63862478               -0.17993359                0.38767669
               8.92331294                4.03464693               65.08166390                0.01000000                0.12499387               -0.97947731                0.15148850                1.74372554               -0.13891087                0.54247416
               9.92836688                4.02393029               65.08528388                0.01000000                0.50539443               -1.95501415                0.14791262                1.57639015               -0.14784665                0.72511546
              -0.02364837                5.00428153               65.06012960                0.01000003                0.02866158               -0.70600592                0.10984314                1.11336057               -0.00595251                0.23737777
               0.97663824                4.98817046               65.06312597                0.01000000               -0.11638192               -0.46465903                0.11676492                1.72910746                0.00274537                0.19424521
               1.97402399                4.98459325               65.06615512                0.01000001               -0.41807848               -0.37968958                0.13391072                2.14262966                0.01376792                0.11853474
               2.96827667                4.98906649               65.06920362                0.01000000               -0.38546199               -0.64897002                0.15211898                2.38449241                0.03790174                0.08492440
               3.96631475                4.99245382               65.07249009                0.01000001               -0.27378882               -0.55694724                0.16548941                2.61833601                0.07327746                0.11659192
               4.96280090                5.00253069               65.07609429                0.01000001               -0.39235435               -0.48586843                0.17141040                3.05855643                0.09125885                0.19822882
               5.95846766                5.01445169               65.07969145                0.01202895               -0.46037315               -0.54132099                0.17151419                3.07088023                0.02500122                0.25712923
               6.95359343                5.02457450               65.08213290                0.01040825               -0.41720091               -0.59499893                0.17299282                2.91590975               -0.05370822                0.34776106
               7.95012364                5.03076140               65.08464902                0.01000000               -0.13088528               -0.84580955                0.17232168                2.41291450               -0.05386522                0.54784098
               8.95097573                5.02471852               65.08806852                0.01000000                0.19122896               -0.95867096                0.16835549                1.47722834               -0.02874167                0.73576994
               9.95394822                5.00799388               65.09183537                0.01000000                0.29724948               -1.15642879                0.19754260                0.75006553                0.01834790                0.71069345
               0.00921509                5.99131987               65.06337723                0.19722141               -0.03273181               -0.66156947                0.09360444                1.28577582               -0.00583446                0.13398909
               1.00888777                5.98412008               65.06626775                0.01000001               -0.62584120               -0.22102450                0.12101456                1.50302907               -0.04293309                0.10660990
               1.99669826                5.98188317               65.06842306                0.01145638               -0.80264933               -0.40787095                0.14097878                1.85882591               -0.02274663                0.05192478
               2.99283478                5.97957440               65.07144785                0.01000001               -0.44272657               -0.81661125                0.16681071                2.43032468                0.06491217                0.04405816
               3.98784373                5.98669361               65.07506862                0.01000001               -0.48455731               -0.60907232                0.17332133                2.84696855                0.14274746                0.10115264
               4.98314363                5.99725393               65.07936961                0.01202844               -0.46943730               -0.56609822                0.17735019                3.00789602                0.15197987                0.15415309
               5.97845498                6.00885099               65.08292130                0.01038316               -0.42979999               -0.55218926                0.18231384                2.92500813                0.13057811                0.24120046
               6.97454763                6.01807890               65.08683951                0.01000000               -0.22368572               -0.59241072                0.18404243                2.60696319                0.17542579                0.44639339
               7.97398127                6.02165085               65.09152015                0.01000000                0.05386937               -0.80217064                0.18260691                1.96087257                0.21207763                0.72054181
               8.97562502                6.01547351               65.09651627                0.01315669                0.14181007               -0.72160730                0.19757816                1.01920522                0.15012617                0.69512748
               9.97681747                6.00080172               65.09993933                0.01000000                0.11924488               -0.37935308                0.22670022                0.40732943                0.07674278                0.52692915
               0.01646672                6.99105014               65.06493533                0.99230628               -0.03311947               -0.02765111                0.09635198               -0.00033569               -0.01015449                0.03240642
               1.01613553                6.98374997               65.06765047                0.45031556               -0.03602654               -0.03714537                0.12429739               -0.00112689               -0.03570883                0.00631645
               2.01574619                6.97643583               65.06985690                0.01616405               -0.20314015               -0.29499728                0.14231716                0.76787967               -0.01934611                0.01193202
               3.01207272                6.97273426               65.07288647                0.01000000               -0.50858029               -0.54881798                0.16097714                1.68014280                0.09007650               -0.02603049
               4.00557459                6.98027238               65.07723445                0.01214104               -0.56356455               -0.76094062                0.17793205                2.46671599                0.18982937                0.00925752
               5.00080143                6.99120872               65.08144986                0.01040867               -0.47158632               -0.62027373                0.18464024                2.78622696                0.23271534                0.08034122
               5.99614286                7.00340790               65.08629513                0.01000000               -0.39342981               -0.41280060                0.19072494                2.62058537                0.33651920                0.27931948
               6.99293284                7.01272628               65.09236542                0.01000000               -0.20981914               -0.42333437                0.18782786                2.05205113                0.47019211                0.51617560
               7.99194648                7.01471799               65.09963998                0.01312871               -0.03619358               -0.51378092                0.18162715                1.29101088                0.33212597                0.57056718
               8.99220897                7.01028638               65.10247253                0.01049132               -0.02540374               -0.42282815                0.19584011                0.61021607                0.04657354                0.68576710
               9.99143840                7.00040682               65.10411542                0.01000003               -0.07705644                0.09499770                0.22079679                0.26799974               -0.02444559                0.60799671
               0.02380871                7.99076685               65.06615169                1.00000000               -0.03291757               -0.02832446                0.09608320               -0.00030940               -0.00503208                0.01904404
               1.02347953                7.98337717               65.06878577                0.99846463               -0.03685752               -0.03695779                0.12269809               -0.00024127               -0.01002288               -0.00206851
               2.02307156                7.97598322               65.07132347                0.26076384               -0.04392221               -0.04511866                0.14841490               -0.00038416               -0.02606074                0.00230980
               3.02260109                7.96859804               65.07364110                0.01462926               -0.21839860               -0.23335141                0.16147604                0.67308464                0.07316115               -0.03809516
               4.01870359                7.97147480               65.07816139                0.01142670               -0.34342221               -0.97631414                0.17598462                2.00789969                0.24454865               -0.10377244
               5.01573265                7.98484846               65.08330627                0.01000000               -0.46772294               -0.42384053                0.19490647                2.51400976                0.39146427                0.07986787
               6.00934913                8.00059498               65.09014964                0.01000000               -0.57270373               -0.13916070                0.19386720                2.09034679                0.55904266                0.29334044
               7.00427857                8.00961221               65.09801131                0.01310784               -0.35538676               -0.19295366                0.20226058                1.31740711                0.50636841                0.33528636
               8.00224139                8.01137523               65.10297702                0.01000002               -0.10690307               -0.27260393                0.18973370                0.59216348                0.51080897                0.30660854
               9.00214051                8.00701695               65.11052333                0.01752230               -0.01524093               -0.28519828                0.13849769                0.25897474                0.44391193                0.71576273
              10.00193658                8.00270167               65.11374415                0.01000002               -0.02039350                0.18363317                0.16133271                0.27348871                0.23208047                0.56055414
               0.03123988                8.99048365               65.06744505                1.00000000               -0.03255547               -0.02831759                0.09579428                0.00006020                0.00079927                0.01880444
               1.03091433                8.98301081               65.07000523                0.99999999               -0.03611194               -0.03672068                0.12196237                0.00012104                0.00080618                0.00190602
               2.03051765                8.97553346               65.07257117                0.99999999               -0.04357436               -0.04476886                0.14786179                0.00126714               -0.00197746               -0.00543423
               3.03004284                8.96806723               65.07507732                0.30977032               -0.05177425               -0.05389696                0.17788560                0.00868143                0.03947613               -0.00382498
               4.02948216                8.96074609               65.07845485                0.01000000               -0.40406987               -0.58453368                0.25054973                1.64855647                0.28761968               -0.07426103
               5.02196144                8.98273191               65.08565550                0.01000000               -0.81480591                0.04029961                0.19492341                1.95748564                0.55876758                0.07440054
               6.01318604                9.00062469               65.09379021                0.01311048               -0.67303593                0.04704653                0.20291709                1.19130740                0.53775915                0.18451757
               7.00850073                9.00886721               65.09963534                0.01000002               -0.34005197               -0.09353052                0.21183865                0.55332203                0.47203615                0.05470783
               8.00638500                9.00926591               65.10564463                0.01000002               -0.12193523               -0.16573127                0.21470089                0.05715009                0.74826166                0.27195262
               9.00606202                9.00458241               65.11633772                1.00000000               -0.04231355               -0.14728970                0.16636467               -0.03582772                0.53553165                0.29762814
              10.00553873                9.00407949               65.11626433                0.99948043               -0.05232897                0.04045424                0.18361209                0.15556292               -0.00242216                0.12770032
               0.03875559                9.99020050               65.06865936                1.00000000               -0.03234417               -0.02831510                0.09553847               -0.00420335                0.01433292                0.01466185
               1.03843215                9.98264276               65.07122280                0.99409296               -0.03575528               -0.03680515                0.12169537               -0.00385100                0.01882845                0.00175464
               2.03804048                9.97508784               65.07388258                0.99999999               -0.04350309               -0.04456139                0.14726163               -0.00384951                0.02146844               -0.00205434
               3.03756208                9.96752010               65.07649802                0.99365987               -0.05152212               -0.05471361                0.17818505               -0.01326191                0.06593099               -0.00456452
               4.03701004                9.95978412               65.08002415                0.01000000               -1.12791599               -0.09619714                0.24930546                1.65950541                0.33054886                0.00103036
               5.01500376                9.98565445               65.08762200                0.01000001               -1.49850302                0.29225354                0.20433491                1.39182133                0.56305781                0.04617121
               6.00703998               10.00153591               65.09560183                0.01000000               -0.41499857                0.09112208                0.20538551                0.48975116                0.42937223                0.08111685
               7.00670379               10.00774160               65.09989842                0.01000000                0.03146087               -0.11256138                0.21812534                0.14654151                0.49425781               -0.03806925
               8.00766920               10.00806061               65.10849217                0.01000000               -0.00467053               -0.12053024                0.23863273               -0.05510269                0.73698542                0.22128385
               9.00661038               10.00407116               65.11625549                0.99948811               -0.08077549               -0.05112547                0.17638479               -0.17265649                0.39528003                0.00344422
              10.00605369               10.00351076               65.11618209                0.99276465               -0.05566955               -0.05687279                0.19363222               -0.00454445                0.00307056               -0.00307102
              -0.07476586                0.00095979               66.04908873                0.98912669               -0.02141787               -0.02259003                0.07030547                0.00199768               -0.00910614                0.00899227
               0.92501997               -0.00312972               66.05276814                0.98497991               -0.02181163               -0.02347412                0.07318807                0.00049638               -0.00977614               -0.00159534
               1.92479791               -0.00718679               66.05643290                0.01000000                0.02858745               -0.02435284                0.07604672                0.26168963               -0.01983843               -0.00388097
               2.92559172               -0.00598529               66.05990586                0.01000000               -0.05995839                0.09117429                0.10333317                0.23349561               -0.04120164                0.02726413
               3.92359874                0.00064882               66.06258597                0.01000000               -0.38565254                0.14307775                0.11305080                0.51817345               -0.14141905                0.01645819
               4.91787866                0.01597509               66.06341287                0.01345395               -0.78688367                0.09921261                0.08813322                0.86091785               -0.18027987                0.09372545
               5.90786107                0.03569062               66.06495022                0.33571807               -0.51502141               -0.03243038                0.09671113                0.85739839               -0.05663180               -0.00036186
               6.90757824                0.03832260               66.06774610                0.99990105               -0.02830134               -0.03180110                0.09527047               -0.00009544                0.00523600               -0.00415786
               7.90729504                0.04102533               66.07052251                1.00000000               -0.02837987               -0.03186940                0.09545666                0.00008389                0.00562129               -0.00092501
               8.90701064                0.04379468               66.07332493                0.99999998               -0.02846816               -0.03193498                0.09566962                0.00012673                0.00571679                0.00118086
               9.90672568                0.04662967               66.07609961                0.99975201               -0.02849578               -0.03204934                0.09595094               -0.00327683                0.00464536                0.00525667
              -0.07065638                1.00073389               66.05025196                1.00000000               -0.02454064               -0.02406128                0.08034960                0.00157979                0.00137166                0.00951065
               0.92909822                0.99663554               66.05393087                0.01112215               -0.02505123               -0.02498430                0.08322165                0.00007664                0.00457761               -0.00473334
               1.92884260                0.99256969               66.05767630                0.01000000               -0.25446738                0.04104504                0.08610756                0.20208244                0.00982773                0.02862939
               2.92400887                0.99492645               66.06145889                0.01000000               -0.55211549                0.08340012                0.11352927                0.54951235               -0.00571929                0.03435477
               3.91780029                1.00207960               66.06424643                0.01000000               -0.75209628                0.09847839                0.14736196                1.00244382               -0.08280499                0.03364777
               4.90896694                1.01696721               66.06589885                0.01000000               -0.62694940               -0.12985452                0.14302245                1.57068388               -0.16893316                0.09828304
               5.90526130                1.03536632               66.06681477                0.01000001               -0.20285091               -0.47885529                0.11802515                1.20047565               -0.09436697                0.09356679
               6.90490992                1.03800459               66.06954021                0.82558744               -0.03507280               -0.03488453                0.11638160                0.00017905               -0.00180773               -0.00560795
               7.90455984                1.04070664               66.07231415                1.00000000               -0.03500921               -0.03498391                0.11665838                0.00010982                0.00098666               -0.00128580
               8.90420974                1.04347533               66.07509997                1.00000000               -0.03509606               -0.03509277                0.11699335                0.00006085                0.00095454                0.00132355
               9.90385792                1.04630917               66.07787506                1.00000000               -0.03518175               -0.03524129                0.11732031               -0.00319990                0.00044815                0.00710769
              -0.06653758                2.00047856               66.05142834                0.07238789               -0.02767247               -0.01810281                0.09040870                0.00669598                0.00391373                0.05842776
               0.93318570                1.99637060               66.05502952                0.01000000               -0.14568842               -0.02492860                0.09327452                0.07186040                0.05029630                0.04153081
               1.93054866                1.99363411               66.05956449                0.01000001               -0.30568244               -0.02261043                0.10312697                0.41672487                0.07074727                0.08324766
               2.92707205                1.99568271               66.06340899                0.01000000               -0.44708998               -0.03938658                0.12562037                1.04094591                0.01891161                0.06573888
               3.92160686                2.00261839               66.06647262                0.01000000               -0.55332135               -0.07107577                0.14402253                1.62885657               -0.04015299                0.07939178
               4.91600562                2.01337800               66.06874334                0.01000001               -0.53868223               -0.46640220                0.15619147                2.17284495               -0.08727245                0.11937403
               5.91083321                2.02611351               66.07056222                0.01145068               -0.68820651               -0.56729225                0.13689695                1.90427341               -0.15979981                0.15933235
               6.90224149                2.03762491               66.07130841                0.01000000               -0.45033551               -0.31184059                0.13716774                1.12123858               -0.10347032                0.11580954
               7.90182650                2.04032566               66.07409912                0.08328194               -0.04160846               -0.04015869                0.13779933                0.00423971               -0.00242763               -0.00490018
               8.90140932                2.04309282               66.07687585                1.00000000               -0.04162554               -0.04144767                0.13836860                0.00005817               -0.00200245               -0.00037075
               9.90099399                2.04592484               66.07968276                0.99999998               -0.04153334               -0.04160959                0.13873769               -0.00322886               -0.00074000                0.00720334
              -0.06230654                3.00037183               66.05357622                0.01000000               -0.03135947                0.20263899                0.08549208                0.48718185                0.00196403                0.20014749
               0.93737987                2.99613697               66.05711946                0.01000000                0.00857606               -0.21666991                0.08446571                0.50644039                0.06701076                0.18055729
               1.93786499                2.99211748               66.06196977                0.01000000               -0.07681780               -0.27441890                0.11036774                0.95774490                0.10659015                0.10894938
               2.93584351                2.99413872               66.06573893                0.01000000               -0.25914274               -0.22668024                0.13234526                1.57614134                0.04501267                0.09879701
               3.93268213                3.00065808               66.06907041                0.01199676               -0.34573990               -0.31079779                0.14879018                1.89600863                0.00173645                0.09721256
               4.92892872                3.00763917               66.07179888                0.01000000               -0.67911359               -0.39215988                0.15523640                2.42072916               -0.07519643                0.12678552
               5.91909986                3.02402047               66.07354928                0.01000001               -0.79030807               -0.39104352                0.15532021                2.46780512               -0.10997270                0.17049786
               6.91312255                3.03176777               66.07553895                0.01000000               -0.99615670               -0.44734801                0.15610652                2.14469631               -0.18650753                0.24394222
               7.89917672                3.03990347               66.07582409                0.01475593               -0.72554170               -0.15994887                0.15792413                1.55462044               -0.13016937                0.15582207
               8.89861172                3.04264637               66.07862035                0.01301305               -0.05237092               -0.41246144                0.15976846                1.13218715               -0.00361821                0.13517401
               9.89812931                3.04547698               66.08146066                1.00000000               -0.04824134               -1.00784902                0.16010684                1.36264544               -0.00193406                0.17363562
              -0.04832422                4.00453134               66.05776308                0.01048434               -0.01069163                0.15213941                0.11025521                0.52429557                0.02631278                0.26699159
               0.95156886                3.99203720               66.06102606                0.01000000                0.00130159               -0.45881525                0.09595962                0.99050942                0.04569642                0.22084464
               1.95170181                3.98814574               66.06461368                0.01000000               -0.07572938               -0.44205953                0.11691880                1.61521720                0.07176105                0.12851203
               2.95005427                3.99114910               66.06839888                0.01199297               -0.28376158               -0.32324418                0.14123069                1.89178478                0.05120524                0.10273840
               3.94602658                3.99640243               66.07156333                0.01000000               -0.44982274               -0.47930569                0.15644682                2.26045866                0.01119144                0.10355256
               4.94105782                4.00553480               66.07454815                0.01000001               -0.49829336               -0.31959142                0.16366107                2.64799806               -0.00812911                0.14901543
               5.93606071                4.01829264               66.07736546                0.01000001               -0.59026968               -0.53254545                0.16498291                2.98047642               -0.05631472                0.24574838
               6.92925242                4.02867795               66.07961810                0.01217147               -0.70101983               -0.40970156                0.16359591                2.80644658               -0.16388853                0.27638361
               7.92204031                4.03712668               66.08082766                0.01151593               -0.53864354               -0.49057742                0.16359761                2.66819015               -0.21864668                0.37251106
               8.91847955                4.03484359               66.08311605                0.01000000                0.02726856               -0.89292339                0.14889786                1.84147914               -0.21866370                0.57676054
               9.92258568                4.02576786               66.08660290                0.01000000                0.41061305               -1.87856875                0.14047760                1.69390662               -0.26653164                0.79617348
              -0.02683235                5.00341462               66.06127669                0.01000003                0.04080075               -0.71354789                0.12086625                1.07707324                0.00584270                0.20411048
               0.97357566                4.98696067               66.06426141                0.01000000               -0.10551138               -0.45567370                0.11552091                1.70441628                0.01152615                0.20324466
               1.97105743                4.98327629               66.06747545                0.01000001               -0.40765737               -0.37946223                0.12713769                2.13803889                0.02929031                0.12024404
               2.96542251                4.98767383               66.07071278                0.01000000               -0.37759092               -0.64654286                0.15117439                2.38703056                0.04139898                0.09047225
               3.96350561                4.99107197               66.07413532                0.01000001               -0.27120245               -0.55333079                0.16408470                2.63551903                0.06460725                0.11944965
               4.95999846                5.00124734               66.07780113                0.01000001               -0.39696836               -0.47177667                0.17008463                3.09150480                0.07213793                0.19614334
               5.95556624                5.01336956               66.08139962                0.01204630               -0.47905071               -0.51894723                0.17038081                3.10758270                0.00129028                0.25434327
               6.95041745                5.02357374               66.08386613                0.01046004               -0.45956788               -0.56471626                0.17471543                2.96561257               -0.08106059                0.34431944
               7.94637488                5.03009192               66.08637946                0.01000000               -0.18086644               -0.78927897                0.17747417                2.51260641               -0.09356359                0.54996664
               8.94680012                5.02478791               66.08977538                0.01000000                0.18920100               -0.98115826                0.18086367                1.60355591               -0.05940501                0.77144561
               9.95015890                5.00790561               66.09384078                0.01000000                0.33587812               -1.29308881                0.20547465                0.88208080                0.01263763                0.76501051
               0.00612514                5.99026038               66.06431626                0.18069604               -0.03296257               -0.67121427                0.09362494                1.28355990               -0.00670455                0.12568869
               1.00579552                5.98292373               66.06748127                0.01000001               -0.61878620               -0.22026342                0.12095580                1.49504734               -0.04684696                0.11201845
               1.99374942                5.98055649               66.06983919                0.01146143               -0.78981575               -0.40859135                0.14214303                1.85186525               -0.02712903                0.05389869
               2.98999920                5.97821825               66.07302594                0.01000001               -0.42929846               -0.81985005                0.15718061                2.42997282                0.05278402                0.05114969
               3.98516345                5.98533582               66.07678176                0.01000001               -0.47044411               -0.61152901                0.17072135                2.86949821                0.12390730                0.10444342
               4.98059032                5.99609927               66.08112805                0.01205300               -0.46387442               -0.56191932                0.17499745                3.05127430                0.12818442                0.15543982
               5.97588596                6.00791370               66.08473609                0.01043480               -0.43740002               -0.54106293                0.18092587                2.98108528                0.10511309                0.24157123
               6.97184232                6.01738362               66.08866811                0.01000000               -0.24038408               -0.56543788                0.18262070                2.69082716                0.14484374                0.44118857
               7.97107828                6.02134110               66.09333912                0.01000000                0.04473324               -0.77241040                0.18318956                2.07583215                0.18499248                0.71099383
               8.97273698                6.01522043               66.09848700                0.01335239                0.14568096               -0.73459763                0.19936417                1.10222256                0.13908820                0.69583212
               9.97399190                5.99990608               66.10219279                0.01000000                0.12549146               -0.41853098                0.22681670                0.43044198                0.07316208                0.52422169
               0.01351216                6.98999033               66.06590173                0.99317653               -0.03316640               -0.02774228                0.09687586               -0.00032166               -0.00957923                0.03435016
               1.01318050                6.98255540               66.06889595                0.40133476               -0.03559756               -0.03716320                0.12443230               -0.00119346               -0.04036103                0.00728018
               2.01280021                6.97510446               66.07127365                0.01614661               -0.19689261               -0.29525564                0.14024917                0.76102911               -0.02686339                0.01510875
               3.00924265                6.97127683               66.07451461                0.01000000               -0.48928294               -0.55518894                0.16081697                1.67578915                0.08682550               -0.03553584
               4.00301455                6.97884139               66.07896450                0.01217475               -0.53982892               -0.78124838                0.17067276                2.48559564                0.16978414                0.00662140
               4.99844607                6.99000896               66.08328325                0.01046231               -0.45554805               -0.62969122                0.18328400                2.83202093                0.21146814                0.08347198
               5.99390359                7.00254830               66.08818856                0.01000000               -0.38197371               -0.40831665                0.18842486                2.69168294                0.30717321                0.27690561
               6.99080659                7.01226499               66.09422074                0.01000000               -0.19244350               -0.40385858                0.18397852                2.15387965                0.43014356                0.51290623
               7.99005472                7.01464371               66.10139539                0.01332293               -0.02635023               -0.49568442                0.17448105                1.38722529                0.30465130                0.55817046
               8.99027959                7.01009595               66.10440777                0.01074529               -0.03291462               -0.40137809                0.19200431                0.65971278                0.03644981                0.63805625
               9.98939643                6.99953499               66.10632676                0.01000003               -0.08831602                0.11127305                0.22160345                0.28763821               -0.02944785                0.55830930
               0.02098858                7.98970554               66.06711552                1.00000000               -0.03310562               -0.02850390                0.09676638               -0.00047921               -0.00530283                0.01955914
               1.02065752                7.98218046               66.07001503                0.99708849               -0.03700053               -0.03714558                0.12307828               -0.00057706               -0.01069523               -0.00303624
               2.02024857                7.97465138               66.07281065                0.24444863               -0.04397321               -0.04507600                0.14867060               -0.00222669               -0.03567337                0.00529902
               3.01977806                7.96711447               66.07520801                0.01475603               -0.20526631               -0.23382236                0.15537243                0.65878235                0.05655962               -0.03203376
               4.01614324                7.96971085               66.07982531                0.01152180               -0.31271169               -0.99822979                0.17744671                2.02321140                0.23651452               -0.06988817
               5.01352382                7.98350544               66.08524543                0.01000000               -0.43398255               -0.43513651                0.18721635                2.57088400                0.37542793                0.07878496
               6.00746359                7.99974737               66.09207051                0.01000000               -0.53496586               -0.14143381                0.19110526                2.16868818                0.53221398                0.29146151
               7.00282450                8.00930645               66.10002449                0.01330508               -0.32358849               -0.19104455                0.19905775                1.40778853                0.47450787                0.34280003
               8.00099182                8.01142741               66.10486975                0.01015299               -0.08922708               -0.26955309                0.17917136                0.66252488                0.43917443                0.31075219
               9.00103996                8.00719286               66.11185407                0.01683687               -0.00626116               -0.27267335                0.12818735                0.32229185                0.39233903                0.68504415
              10.00086660                8.00213154               66.11531473                0.01000002               -0.01733679                0.22762340                0.15282441                0.29913113                0.21746795                0.51883768
               0.02855272                8.98942025               66.06840713                1.00000000               -0.03296110               -0.02858711                0.09692580               -0.00019302                0.00036414                0.01925261
               1.02822311                8.98181249               66.07122716                0.99999999               -0.03655268               -0.03678137                0.12250442               -0.00014226               -0.00024236                0.00163613
               2.02782167                8.97420294               66.07404549                0.99999999               -0.04321453               -0.04467373                0.14764208                0.00069982               -0.00111226               -0.00630644
               3.02735882                8.96660039               66.07686618                0.48555738               -0.03669329               -0.05266798                0.17328102               -0.00453395                0.06666357                0.00656265
               4.02708781                8.95887679               66.08106228                0.01000000               -0.37657969               -0.56448888                0.17955615                1.66746606                0.24889447               -0.03703089
               5.01982723                8.98130622               66.08752243                0.01000000               -0.78057297                0.03103927                0.19258619                2.00635794                0.50182943                0.07379111
               6.01147635                8.99971963               66.09579847                0.01329965               -0.62724553                0.03841339                0.19783098                1.23949170                0.52415217                0.18367195
               7.00728232                9.00844410               66.10181719                0.01000002               -0.30287714               -0.11054713                0.20261268                0.59548689                0.46902029                0.06354079
               8.00541880                9.00925265               66.10797842                0.01000004               -0.06305135               -0.20934904                0.28367337                0.09579118                0.73968489                0.28015191
               9.00602129                9.00464249               66.11798608                1.00000000                0.00414441               -0.15275859                0.16330322                0.02134016                0.49166766                0.30793182
              10.00550169                9.00408745               66.11810462                0.99985530               -0.05196002                0.06903336                0.18444313                0.20474343               -0.00241213                0.13562094
               0.03620025                9.98913379               66.06961884                0.99995358               -0.03282608               -0.02864597                0.09682186               -0.00414338                0.01409606                0.01489986
               1.03587199                9.98144484               66.07244132                0.99370196               -0.03627937               -0.03676513                0.12216992               -0.00390695                0.01757393                0.00181059
               2.03547466                9.97375790               66.07534722                0.99999998               -0.04292328               -0.04450346                0.14719267               -0.00388723                0.02237382               -0.00259583
               3.03501352                9.96606111               66.07829432                0.99999994               -0.03439708               -0.05392773                0.17443004               -0.00137164                0.09224634               -0.00199245
               4.03478672                9.95842107               66.08261208                0.01000000               -1.11026893               -0.04557210                0.17897582                1.67314750                0.29359232                0.01226509
               5.01280815                9.98412623               66.08958730                0.01000001               -1.48355846                0.28200026                0.19801087                1.40281972                0.50903417                0.05008402
               6.00511555               10.00051563               66.09763978                0.01000000               -0.38034620                0.07960069                0.20043860                0.51238457                0.41812888                0.08071158
               7.00520122               10.00709551               66.10218180                0.01000000                0.07968498               -0.13485875                0.21737926                0.12813004                0.50914209               -0.04212869
               8.00670925               10.00724043               66.11115289                0.01000000                0.07153696               -0.20122181                0.32965798               -0.01884593                0.79363414                0.27528843
               9.00663196               10.00413769               66.11801519                0.99986344               -0.03188623               -0.05047925                0.17555227               -0.12534407                0.34062252                0.00344064
              10.00607153               10.00351221               66.11813372                0.99299351               -0.05604335               -0.05752422                0.19669221               -0.00556460                0.00306822               -0.00306063
              -0.07855071               -0.00016379               67.04979251                0.98927062               -0.02135680               -0.02272961                0.07045771                0.00198454               -0.00909559                0.00898313
               0.92123573               -0.00435870               67.05349745                0.98358685               -0.02165127               -0.02340692                0.07267745                0.00039532               -0.00978113               -0.00161642
               1.92101627               -0.00851935               67.05718750                0.01000001                0.04550904               -0.02408001                0.07487410                0.26588405               -0.00546400               -0.00388569
               2.92214591               -0.00733355               67.06097361                0.01000000               -0.01754168                0.07549203                0.09869246                0.23949119               -0.01836199                0.03193150
               3.92066543               -0.00101655               67.06365005                0.01000001               -0.32214728                0.11927312                0.10479727                0.48637440               -0.06671454                0.04723505
               4.91570296                0.01340482               67.06503372                0.01000000               -0.77695932                0.09990488                0.11865464                0.85750125               -0.01828279               -0.12181826
               5.90512625                0.03371607               67.06591757                0.33526622               -0.54301250               -0.03249030                0.09701244                0.88574825               -0.09019973               -0.00018288
               6.90484271                0.03638092               67.06869902                1.00000000               -0.02831089               -0.03195897                0.09535840               -0.00009649                0.00435529               -0.00423556
               7.90456003                0.03911821               67.07147535                1.00000000               -0.02826440               -0.03190188                0.09511381                0.00002194                0.00544579               -0.00098469
               8.90427742                0.04192500               67.07427761                0.99961408               -0.02821968               -0.03183686                0.09487039                0.00007195                0.00558202                0.00121243
               9.90399564                0.04480020               67.07705287                1.00000000               -0.02817860               -0.03180749                0.09471057               -0.00348301                0.00454866                0.00530723
              -0.07433595                0.99960892               67.05105911                1.00000000               -0.02465926               -0.02428749                0.08107681                0.00166732                0.00137064                0.00950976
               0.92541746                0.99540723               67.05476346                0.01000000               -0.02507599               -0.02499693                0.08328830                0.00007301                0.00458549               -0.00474141
               1.92516253                0.99123985               67.05853445                0.01000000               -0.23140198                0.03863441                0.08550866                0.20084636                0.01988447                0.03213435
               2.92078942                0.99342137               67.06254332                0.01000000               -0.50012705                0.07057291                0.10404289                0.53230234                0.00090902                0.03889453
               3.91515999                1.00017618               67.06577835                0.01000000               -0.69388799                0.08716289                0.12443101                0.94960036               -0.01277524                0.01140015
               4.90691166                1.01440387               67.06749058                0.01000000               -0.63321538               -0.10355560                0.14179229                1.52960809               -0.00554443               -0.08261051
               5.90249568                1.03339117               67.06799852                0.01000001               -0.23854923               -0.47326521                0.11910022                1.22583613               -0.11555388                0.09243664
               6.90214068                1.03606133               67.07070862                0.81485888               -0.03537379               -0.03517406                0.11735433                0.00011815               -0.00262046               -0.00588697
               7.90178821                1.03879919               67.07348335                0.99999994               -0.03517634               -0.03514568                0.11720511                0.00011421                0.00098021               -0.00138972
               8.90143715                1.04160663               67.07627039                1.00000000               -0.03512988               -0.03513078                0.11711040                0.00006888                0.00095883                0.00137639
               9.90108561                1.04448212               67.07904663                1.00000000               -0.03515385               -0.03513134                0.11700615               -0.00333207                0.00044020                0.00718925
              -0.07011399                1.99935046               67.05233904                0.08997284               -0.02797613               -0.02121260                0.09171752                0.00498549                0.00390503                0.05229166
               0.92960625                1.99514136               67.05596562                0.01000000               -0.14334797               -0.02571722                0.09392633                0.06744808                0.05381152                0.03416824
               1.92701905                1.99225334               67.06059629                0.01000001               -0.28753130               -0.03296217                0.10731209                0.42222363                0.08010386                0.08681269
               2.92385563                1.99407791               67.06465787                0.01000000               -0.41720574               -0.04528142                0.12094402                1.02329211                0.05133115                0.05860601
               3.91867494                2.00072670               67.06789875                0.01000000               -0.53877473               -0.06086785                0.13710705                1.58765052                0.00016910                0.02638549
               4.91308013                2.01133371               67.07032720                0.01000001               -0.53447116               -0.42575968                0.14661656                2.12593650               -0.09945055                0.06743689
               5.90798552                2.02425077               67.07193844                0.01145509               -0.68215409               -0.55873608                0.13949045                1.89646517               -0.16651426                0.16038544
               6.89943705                2.03567744               67.07268889                0.01000000               -0.44842530               -0.30530563                0.13898109                1.10604654               -0.10306583                0.11424121
               7.89901701                2.03841530               67.07548406                0.08170397               -0.04205898               -0.04044096                0.13922780                0.00455780               -0.00207878               -0.00507899
               8.89859587                2.04122238               67.07826457                0.99999999               -0.04194970               -0.04176406                0.13939963                0.00003266               -0.00182973               -0.00029673
               9.89817802                2.04409757               67.08107313                0.99625032               -0.04178542               -0.04176927                0.13933737               -0.00336981               -0.00069344                0.00729876
              -0.06581803                2.99918467               67.05446746                0.01000000               -0.03184215                0.18644429                0.09178440                0.51282335                0.00304126                0.20607768
               0.93386355                2.99489289               67.05801157                0.01000000                0.02442445               -0.22265755                0.09226637                0.52351816                0.07855685                0.16825898
               1.93467046                2.99058061               67.06307683                0.01000000               -0.05408243               -0.28559107                0.11529347                0.97039474                0.13942940                0.09298795
               2.93278190                2.99251574               67.06706269                0.01000000               -0.25066290               -0.22215968                0.13291559                1.58012719                0.06775979                0.08843327
               3.92965720                2.99895882               67.07055745                0.01200188               -0.34377849               -0.29440051                0.14527646                1.88568862                0.00773787                0.08311145
               4.92590633                3.00588868               67.07334825                0.01000000               -0.67879675               -0.36921790                0.15278683                2.40915745               -0.07849919                0.10850420
               5.91608126                3.02221645               67.07510567                0.01000001               -0.79046255               -0.37543675                0.15504795                2.44829816               -0.11798729                0.16235424
               6.91009708                3.02995521               67.07710970                0.01000000               -0.98734240               -0.42490318                0.15800530                2.10680315               -0.18890257                0.23756264
               7.89633442                3.03799037               67.07742422                0.01489239               -0.71707735               -0.14767033                0.16516931                1.48976192               -0.12834583                0.14985850
               8.89575553                3.04077135               67.08022754                0.01472035               -0.05332851               -0.30976350                0.16171861                1.01124569               -0.00335124                0.12023202
               9.89526785                3.04364673               67.08306918                0.99999999               -0.04876845               -0.83119635                0.16161872                1.18176549               -0.00197309                0.15690506
              -0.05127396                4.00307935               67.05891764                0.01000000               -0.00453659                0.13129440                0.12272812                0.57674036                0.04041371                0.29694083
               0.94868067                3.99068821               67.06192214                0.01000000                0.00390262               -0.45563725                0.10489772                1.01343126                0.09044353                0.13915081
               1.94880409                3.98654152               67.06578120                0.01000000               -0.08003583               -0.44039962                0.12594842                1.62172329                0.11590697                0.11598645
               2.94707996                3.98963472               67.06981102                0.01200511               -0.28941586               -0.31334347                0.14332313                1.89800308                0.06427977                0.10371629
               3.94301578                3.99483869               67.07312411                0.01000000               -0.45371512               -0.46672164                0.15569736                2.25879913                0.01040228                0.09928549
               4.93800566                4.00394935               67.07617952                0.01000001               -0.50654154               -0.30075145                0.16178712                2.64881815               -0.01870954                0.14230984
               5.93288494                4.01674203               67.07901483                0.01000001               -0.61032340               -0.50242596                0.16302449                2.97886136               -0.07144353                0.23640352
               6.92579919                4.02717937               67.08127491                0.01220531               -0.74444154               -0.37721703                0.16455933                2.78075809               -0.17448475                0.26562086
               7.91799611                4.03546189               67.08253414                0.01161791               -0.63173830               -0.43705491                0.17860648                2.69282189               -0.23138843                0.35513410
               8.91316442                4.03502711               67.08464185                0.01000000               -0.09667787               -0.79974315                0.16981801                1.92912638               -0.24170559                0.57595704
               9.91606256                4.02747364               67.08809343                0.01000000                0.28981350               -1.79712659                0.14510266                1.78476916               -0.28878275                0.77575943
              -0.02950095                5.00181055               67.06254693                0.01000003                0.01709491               -0.69353722                0.07812534                1.09820618                0.08064060                0.18856872
               0.97067000                4.98578014               67.06543639                0.01000000               -0.11703187               -0.44811521                0.11960052                1.68546423                0.10678375                0.10125563
               1.96815842                4.98177261               67.06869788                0.01000001               -0.41126100               -0.36892857                0.13252730                2.11378230                0.04931700                0.13246727
               2.96244478                4.98624887               67.07222710                0.01000000               -0.38199371               -0.64195790                0.15252827                2.38598552                0.04729993                0.09466892
               3.96051854                4.98962439               67.07577178                0.01000001               -0.27327152               -0.54426990                0.16415204                2.64143843                0.05442083                0.12098876
               4.95697935                4.99987365               67.07949599                0.01000001               -0.40450349               -0.45343751                0.16862926                3.11454367                0.05305165                0.19309598
               5.95242847                5.01216793               67.08309907                0.01207849               -0.49934862               -0.49242777                0.16837597                3.13347314               -0.01914848                0.25042547
               6.94699238                5.02241087               67.08562720                0.01052253               -0.50426806               -0.53156622                0.17514455                3.00618208               -0.09556434                0.33395988
               7.94234311                5.02924927               67.08819851                0.01000000               -0.23330375               -0.73035443                0.18314845                2.61158635               -0.10250664                0.53145650
               8.94232631                5.02477649               67.09168579                0.01000000                0.18635310               -1.01346706                0.20626570                1.74218118               -0.05326346                0.75894632
               9.94607017                5.00770420               67.09594486                0.01000003                0.37438682               -1.43367345                0.23197347                1.03310061                0.02073198                0.76251871
               0.00275099                5.98920861               67.06524972                0.16499795               -0.03230912               -0.64363333                0.09152520                1.24111245               -0.00782231                0.11144570
               1.00242790                5.98172591               67.06868687                0.01000001               -0.60699913               -0.22091674                0.11816550                1.46203636               -0.04945029                0.11484008
               1.99061101                5.97916295               67.07126592                0.01145263               -0.77400011               -0.40030312                0.14252702                1.82507465               -0.03351270                0.05722221
               2.98694790                5.97679556               67.07459147                0.01000001               -0.41956196               -0.82037003                0.16237796                2.42319723                0.04339802                0.05622249
               3.98221977                5.98395330               67.07848305                0.01000001               -0.45974530               -0.61315665                0.16995468                2.88840656                0.10726841                0.10421283
               4.97775299                5.99488060               67.08286956                0.01207330               -0.46012917               -0.55564329                0.17411226                3.08837812                0.10499479                0.15751816
               5.97301718                6.00689348               67.08653982                0.01050294               -0.44557538               -0.52781633                0.17954795                3.02939019                0.08052650                0.24174669
               6.96884148                6.01654805               67.09049192                0.01000000               -0.25774778               -0.53914244                0.18148746                2.76489124                0.11838179                0.42857118
               7.96786223                6.02085480               67.09518394                0.01000000                0.03558168               -0.74492507                0.18531402                2.18595454                0.16665458                0.68344964
               8.96955312                6.01475777               67.10050355                0.01355668                0.15034541               -0.75480241                0.20170634                1.18128270                0.13211722                0.66464386
               9.97086914                5.99880017               67.10447566                0.01000000                0.13160208               -0.46265689                0.22957936                0.45130377                0.06856309                0.50134049
               0.01028670                6.98893789               67.06687284                0.99351671               -0.03303121               -0.02779867                0.09704993                0.00002376               -0.00903715                0.03698229
               1.00995639                6.98136181               67.07013911                0.34870507               -0.03482218               -0.03703331                0.12403833               -0.00143667               -0.04603048                0.00858247
               2.00959026                6.97376655               67.07266188                0.01612543               -0.19190055               -0.29227923                0.13693985                0.75168856               -0.03549834                0.01721255
               3.00611838                6.96984147               67.07610281                0.01000000               -0.46943153               -0.55948798                0.15554227                1.66822136                0.07581169               -0.04760231
               4.00020163                6.97736125               67.08064790                0.01219953               -0.51558218               -0.79870207                0.17254541                2.50480045                0.15234034                0.01689179
               4.99580674                6.98876078               67.08511554                0.01052708               -0.44263974               -0.63478116                0.18250145                2.87466816                0.19008260                0.08381789
               5.99134883                7.00161160               67.09006363                0.01000000               -0.37389272               -0.40395871                0.18766270                2.75321992                0.27332710                0.27402377
               6.98832888                7.01162803               67.09604499                0.01000000               -0.17481776               -0.38381401                0.18366352                2.24335910                0.38928688                0.50325422
               7.98785248                7.01435077               67.10312960                0.01354813               -0.01611463               -0.49237739                0.17197359                1.46927488                0.27306278                0.52916667
               8.98800659                7.00968044               67.10631262                0.01102265               -0.04205138               -0.38091249                0.18851919                0.70447412                0.02352446                0.57295751
               9.98701145                6.99845107               67.10854748                0.01000003               -0.09951381                0.12502011                0.21981053                0.30183584               -0.03565154                0.49411745
               0.01790363                7.98865263               67.06808702                1.00000000               -0.03331264               -0.02862579                0.09742437               -0.00071869               -0.00508885                0.02068595
               1.01757050                7.98098524               67.07124733                0.99999998               -0.03692572               -0.03722825                0.12306064               -0.00102677               -0.01073439               -0.00370239
               2.01716511                7.97331736               67.07429688                0.22277979               -0.04264391               -0.04478972                0.14795934               -0.00566596               -0.04598548                0.00914438
               3.01671762                7.96560580               67.07674854                0.01489162               -0.18843234               -0.23646471                0.14305838                0.64514163                0.04943304               -0.02681663
               4.01339646                7.96797925               67.08171032                0.01161987               -0.28608071               -1.00712751                0.17229543                2.00906769                0.23470228               -0.09410404
               5.01099601                7.98218498               67.08705060                0.01000000               -0.40910615               -0.44474626                0.18661788                2.61450773                0.34280178                0.08555076
               6.00521434                7.99881430               67.09397174                0.01000000               -0.50132575               -0.14413698                0.19055228                2.23561412                0.50222076                0.28709997
               7.00096949                8.00887177               67.10199247                0.01352518               -0.30095144               -0.18236501                0.19361717                1.47826295                0.41941238                0.32252756
               7.99919531                8.01100725               67.10656045                0.01041618               -0.07135936               -0.28824831                0.18199494                0.77125419                0.36101632                0.35564214
               8.99954230                8.00713952               67.11308708                0.01590726                0.00846438               -0.25502589                0.11620793                0.40279535                0.33419002                0.64831239
               9.99936460                8.00130057               67.11680063                0.01000002               -0.01777047                0.27609251                0.14283517                0.32820331                0.19260469                0.46842024
               0.02560711                8.98836537               67.06938357                1.00000000               -0.03359875               -0.02887815                0.09827451               -0.00036669                0.00055535                0.02046605
               1.02527112                8.98061724               67.07245532                0.99999999               -0.03753657               -0.03672978                0.12307043               -0.00049313               -0.00012128                0.00142190
               2.02485638                8.97287076               67.07552401                0.99999998               -0.04559028               -0.04424466                0.14741062               -0.00176064               -0.00364335               -0.00730331
               3.02435932                8.96511218               67.07854294                0.48924117               -0.05262909               -0.04909165                0.16636084               -0.01137642                0.01660195                0.01322796
               4.02380380                8.95721870               67.08204598                0.01000000               -0.35487383               -0.55247140                0.12455669                1.64730600                0.22522268               -0.06483875
               5.01726184                8.97986586               67.08950723                0.01000000               -0.72147352                0.01707005                0.18761181                2.03354510                0.50781693                0.08052037
               6.00937433                8.99872886               67.09774683                0.01349951               -0.57803269                0.03266168                0.19594704                1.28542929                0.47721272                0.18042354
               7.00570119                9.00798072               67.10368759                0.01000002               -0.21822611               -0.13509835                0.19084328                0.61304877                0.47630577                0.05122783
               8.00500981                9.00858581               67.11131810                0.01611799                0.00339926               -0.18949109                0.24315127                0.25561833                0.66718759                0.34183912
               9.00576917                9.00457992               67.11960379                0.99999997                0.01218034               -0.15288900                0.16025523                0.11434024                0.39405418                0.32049631
              10.00525341                9.00397292               67.11995319                1.00000000               -0.05157606                0.10453804                0.18529229                0.26496910               -0.00242522                0.14710549
               0.03339255                9.98807507               67.07059579                0.99967803               -0.03373017               -0.02903027                0.09848554               -0.00389854                0.01485975                0.01597153
               1.03305525                9.98025064               67.07366619                0.99999999               -0.03787952               -0.03665974                0.12317914               -0.00371752                0.01853244                0.00157681
               2.03263496                9.97243247               67.07682643                0.99291492               -0.04565516               -0.04382897                0.14815595               -0.00347593                0.02143287               -0.00314638
               3.03214215                9.96462396               67.07998662                0.99999994               -0.05230288               -0.04882136                0.16861710                0.00315062                0.04288688               -0.00191314
               4.03158890                9.95692983               67.08360366                0.01000000               -1.09926971               -0.02888780                0.12710876                1.67363128                0.26820169               -0.00491096
               5.01015675                9.98252638               67.09158222                0.01000001               -1.43904212                0.26605225                0.18871515                1.41637645                0.51504093                0.04887951
               6.00280806                9.99946754               67.09961061                0.01000000               -0.33916151                0.07386750                0.19790505                0.52554420                0.37882391                0.07661562
               7.00337352               10.00616980               67.10424601                0.01000000                0.24502110               -0.18109244                0.20675345                0.15472813                0.54816272               -0.02951453
               8.00770848               10.00721743               67.11508533                0.01000002                0.15342388               -0.13683744                0.24685137                0.16546478                0.70763483                0.30102726
               9.00644200               10.00408174               67.11976653                1.00000000               -0.09152454               -0.04981779                0.17473387               -0.12402222                0.22003928                0.00341212
              10.00587799               10.00339134               67.12011593                0.99324280               -0.05640073               -0.05815801                0.19977086               -0.00658285                0.00303627               -0.00307784
              -0.08235764               -0.00139375               68.05049789                0.98943320               -0.02130059               -0.02286940                0.07062904                0.00196456               -0.00907841                0.00896247
               0.91742935               -0.00569408               68.05422169                0.98223012               -0.02149449               -0.02333770                0.07217695                0.00029112               -0.00977986               -0.00163799
               1.91721247               -0.00995840               68.05793038                0.01000001                0.06662845               -0.02380187                0.07370621                0.28519686                0.00175234               -0.00388822
               2.91876192               -0.00848607               68.06187971                0.01321994                0.04959364                0.05061525                0.06977004                0.16688949               -0.00107192                0.02573466
               3.91820434               -0.00266307               68.06468192                0.01184086               -0.17582167                0.07219726                0.08265460                0.29487266               -0.07586320                0.01646178
               4.91524549                0.00862502               68.06578596                0.01000001               -0.79062817                0.13965065                0.11336985                0.84844507               -0.05703346               -0.06401763
               5.90239178                0.03152506               68.06689047                0.33521144               -0.65689612               -0.03308762                0.09806880                1.01372298               -0.07975150                0.00006011
               6.90210757                0.03421868               68.06965327                1.00000000               -0.02832027               -0.03217095                0.09558875               -0.00025962                0.00347007               -0.00429534
               7.90182537                0.03698963               68.07242479                1.00000000               -0.02814042               -0.03194927                0.09479382               -0.00003575                0.00522485               -0.00104135
               8.90154476                0.03983336               68.07522234                0.99914462               -0.02796227               -0.03174662                0.09404494                0.00002200                0.00540360                0.00122793
               9.90126613                0.04274830               68.07799382                1.00000000               -0.02786305               -0.03155941                0.09342985               -0.00369318                0.00445254                0.00528394
              -0.07803767                0.99837755               68.05187350                1.00000000               -0.02477419               -0.02451012                0.08179462                0.00174966                0.00136748                0.00950278
               0.92171459                0.99407255               68.05559664                0.01000000               -0.02509464               -0.02500317                0.08333484                0.00006774                0.00459004               -0.00474587
               1.92146044                0.98980358               68.05938648                0.01000000               -0.24657180                0.03931936                0.08487760                0.20967711                0.02617811                0.03979738
               2.91678315                0.99202008               68.06353974                0.01000000               -0.44314563                0.04107646                0.10079947                0.51448082                0.00302306                0.03669160
               3.91259752                0.99805891               68.06673505                0.01000000               -0.50736372                0.05150297                0.09340945                0.78690043               -0.00996398                0.00975158
               4.90663588                1.01002152               68.06873469                0.01000000               -0.64326740                0.01220213                0.11917014                1.39333544               -0.04181959               -0.04034039
               5.89973218                1.03119418               68.06919677                0.01000001               -0.36315956               -0.46554916                0.12117508                1.33124529               -0.11839983                0.09190199
               6.89937269                1.03389697               68.07188730                0.80324251               -0.03572484               -0.03550155                0.11844847                0.00014717               -0.00339781               -0.00619357
               7.89901768                1.03667014               68.07465825                0.99999994               -0.03535205               -0.03532102                0.11779775                0.00013962                0.00099766               -0.00149846
               8.89866564                1.03951589               68.07744218                1.00000000               -0.03517119               -0.03518101                0.11725638                0.00007349                0.00098992                0.00143316
               9.89831425                1.04243270               68.08021519                0.99999997               -0.03513894               -0.03500183                0.11668216               -0.00347442                0.00046407                0.00723284
              -0.07371263                1.99811604               68.05326269                0.10871648               -0.02826887               -0.02313872                0.09299404                0.00416863                0.00389080                0.04788523
               0.92600468                1.99380586               68.05690804                0.01000000               -0.14144440               -0.02634597                0.09453362                0.06694974                0.06147248                0.02926839
               1.92345848                1.99082799               68.06171073                0.01000001               -0.26042313               -0.05056298                0.10979214                0.43358065                0.09662930                0.09365583
               2.92079622                1.99233546               68.06582787                0.01000000               -0.37587861               -0.06329226                0.11435403                1.02369699                0.06009686                0.06405492
               3.91594091                1.99836699               68.06921476                0.01000000               -0.54096473               -0.04819770                0.12271305                1.52437027                0.00130306                0.03989904
               4.90997692                2.00886906               68.07167567                0.01000001               -0.53998359               -0.30322939                0.12575082                2.00108590               -0.09448632                0.06756257
               5.90514123                2.02221408               68.07335203                0.01144115               -0.66711821               -0.55015108                0.14146994                1.89430393               -0.16751166                0.15527989
               6.89663456                2.03350865               68.07408803                0.01000000               -0.44659930               -0.29819798                0.14081033                1.08611991               -0.10328852                0.11220497
               7.89620925                2.03628321               68.07688368                0.08176058               -0.04254472               -0.04097882                0.14071375                0.00476871               -0.00161793               -0.00128627
               8.89578366                2.03912974               68.07966385                0.99999999               -0.04231175               -0.04210789                0.14050474               -0.00004295               -0.00160847               -0.00020247
               9.89536301                2.04204826               68.08246950                0.99999999               -0.04206488               -0.04189609                0.13991608               -0.00353222               -0.00063023                0.00740239
              -0.06933393                2.99791478               68.05541191                0.01000000               -0.03244346                0.21373211                0.09662695                0.57246897                0.00331048                0.21580820
               0.93034164                2.99354563               68.05896479                0.01000000                0.04681905               -0.32052312                0.09738527                0.56935190                0.09061734                0.17072872
               1.93160245                2.98879232               68.06427564                0.01000000               -0.03117753               -0.29917862                0.12488824                0.99405987                0.14991082                0.10171127
               2.92971809                2.99075423               68.06839725                0.01000000               -0.25255639               -0.21382198                0.13310402                1.57516884                0.06783951                0.09724346
               3.92655133                2.99709495               68.07197594                0.01200468               -0.34537876               -0.25965916                0.13935173                1.85639578                0.00596740                0.08473016
               4.92281051                3.00395693               68.07485462                0.01000000               -0.67863315               -0.33178975                0.14827594                2.39560939               -0.08364472                0.10772635
               5.91297866                3.02019116               68.07665023                0.01000001               -0.78922801               -0.35933790                0.15252037                2.41856469               -0.12103563                0.15165609
               6.90702595                3.02793301               68.07869906                0.01000000               -0.97433467               -0.40178940                0.16044534                2.06341340               -0.18557735                0.22772067
               7.89349197                3.03585056               68.07912748                0.01503480               -0.70631084               -0.14140659                0.17358538                1.42885348               -0.12687710                0.15064155
               8.89289973                3.03867373               68.08185473                0.01664791               -0.05427032               -0.21126270                0.16384009                0.90233534               -0.00704093                0.12105373
               9.89240656                3.04159478               68.08469304                0.99999999               -0.04931722               -0.68204458                0.16313473                1.01929822               -0.00205816                0.13503555
              -0.05352495                4.00239069               68.06021764                0.01382893                0.00391202                0.14695663                0.08911672                0.41724482                0.00334162                0.23703307
               0.94651417                3.98739540               68.06312401                0.01000000               -0.01719909               -0.56622864                0.14989313                1.08362403                0.07188764                0.13379813
               1.94613107                3.98484442               68.06713265                0.01000000               -0.12586037               -0.41757066                0.14155675                1.71571087                0.10750590                0.13358078
               2.94399696                3.98805902               68.07126534                0.01200958               -0.31324741               -0.29837334                0.14706948                1.89529568                0.05549857                0.11036240
               3.93986612                3.99317381               68.07467728                0.01000000               -0.46020320               -0.44810742                0.15418184                2.24740328                0.00088194                0.10327167
               4.93479290                4.00223326               68.07778389                0.01000001               -0.51648349               -0.27688531                0.15870016                2.63876052               -0.03281298                0.13968674
               5.92953645                4.01502732               68.08062595                0.01000001               -0.62747364               -0.46690360                0.15894245                2.96564944               -0.09051133                0.22705691
               6.92224343                4.02547286               68.08290928                0.01223187               -0.77454254               -0.34485429                0.15314639                2.74042657               -0.18190117                0.25171583
               7.91404560                4.03345508               68.08439979                0.01172802               -0.70786387               -0.38896562                0.17541870                2.71029049               -0.20421523                0.34209880
               8.90808615                4.03490448               68.08651241                0.01000000               -0.20693597               -0.72842976                0.19441431                2.00205259               -0.15648464                0.44884943
               9.90990688                4.02840737               68.08950495                0.01000000                0.18207314               -1.74105180                0.21731799                1.83273063               -0.16380149                0.58937387
              -0.03099845                5.00085391               68.06283920                0.01372626                0.05588402               -0.71136519                0.10792311                0.76768201                0.13397865                0.14229902
               0.96956039                4.98222105               68.06665342                0.01000000               -0.18742481               -0.34387963                0.12409879                1.59315696                0.12907547                0.07207315
               1.96525305                4.98044091               68.07012600                0.01000001               -0.51328905               -0.35537429                0.15354061                2.18046053                0.03534295                0.14533239
               2.95929461                4.98478677               68.07376335                0.01000000               -0.39639545               -0.62960133                0.15437220                2.36724851                0.03603034                0.10385375
               3.95732514                4.98813280               68.07741836                0.01000001               -0.27811967               -0.53149271                0.16409987                2.63985356                0.03956196                0.12470014
               4.95373221                4.99841923               68.08117372                0.01000001               -0.41365453               -0.43015921                0.16703417                3.12804159                0.02990750                0.19317413
               5.94905205                5.01085309               68.08476714                0.01211727               -0.51627447               -0.46216222                0.16435258                3.14771842               -0.04285436                0.24898130
               6.94340672                5.02103593               68.08736902                0.01059210               -0.53929458               -0.49678023                0.16776217                3.02702824               -0.10984409                0.32526906
               7.93826616                5.02807125               68.09004243                0.01000000               -0.27091144               -0.66880377                0.17328815                2.67116775               -0.08306177                0.49200899
               8.93798850                5.02410514               68.09390070                0.01000000                0.18946207               -1.05090020                0.21315660                1.83519743               -0.01427058                0.67155304
               9.94205540                5.00677374               68.09848025                0.01012989                0.40669064               -1.55385472                0.25298309                1.14246336                0.02791609                0.71011122
              -0.00090559                5.98816338               68.06614677                0.14807316               -0.03040952               -0.64806146                0.08703963                1.12530870               -0.00860059                0.14474923
               0.99879031                5.98051780               68.06984458                0.01000001               -0.59599199               -0.10272353                0.11247960                1.32420041               -0.05014257                0.11450811
               1.98717457                5.97773693               68.07268973                0.01144379               -0.75701354               -0.40115778                0.14162273                1.79113398               -0.03248206                0.05570587
               2.98365004                5.97546699               68.07627350                0.01000001               -0.40719183               -0.83095283                0.16352471                2.41426403                0.03442556                0.06447677
               3.97903073                5.98254396               68.08018085                0.01000001               -0.45082972               -0.60904275                0.17238306                2.89432911                0.08249485                0.11204270
               4.97463345                5.99363008               68.08461029                0.01211999               -0.45783041               -0.54574798                0.17346198                3.11699491                0.08121968                0.16172808
               5.96987412                6.00578407               68.08832705                0.01058137               -0.45338060               -0.51281179                0.17770222                3.06479019                0.05530917                0.24505693
               6.96556583                6.01553726               68.09229786                0.01000000               -0.27371876               -0.51031994                0.17861351                2.82072813                0.09367281                0.41843661
               7.96439975                6.02007900               68.09704540                0.01000000                0.02608838               -0.71103574                0.18286275                2.26657029                0.14794968                0.64789522
               8.96608760                6.01388648               68.10252113                0.01380424                0.15095929               -0.75667798                0.19602493                1.22974843                0.11870196                0.61098799
               9.96741893                5.99733027               68.10678438                0.01000000                0.13313305               -0.48406895                0.22617411                0.45229303                0.05806256                0.44890156
               0.00679888                6.98789268               68.06784273                0.99272871               -0.03280308               -0.02774266                0.09650383                0.00097838               -0.00838455                0.04156162
               1.00647085                6.98016658               68.07137672                0.29253982               -0.03361663               -0.03637988                0.12339381               -0.00161325               -0.05304117                0.01181732
               2.00612655                6.97241775               68.07401245                0.01610385               -0.18489927               -0.28823955                0.13205281                0.73271038               -0.04639741                0.01836658
               3.00277286                6.96816771               68.07762546                0.01000000               -0.45389560               -0.56644902                0.19056020                1.66187150                0.06251458               -0.04367798
               3.99704863                6.97595195               68.08241541                0.01223612               -0.49704346               -0.80566317                0.16894338                2.54205300                0.13554791                0.01450601
               4.99283199                6.98750427               68.08693328                0.01058732               -0.43039786               -0.64026573                0.18481218                2.90649486                0.16074594                0.09321810
               5.98844068                7.00059685               68.09194182                0.01000000               -0.36528170               -0.39889539                0.18725818                2.80086365                0.24234174                0.27413894
               6.98552636                7.01082953               68.09789401                0.01000000               -0.15961649               -0.37114273                0.18552139                2.31559455                0.34900099                0.49732704
               7.98524835                7.01385053               68.10483486                0.01379991               -0.00970838               -0.48636219                0.17181739                1.54299194                0.23447558                0.51743839
               8.98533219                7.00897158               68.10817815                0.01131850               -0.05173386               -0.35092654                0.18347748                0.73189045                0.00554995                0.49973588
               9.98421367                6.99709236               68.11072298                0.01068411               -0.11185218                0.13819840                0.21191522                0.30571094               -0.04572187                0.41781361
               0.01456617                7.98760853               68.06906400                1.00000000               -0.03331987               -0.02859395                0.09743013               -0.00075988               -0.00493040                0.02241987
               1.01423297                7.97979021               68.07247624                0.99999998               -0.03692626               -0.03722588                0.12287328               -0.00134954               -0.01073445               -0.00411616
               2.01382765                7.97197214               68.07576983                0.19749288               -0.04398486               -0.04452169                0.14778597               -0.00587778               -0.06627060                0.01391426
               3.01335328                7.96413801               68.07806918                0.01503555               -0.16462081               -0.22704210                0.06837010                0.64272932                0.06477496               -0.04341743
               4.01053523                7.96643069               68.08327122                0.01173385               -0.26174189               -1.01326373                0.19146846                2.01330456                0.22105700               -0.09737366
               5.00811844                7.98082476               68.08897778                0.01000000               -0.39845474               -0.45596264                0.18917908                2.64130993                0.32316353                0.07828510
               6.00256613                7.99780617               68.09588155                0.01000000               -0.47471961               -0.14538106                0.19355748                2.28446007                0.46821110                0.28447001
               6.99862405                8.00811440               68.10389684                0.01377760               -0.27242995               -0.18072083                0.19207091                1.51281993                0.39121494                0.31718698
               7.99711754                8.01035176               68.10850964                0.01071501               -0.05702339               -0.31429914                0.19352517                0.81757765                0.29088456                0.34971310
               8.99748358                8.00686795               68.11417822                0.01467674                0.00870184               -0.22993104                0.10545117                0.48387849                0.24817521                0.60915935
               9.99729157                8.00009424               68.11817144                0.01000002               -0.01920046                0.33109516                0.12759870                0.34966483                0.16044903                0.41147361
               0.02242033                8.98732080               68.07037262                0.99999998               -0.03400801               -0.02898756                0.09887732               -0.00035016                0.00119260                0.02221333
               1.02208025                8.97942206               68.07368857                0.99999999               -0.03795693               -0.03677895                0.12361306               -0.00072278                0.00057505                0.00164367
               2.02166119                8.97152732               68.07699370                0.99999997               -0.04556751               -0.04410028                0.14740371               -0.00199750               -0.00554027               -0.00838313
               3.02116890                8.96362687               68.08019339                0.50155096               -0.05166097               -0.05012644                0.16497758               -0.00499459               -0.00325338                0.02903079
               4.02062797                8.95568667               68.08355342                0.01000000               -0.34430893               -0.56116072                0.15279608                1.63890397                0.22292935               -0.07016959
               5.01428272                8.97838502               68.09127466                0.01000000               -0.68938647                0.00645398                0.18047131                2.04930709                0.50340808                0.06767700
               6.00684024                8.99768923               68.09971741                0.01374232               -0.55227758                0.02571108                0.20332488                1.31460985                0.45238834                0.17859641
               7.00323717                9.00721511               68.10563405                0.01011600               -0.19969410               -0.13630117                0.19963732                0.59705126                0.40442876                0.04344947
               8.00284636                9.00756455               68.11284144                0.01318551                0.10150558               -0.23126251                0.11935138                0.26908658                0.55694992                0.32519088
               9.00526728                9.00437296               68.12119118                0.99915096                0.09540095               -0.14937504                0.15736815                0.23341431                0.38375712                0.33749989
              10.00475438                9.00371427               68.12181046                1.00000000               -0.05129013                0.15154698                0.18634420                0.34122551               -0.00243820                0.16363345
               0.03035664                9.98702878               68.07158856                1.00000000               -0.03446441               -0.02920243                0.09948216               -0.00378348                0.01711115                0.01752328
               1.03001200                9.97905463               68.07490491                0.99999999               -0.03868750               -0.03674375                0.12437118               -0.00375701                0.02127736                0.00167478
               2.02958289                9.97109013               68.07831034                0.99999999               -0.04589845               -0.04371863                0.14894353               -0.00378691                0.02258760               -0.00400500
               3.02909403                9.96313548               68.08166666                0.99999999               -0.05138661               -0.04913880                0.16824221               -0.00161950                0.02602089               -0.00351929
               4.02855516                9.95520748               68.08515426                0.01000000               -1.09960044               -0.04791965                0.15652570                1.68363741                0.26840695               -0.00591698
               5.00710202                9.98095384               68.09336160                0.01000000               -1.42634618                0.25688280                0.18262755                1.43757579                0.51335650                0.04476628
               6.00002824                9.99832039               68.10159788                0.01000000               -0.32061339                0.06311550                0.20685030                0.54052655                0.35893447                0.07093435
               7.00068975               10.00538838               68.10631687                0.01000000                0.26565932               -0.18267311                0.20808607                0.11556468                0.44606774               -0.01516420
               8.00534142               10.00572651               68.11608992                0.01000002                0.26561961               -0.18380424                0.07560525                0.17410987                0.51664759                0.21264313
               9.00600215               10.00388045               68.12150987                1.00000000                0.00460171               -0.04925100                0.17409906               -0.05657956                0.24346703                0.00339495
              10.00543346               10.00312518               68.12212914                0.99349219               -0.05686876               -0.05890871                0.20307499               -0.00761832                0.00301138               -0.00308690
              -0.08617987               -0.00273576               69.05120509                0.98962640               -0.02124900               -0.02300764                0.07083606                0.00193888               -0.00904464                0.00891948
               0.91360764               -0.00714136               69.05494099                0.98091635               -0.02134196               -0.02326818                0.07169102                0.00018695               -0.00976724               -0.00166179
               1.91339329               -0.01150931               69.05866162                0.01000001                0.08826464               -0.02352492                0.07254849                0.28509228               -0.01093724               -0.00389647
               2.91537293               -0.01013892               69.06236901                0.01000000                0.09243176                0.03459644                0.07087396                0.14862468               -0.02907164                0.03451017
               3.91524192               -0.00479358               69.06530315                0.01000001               -0.15095987                0.06319381                0.08558559                0.27068025               -0.10821362                0.04315573
               4.91235373                0.00622701               69.06730112                0.01000000               -0.77890074                0.14803476                0.12938742                0.82089408               -0.20500593                0.03716955
               5.89966391                0.02910468               69.06787895                0.33743061               -0.64879690               -0.03370287                0.09939087                1.01111459               -0.10666221                0.00028605
               6.89937780                0.03182695               69.07061079                1.00000000               -0.02842266               -0.03242532                0.09597996               -0.00036652                0.00221032               -0.00442146
               7.89909546                0.03463046               69.07337123                1.00000000               -0.02806673               -0.03201282                0.09454481               -0.00007046                0.00492616               -0.00112526
               8.89881646                0.03750989               69.07615851                1.00000000               -0.02768679               -0.03160974                0.09308341               -0.00001070                0.00515509                0.00118035
               9.89854172                0.04046315               69.07892147                1.00000000               -0.02747409               -0.03120478                0.09183577               -0.00395891                0.00426583                0.00499035
              -0.08175488                0.99703417               69.05269500                1.00000000               -0.02488392               -0.02472426                0.08249758                0.00182903                0.00135885                0.00948182
               0.91799628                0.99262595               69.05643016                0.01000000               -0.02510666               -0.02500289                0.08335297                0.00006502                0.00458225               -0.00474044
               1.91774299                0.98825544               69.06023200                0.01000000               -0.22474854                0.03732997                0.08419634                0.21098087                0.03428091                0.04589205
               2.91350131                0.99020705               69.06455930                0.01000000               -0.39886125                0.03202127                0.09368572                0.48817605                0.06688129                0.03733158
               3.90976576                0.99583836               69.06764654                0.01000000               -0.49438837                0.05386845                0.09300708                0.75557919               -0.05030101                0.05001893
               4.90361354                1.00770735               69.06987398                0.01000000               -0.63953410                0.01690175                0.11254188                1.38143497               -0.17117997                0.04926429
               5.89697508                1.02876765               69.07042203                0.01000001               -0.35011528               -0.46008898                0.12350984                1.31771820               -0.11490031                0.08983365
               6.89661124                1.03150270               69.07307759                0.79004606               -0.03608993               -0.03585875                0.11966918                0.00022590               -0.00463494               -0.00665331
               7.89625328                1.03431033               69.07583931                0.99984826               -0.03556142               -0.03550575                0.11846984                0.00022340                0.00107704               -0.00162535
               8.89590001                1.03719379               69.07861552                1.00000000               -0.03522067               -0.03520509                0.11735162                0.00010916                0.00108135                0.00151818
               9.89554887                1.04015110               69.08138027                0.99967544               -0.03511411               -0.03476898                0.11614484               -0.00364996                0.00054857                0.00710321
              -0.07732687                1.99676976               69.05419892                0.12894025               -0.02854681               -0.02441419                0.09420842                0.00374709                0.00386986                0.04476777
               0.92238766                1.99235858               69.05785629                0.01000000               -0.13206578               -0.02672298                0.09509493                0.06417056                0.06752895                0.02587991
               1.92003181                1.98923729               69.06279213                0.01000001               -0.24170642               -0.05312595                0.10470941                0.43180779                0.11098082                0.10344443
               2.91755353                1.99050151               69.06694495                0.01000000               -0.35893076               -0.05919538                0.10981641                0.99917889                0.04009094                0.07763272
               3.91285320                1.99628379               69.07035301                0.01000000               -0.52501966               -0.03237236                0.11526983                1.48084734               -0.02057549                0.08417760
               4.90705314                2.00656504               69.07284222                0.01000001               -0.53151357               -0.28861814                0.12253258                1.97823527               -0.08120831                0.09325041
               5.90222293                2.01990290               69.07476784                0.01142875               -0.66067549               -0.53960035                0.14006660                1.86928817               -0.16370969                0.14561786
               6.89383963                2.03110978               69.07550510                0.01000000               -0.44070478               -0.29071633                0.14263024                1.06572483               -0.10223291                0.11021480
               7.89340883                2.03392035               69.07829833                0.08107791               -0.04308766               -0.04116196                0.14227015                0.00419650               -0.00084963                0.00452049
               8.89297788                2.03680578               69.08107467                0.99999999               -0.04273666               -0.04249658                0.14176760               -0.00017199               -0.00122472                0.00004151
               9.89255410                2.03976777               69.08387145                0.99929113               -0.04237783               -0.04195516                0.14038540               -0.00374202               -0.00055392                0.00740329
              -0.07285758                2.99654588               69.05640000                0.01000001               -0.03302593                0.18114821                0.10039565                0.56991168                0.00337390                0.18266783
               0.92681216                2.99209149               69.05995927                0.01000000                0.05468981               -0.33415169                0.10081461                0.57314016                0.10561736                0.20196537
               1.92823622                2.98719292               69.06557459                0.01000000               -0.01868857               -0.29372573                0.12422474                0.98563524                0.13415270                0.14368222
               2.92643839                2.98902314               69.06972477                0.01000000               -0.24585201               -0.20128225                0.13018410                1.55448766                0.04979563                0.11887758
               3.92331918                2.99519091               69.07334449                0.01200890               -0.34396249               -0.24110429                0.13578860                1.82867618               -0.00214602                0.10217082
               4.91955914                3.00193499               69.07631377                0.01000000               -0.67515334               -0.30705265                0.14463482                2.35661551               -0.09027184                0.12027374
               5.90981611                3.01797564               69.07815608                0.01000001               -0.78254253               -0.33683197                0.14889563                2.37398873               -0.12457622                0.13916007
               6.90390829                3.02568837               69.08031861                0.01000000               -0.95874525               -0.37830230                0.16015085                2.00295745               -0.18036773                0.20525196
               7.89064120                3.03348709               69.08089593                0.01518753               -0.69295697               -0.12657193                0.20105828                1.37776664               -0.11823808                0.13162561
               8.89004915                3.03634386               69.08350434                0.01376133               -0.05455710               -0.24238266                0.16639492                0.88882940               -0.01248710                0.12781974
               9.88955006                3.03931200               69.08633188                0.99999999               -0.04990871               -0.71469330                0.16449402                1.00918138               -0.00218194                0.18816257
              -0.05701986                4.00039272               69.06069998                0.01000001                0.02232873                0.10907642                0.07695597                0.44867110                0.03165879                0.25164149
               0.94320342                3.98567554               69.06492001                0.01000000               -0.00836304               -0.57952279                0.14157223                1.10613030                0.00426242                0.34069402
               1.94281288                3.98336277               69.06861234                0.01000000               -0.12790635               -0.40353740                0.14346860                1.71597223                0.02286217                0.16778826
               2.94064530                3.98647586               69.07275241                0.01201282               -0.31490029               -0.28526721                0.14590764                1.87667834                0.03075570                0.12152873
               3.93651487                3.99146170               69.07620774                0.01000000               -0.46222894               -0.42880488                0.15160680                2.22641810               -0.01519212                0.11304248
               4.93140072                4.00042399               69.07935353                0.01000001               -0.52827744               -0.25121318                0.15599070                2.61870701               -0.04950640                0.14112760
               5.92594932                4.01316626               69.08219368                0.01000001               -0.65066944               -0.42645944                0.15645029                2.93398598               -0.12345850                0.21851524
               6.91838733                4.02354373               69.08433784                0.01227667               -0.78203213               -0.30803460                0.14284311                2.69172837               -0.22753149                0.23098308
               7.91030868                4.03138891               69.08604251                0.01186005               -0.67288831               -0.35216266                0.11254298                2.59616956               -0.23871753                0.32212484
               8.90492956                4.03195813               69.08853014                0.01000000               -0.17536152               -0.70725122                0.16963605                1.88194583               -0.03610611                0.29729097
               9.90680145                4.02547390               69.09243979                0.01000000                0.18718854               -1.73424966                0.34536489                1.74754312               -0.00267355                0.45183263
              -0.03444981                4.99872741               69.06470539                0.01000001                0.04145180               -0.66463313                0.10777018                0.78752402               -0.11819326                0.16893709
               0.96596471                4.98050104               69.06791836                0.01000000               -0.18974251               -0.31913885                0.11982254                1.60367096               -0.10770889                0.27959965
               1.96175534                4.97912217               69.07176869                0.01000001               -0.50458428               -0.34860787                0.15125309                2.17681598               -0.00573968                0.13375314
               2.95587303                4.98331779               69.07531455                0.01000000               -0.39279660               -0.61264404                0.15309310                2.34963153                0.00871709                0.10877206
               3.95389941                4.98661481               69.07905378                0.01000001               -0.28221519               -0.51323019                0.16255469                2.63054656                0.02151402                0.13279583
               4.95022872                4.99691073               69.08283667                0.01000001               -0.42616628               -0.40341939                0.16597493                3.13310532                0.00457397                0.19534207
               5.94537609                5.00944645               69.08638612                0.01216524               -0.53542570               -0.42731609                0.16298412                3.15517157               -0.07703051                0.25120720
               6.93952021                5.01952768               69.08898245                0.01067554               -0.56129461               -0.45759739                0.15609414                3.03033226               -0.15362411                0.33312962
               7.93415019                5.02644384               69.09166427                0.01000000               -0.29585682               -0.61843167                0.15832166                2.64802135               -0.11163947                0.47485774
               8.93360307                5.02219883               69.09594893                0.01000000                0.16595949               -0.96290259                0.16771786                1.77208878               -0.06664724                0.62472174
               9.93746938                5.00462700               69.10100453                0.01015815                0.38663116               -1.49692096                0.19705994                1.07793911               -0.04214926                0.66191640
              -0.00481664                5.98710006               69.06699052                0.12661637               -0.03012802               -0.59377634                0.08443513                1.09431319               -0.00869929                0.09761049
               0.99488208                5.97929277               69.07093646                0.01000001               -0.58254592               -0.07672768                0.11035323                1.30258491               -0.05054592                0.11132727
               1.98353244                5.97639062               69.07409838                0.01143660               -0.73683957               -0.40341954                0.14042499                1.77942175               -0.02402418                0.05077740
               2.98014529                5.97422298               69.07786196                0.01000001               -0.39997862               -0.80727805                0.15916282                2.39495798                0.02212469                0.10614295
               3.97553287                5.98119710               69.08193071                0.01000001               -0.44570519               -0.60269030                0.17156489                2.89189845                0.06271792                0.11378381
               4.97123118                5.99235560               69.08633879                0.01216115               -0.45485340               -0.53265351                0.17346704                3.13446815                0.05422510                0.17027344
               5.96643580                6.00461994               69.09009386                0.01067578               -0.46172975               -0.49532895                0.17626185                3.09475162                0.02697348                0.25330669
               6.96199659                6.01439178               69.09406420                0.01000000               -0.29189239               -0.47760453                0.17726203                2.86479910                0.06212252                0.42104755
               7.96059795                6.01902027               69.09884119                0.01000000                0.00957940               -0.66042730                0.17625338                2.32079775                0.11372227                0.64166494
               8.96218818                6.01270008               69.10442405                0.01406649                0.14529687               -0.70903856                0.18979620                1.25708052                0.09800714                0.58862316
               9.96350389                5.99553548               69.10899915                0.01000000                0.13157133               -0.46033621                0.21754578                0.46043935                0.04881153                0.40160976
               0.00305104                6.98685188               69.06880292                0.99044548               -0.03251883               -0.02644603                0.09511177                0.00131914               -0.00782639                0.04808061
               1.00272585                6.97896649               69.07260699                0.23291809               -0.03187367               -0.03508513                0.12271372               -0.00150999               -0.06291607                0.01792880
               2.00241357                6.97105378               69.07530294                0.01606853               -0.18800738               -0.28881132                0.12505239                0.74600341               -0.01818924                0.01977780
               2.99896570                6.96717223               69.07991402                0.01000000               -0.44044021               -0.60267330                0.18357872                1.69368362                0.07908768               -0.05134246
               3.99360476                6.97456101               69.08402677                0.01228017               -0.47352281               -0.81516621                0.17132224                2.52307773                0.07456503                0.05182758
               4.98949525                6.98625766               69.08881178                0.01067481               -0.41849128               -0.64731491                0.18506024                2.92983127                0.14010524                0.09858789
               5.98523494                6.99953988               69.09380879                0.01000000               -0.35396960               -0.39459162                0.18646253                2.84708201                0.21453977                0.27941683
               6.98241586                7.00997559               69.09975542                0.01000000               -0.14885423               -0.34581554                0.18601904                2.39322648                0.31402894                0.50192497
               7.98225785                7.01323529               69.10656595                0.01410279               -0.00931902               -0.45126687                0.17630053                1.60880688                0.19675557                0.51258132
               8.98222948                7.00801806               69.10998217                0.01165996               -0.06252435               -0.31952005                0.18167630                0.74204119               -0.01328162                0.43239015
               9.98100737                6.99542028               69.11278579                0.01196765               -0.12221100                0.14535388                0.20131051                0.29438498               -0.05204271                0.34109435
               0.01098054                7.98657114               69.07003562                1.00000000               -0.03305589               -0.02833987                0.09645093               -0.00060563               -0.00466165                0.02417102
               1.01064998                7.97859106               69.07370480                0.99999999               -0.03668879               -0.03725167                0.12283157               -0.00105259               -0.01044333               -0.00428378
               2.01024676                7.97061439               69.07725260                0.01389872               -0.00691218               -0.04455960                0.14923238               -0.02971844               -0.15104720                0.02158410
               3.01051174                7.96216951               69.07811595                0.01518075               -0.16688813               -0.25384601                0.17349222                0.65241085               -0.09012029                0.09344584
               4.00690900                7.96489378               69.08553969                0.01186055               -0.28313969               -1.03143676                0.20154288                2.04080702                0.22752796               -0.11920015
               5.00484894                7.97940930               69.09083418                0.01000000               -0.36247451               -0.47110389                0.18693945                2.67525444                0.27307894                0.07505137
               5.99965951                7.99672811               69.09784289                0.01000000               -0.43416210               -0.14777057                0.19460540                2.34469712                0.44940152                0.28947168
               6.99616570                8.00747547               69.10583389                0.01407171               -0.24639458               -0.17729507                0.19413350                1.57583557                0.38169149                0.33439700
               7.99473162                8.00999494               69.11043095                0.01105104               -0.06608412               -0.28629716                0.18604293                0.85840133                0.22678540                0.32164329
               8.99484402                8.00630968               69.11519610                0.01315380               -0.00722310               -0.20098943                0.10766959                0.53467214                0.16358136                0.55915603
               9.99458716                7.99844256               69.11935261                0.01000002               -0.02568617                0.39338018                0.10822226                0.36122446                0.11988401                0.35452802
               0.01899907                8.98628509               69.07136112                0.99979389               -0.03375264               -0.02887350                0.09825102               -0.00028661                0.00207897                0.02404094
               1.01866155                8.97822145               69.07492758                0.99999999               -0.03791622               -0.03698008                0.12394991               -0.00067295                0.00137775                0.00198901
               2.01824075                8.97016259               69.07847208                0.99486012               -0.04635052               -0.04476479                0.14940273               -0.00239724               -0.00805867               -0.00981003
               3.01773454                8.96209531               69.08184249                0.51748653               -0.05298162               -0.02812347                0.16807772               -0.04617050               -0.02192531                0.10849444
               4.01718112                8.95393227               69.08510190                0.01000000               -0.32842648               -0.56419857                0.13689451                1.65466833                0.21721661               -0.10806665
               5.01116601                8.97683558               69.09311665                0.01000000               -0.65592032               -0.00807368                0.19444561                2.08917557                0.50234432                0.05720257
               6.00406271                8.99658446               69.10181332                0.01400382               -0.52501350                0.01985942                0.20755367                1.34830442                0.44933633                0.18220158
               7.00066574                9.00642969               69.10768034                0.01038440               -0.17355188               -0.14872922                0.20759794                0.62810130                0.35090970                0.05386952
               8.00059167                9.00750935               69.11370512                0.01000005                0.19047795               -0.25107965                0.12098057                0.28426995                0.52880105                0.29338524
               9.00447530                9.00399827               69.12275115                1.00000000                0.16872098               -0.13987042                0.15429537                0.31033156                0.40308866                0.35563835
              10.00396609                9.00328788               69.12368008                1.00000000               -0.05092040                0.21248426                0.18718220                0.43458726               -0.00234531                0.18909909
               0.02710207                9.98599367               69.07258544                1.00000000               -0.03430589               -0.02914181                0.09929806               -0.00392037                0.01960818                0.01915042
               1.02675901                9.97785146               69.07615362                0.99999999               -0.03885582               -0.03699885                0.12502987               -0.00398181                0.02417134                0.00178412
               2.02632496                9.96971910               69.07980530                1.00000000               -0.04701851               -0.04434961                0.15122047               -0.00380004                0.02356945               -0.00518970
               3.02581864                9.96160705               69.08335147                0.99999999               -0.05314287               -0.04882672                0.17083198                0.00294630                0.00960483               -0.00538273
               4.02526210                9.95360980               69.08673418                0.01000000               -1.09191912               -0.03224682                0.14063369                1.69013751                0.26094866               -0.00631815
               5.00398026                9.97924783               69.09523477                0.01000000               -1.41153051                0.24122491                0.19906182                1.45720003                0.52445778                0.03761756
               5.99703149                9.99712529               69.10374761                0.01000000               -0.30887117                0.05408303                0.21464821                0.55953096                0.35827525                0.06888104
               6.99780284               10.00450089               69.10840773                0.01000000                0.29084706               -0.19288000                0.21587573                0.10611266                0.36796597               -0.01657527
               8.00284843               10.00497334               69.11659743                0.01000002                0.37346398               -0.25360075                0.11566608                0.17624503                0.48451124                0.20808645
               9.00527212               10.00351227               69.12324851                1.00000000                0.09256256               -0.04860029                0.17326014               -0.03437270                0.28951876                0.00345221
              10.00469968               10.00269224               69.12417743                0.99374767               -0.05724361               -0.05956370                0.20614694               -0.00864343                0.00309097               -0.00300410
              -0.09001032               -0.00419519               70.05191461                0.98987696               -0.02122012               -0.02314504                0.07109658                0.00190404               -0.00899171                0.00882176
               0.90977747               -0.00870566               70.05565551                0.97951166               -0.02119882               -0.02319039                0.07125609                0.00008122               -0.00973397               -0.00164995
               1.90956570               -0.01317708               70.05938135                0.01000000                0.08807467               -0.02320024                0.07144500                0.27158130               -0.00080087               -0.00384455
               2.91153897               -0.01217646               70.06329719                0.01000001                0.07711308                0.03672271                0.09747889                0.25124481               -0.01471435                0.03602484
               3.91110796               -0.00648673               70.06639363                0.01153721               -0.14847009                0.04961550                0.10301026                0.33684421               -0.10374990                0.03908465
               4.90856957                0.00422269               70.06837371                0.01000001               -0.70795516                0.12430190                0.10296313                0.83329008               -0.18389379                0.03191506
               5.89694886                0.02644463               70.06887829                0.34150321               -0.59550348               -0.03426588                0.10045295                0.97686823               -0.11063631                0.00018996
               6.89665950                0.02919666               70.07157287                1.00000000               -0.02863366               -0.03270594                0.09651995               -0.00036296                0.00094282               -0.00462207
               7.89637619                0.03203095               70.07431569                1.00000000               -0.02809394               -0.03204338                0.09449187               -0.00017546                0.00446359               -0.00125945
               8.89609762                0.03494294               70.07708401                1.00000000               -0.02753321               -0.03128439                0.09233693               -0.00015368                0.00460253                0.00108205
               9.89582552                0.03793050               70.07983054                1.00000000               -0.02720971               -0.03057102                0.09040438               -0.00422374                0.00367325                0.00444551
              -0.08548081                0.99557336               70.05352345                0.99999999               -0.02499573               -0.02492036                0.08316699                0.00192453                0.00132780                0.00942146
               0.91426923                0.99106243               70.05726370                0.01000000               -0.02511403               -0.02499965                0.08336063                0.00010615                0.00453885               -0.00471078
               1.91401691                0.98659092               70.06107040                0.01000000               -0.17814958                0.03656834                0.08348216                0.20760341                0.03472292                0.04864698
               2.91070624                0.98819077               70.06541346                0.01000000               -0.38700403                0.04495517                0.08930297                0.49583477                0.02492192                0.05534383
               3.90627683                0.99400942               70.06859519                0.01000000               -0.51347274                0.04196643                0.10190040                0.78995534               -0.06964634                0.06482914
               4.90043679                1.00546571               70.07098553                0.01000000               -0.60231371                0.00357928                0.11166263                1.37304525               -0.14462570                0.04818087
               5.89423056                1.02610197               70.07166697                0.01000001               -0.32870420               -0.45261229                0.12515701                1.28295961               -0.10883660                0.08505545
               6.89386270                1.02886960               70.07428068                0.77439046               -0.03646317               -0.03623649                0.12100413                0.00042295               -0.00587253               -0.00731582
               7.89350129                1.03171052               70.07702765                0.99939180               -0.03581962               -0.03569785                0.11915427                0.00034989                0.00123506               -0.00181537
               8.89314631                1.03463009               70.07978921                1.00000000               -0.03527845               -0.03505977                0.11720547                0.00013505                0.00118629                0.00160650
               9.89279572                1.03762479               70.08253808                0.99925053               -0.03505876               -0.03428892                0.11520413               -0.00388797                0.00053288                0.00652762
              -0.08094998                1.99530640               70.05514686                0.15069791               -0.02879796               -0.02531423                0.09528487                0.00358442                0.00384801                0.04239530
               0.91876204                1.99079434               70.05880994                0.01000000               -0.12302951               -0.02706076                0.09563387                0.06290182                0.07021088                0.02336109
               1.91658943                1.98755428               70.06380492                0.01000001               -0.23624426               -0.03725763                0.10013617                0.42157011                0.10929597                0.11722072
               2.91403716                1.98872264               70.06802420                0.01000000               -0.34786517               -0.04332211                0.10743945                0.95180876                0.04036390                0.09983180
               3.90963213                1.99435259               70.07152016                0.01000000               -0.50496162               -0.03628937                0.11787156                1.46071016               -0.02045609                0.10194134
               4.90393793                2.00429427               70.07412632                0.01000001               -0.52139850               -0.28073021                0.12875135                1.93982400               -0.08408319                0.10463183
               5.89920416                2.01739238               70.07615336                0.01141161               -0.64392614               -0.52767246                0.13867965                1.82146987               -0.16354712                0.13609438
               6.89105940                2.02847193               70.07694063                0.01000000               -0.42907341               -0.28321421                0.14459133                1.03703296               -0.09820276                0.10490563
               7.89062269                2.03131700               70.07972908                0.08254039               -0.04366741               -0.04858125                0.14405744                0.01049958                0.00030113                0.03326824
               8.89018605                2.03424174               70.08249920                0.99999999               -0.04321586               -0.04277196                0.14301156               -0.00022730               -0.00061968                0.00103820
               9.88975837                2.03724472               70.08527721                0.99999999               -0.04276809               -0.04175474                0.14037622               -0.00409563               -0.00026424                0.00739092
              -0.07638500                2.99506708               70.05741982                0.01033438               -0.03356103                0.19058595                0.10325468                0.52632151                0.00339899                0.17676592
               0.92327939                2.99052122               70.06098108                0.01000000                0.04525060               -0.22720787                0.10345597                0.53518513                0.11373145                0.19420972
               1.92452001                2.98584576               70.06676014                0.01000000               -0.01676411               -0.27740999                0.11415667                0.94847913                0.13358312                0.16482853
               2.92294411                2.98732433               70.07100093                0.01000000               -0.23003041               -0.19114164                0.12480164                1.52086921                0.04273348                0.13589785
               3.91991940                2.99328363               70.07469171                0.01202395               -0.33753125               -0.23136153                0.13386262                1.79279056               -0.00714523                0.11614767
               4.91619348                2.99985110               70.07774731                0.01000000               -0.67185524               -0.28806782                0.14314071                2.30718953               -0.09463783                0.12583157
               5.90648230                3.01554852               70.07962815                0.01000001               -0.77573683               -0.31123990                0.15174045                2.31165104               -0.13130024                0.12877404
               6.90067875                3.02320531               70.08190207                0.01000000               -0.92704131               -0.35216212                0.15052118                1.89874721               -0.17323190                0.17290132
               7.88794147                3.03073890               70.08314864                0.01535061               -0.67323501               -0.10938820                0.28941157                1.25127967               -0.14241265                0.09534113
               8.88721404                3.03377465               70.08518263                0.01508821               -0.06168084               -0.29180108                0.17026207                0.84157446               -0.03951745                0.10121780
               9.88670786                3.03678969               70.08798292                0.99999999               -0.05061893               -0.72366727                0.16582778                0.91529086               -0.00251957                0.29169547
              -0.06133183                3.99911812               70.06175676                0.01096463                0.00188889                0.14375184                0.10136228                0.54304327                0.00700037                0.23532585
               0.93868706                3.98625019               70.06595545                0.01000000                0.00438681               -0.43623136                0.10147370                0.99757422               -0.01148087                0.34201728
               1.93875591                3.98200608               70.07000202                0.01000000               -0.08351940               -0.41079157                0.13112301                1.59358445                0.01582894                0.18221169
               2.93701667                3.98489981               70.07418350                0.01201261               -0.28973717               -0.27358346                0.13979627                1.84795152                0.01569899                0.13282132
               3.93296116                3.98972536               70.07770941                0.01000000               -0.45999196               -0.41089389                0.14849886                2.19735021               -0.02527332                0.12195628
               4.92781683                3.99853292               70.08090370                0.01000001               -0.54390974               -0.22551512                0.15508204                2.58700454               -0.06159204                0.14418072
               5.92208297                4.01116758               70.08375496                0.01000001               -0.69864313               -0.37857311                0.15979945                2.88895661               -0.15343131                0.21165046
               6.91384397                4.02142869               70.08576615                0.01230986               -0.85020107               -0.26165764                0.16140844                2.61694986               -0.33420669                0.21955680
               7.90507895                4.02912923               70.08665065                0.01198136               -0.64386103               -0.29845880                0.09172033                2.40512260               -0.44242387                0.23523462
               8.90096675                4.02840572               70.08990513                0.01000000               -0.15224164               -0.65344948                0.21320863                1.68716940               -0.58123893                0.58282754
               9.90203411                4.02277137               70.09641225                0.01000000                0.10673653               -1.66684886                0.21925326                1.65623337               -0.57387651                1.13594435
              -0.03978826                4.99794211               70.06499460                0.01044542                0.01311740               -0.65500290                0.07884473                1.00346578               -0.03239866                0.18013363
               0.96034291                4.98179659               70.06904987                0.01000000               -0.12348312               -0.40972310                0.12465347                1.58361447               -0.04011572                0.25032031
               1.95774207                4.97762993               70.07315106                0.01000001               -0.40795268               -0.33939279                0.13421975                2.05343709               -0.01428727                0.14285365
               2.95218386                4.98185266               70.07682521                0.01000000               -0.37543867               -0.59547159                0.15002076                2.33396791               -0.00430730                0.11419885
               3.95023330                4.98506576               70.08066946                0.01000001               -0.28462517               -0.49393600                0.16001860                2.61676177                0.00774188                0.13743600
               4.94649135                4.99534080               70.08449322                0.01000001               -0.44338196               -0.37362402                0.16644958                3.13246311               -0.01399078                0.19717995
               5.94136566                5.00797706               70.08802683                0.01222746               -0.57176317               -0.38700230                0.16943539                3.16182916               -0.11096724                0.25374913
               6.93505609                5.01797216               70.09049090                0.01076996               -0.61493851               -0.41217245                0.16387153                3.05048232               -0.20927891                0.34170056
               7.92906689                5.02476972               70.09320887                0.01000000               -0.38703982               -0.55593048                0.17379396                2.69844457               -0.24826707                0.57100861
               8.92731529                5.02070566               70.09725506                0.01000000                0.10171618               -0.83900114                0.14506232                1.78030172               -0.19276101                0.78667404
               9.93110122                5.00345271               70.10242145                0.01016910                0.37859213               -1.45950832                0.17309466                1.13524769               -0.08104279                0.66526251
              -0.00897147                5.98601806               70.06783547                0.10241867               -0.03570011               -0.60664629                0.09496476                1.14488965               -0.00842294                0.13304920
               0.99067153                5.97805572               70.07205164                0.01000001               -0.56299747               -0.20198854                0.12402884                1.37848795               -0.05609313                0.11630540
               1.97976858                5.97521823               70.07549823                0.01140909               -0.72056627               -0.39854210                0.13973703                1.78241583               -0.03151484                0.04154266
               2.97626020                5.97299038               70.07945676                0.01000001               -0.39801638               -0.74828905                0.15421198                2.40376726                0.00918408                0.09563195
               3.97180825                5.97984664               70.08361215                0.01000001               -0.43527052               -0.58431194                0.16774564                2.87394631                0.04737849                0.11699985
               4.96755479                5.99106044               70.08807964                0.01222244               -0.45600320               -0.51800800                0.17531889                3.14708067                0.03595372                0.17234488
               5.96268819                6.00342754               70.09185229                0.01078078               -0.47469213               -0.47704481                0.17897710                3.12734847                0.00485404                0.25734434
               6.95806095                6.01318524               70.09584310                0.01000000               -0.31869262               -0.44369127                0.18225586                2.92883894                0.02917190                0.43442890
               7.95631434                6.01801062               70.10057047                0.01000000               -0.00855812               -0.61286602                0.18196556                2.41651367                0.08729353                0.66342215
               8.95788979                6.01162570               70.10631705                0.01437556                0.14653141               -0.69291674                0.20373384                1.35510019                0.09467880                0.62480640
               9.95924497                5.99358121               70.11113529                0.01000000                0.13551766               -0.49459618                0.20962052                0.51876914                0.05560986                0.42568636
              -0.00096579                6.98580919               70.06974497                0.98674172               -0.03217051               -0.02421554                0.09311451                0.00006590               -0.00732039                0.05306113
               0.99871251                6.97775682               70.07383099                0.17095920               -0.02892378               -0.03358934                0.12200176               -0.00072492               -0.07708982                0.02237363
               1.99845574                6.96965909               70.07651349                0.01601668               -0.15408592               -0.29917761                0.11601328                0.78785151               -0.03485174                0.02095308
               2.99563079                6.96688688               70.08129703                0.01000000               -0.44067826               -0.44559646                0.13712728                1.53620009                0.08797273                0.02090964
               3.98964217                6.97337952               70.08584186                0.01231793               -0.48893561               -0.84375427                0.18345830                2.43265327                0.06847788                0.05143359
               4.98585208                6.98498064               70.09063449                0.01077192               -0.39271693               -0.65197602                0.18079029                2.93893319                0.11927155                0.09889703
               5.98178783                6.99843616               70.09567107                0.01000000               -0.34011467               -0.39182355                0.18604835                2.89919830                0.19447720                0.28031065
               6.97904978                7.00909834               70.10161440                0.01000000               -0.14155624               -0.31539051                0.18684021                2.48425511                0.29069460                0.50101083
               7.97895671                7.01251240               70.10836087                0.01444566               -0.01015329               -0.41825885                0.19205310                1.68628416                0.18139116                0.50313699
               8.97884672                7.00684733               70.11181168                0.01204008               -0.06955643               -0.31718044                0.19277741                0.74960745               -0.01665747                0.37951102
               9.97756558                6.99356079               70.11474919                0.01277487               -0.12811379                0.13546540                0.19749741                0.27790970               -0.04902942                0.27244011
               0.00713458                7.98553375               70.07099302                1.00000000               -0.03274549               -0.02786895                0.09481980               -0.00024364               -0.00461227                0.02544104
               1.00680713                7.97738394               70.07493287                0.99999999               -0.03695144               -0.03718961                0.12276703               -0.00073754               -0.01025471               -0.00466662
               2.00639556                7.96923468               70.07875448                0.01012447               -0.17716755               -0.04403366                0.15095441                0.14119431               -0.06857675                0.03438312
               3.00326378                7.96407845               70.08153902                0.01535314               -0.20140007               -0.31628191                0.28868655                0.61033357               -0.14266750                0.13602813
               4.00236755                7.96297156               70.08730208                0.01199411               -0.09934814               -1.05243320                0.16164776                1.89992157                0.13625036               -0.15289917
               5.00127682                7.97802092               70.09271657                0.01000000               -0.29065469               -0.49260794                0.18801049                2.71928043                0.25613396                0.08081849
               5.99655446                7.99559107               70.09977366                0.01000000               -0.38035008               -0.15038088                0.18956252                2.41659814                0.43361979                0.28916759
               6.99366981                8.00687743               70.10777951                0.01441641               -0.21317153               -0.16898395                0.19197264                1.66840808                0.36854356                0.34378168
               7.99229103                8.00964545               70.11223050                0.01144319               -0.09181331               -0.26233139                0.17972683                0.88997582                0.16938697                0.28511930
               8.99183355                8.00528209               70.11633162                0.01127761               -0.04573970               -0.17070098                0.13258221                0.55762234                0.10502710                0.50141347
               9.99137624                7.99629051               70.12033588                0.01000002               -0.04573121                0.45553191                0.11311522                0.36504463                0.07697113                0.32119654
               0.01532897                8.98525181               70.07233764                0.99927444               -0.03321389               -0.02853039                0.09683865                0.00001486                0.00227875                0.02538239
               1.01499683                8.97701303               70.07616757                0.99999999               -0.03719315               -0.03728482                0.12417454               -0.00024813                0.00187910                0.00207807
               2.01458511                8.96877842               70.07998176                0.99348954               -0.04481277               -0.04573862                0.15170969                0.00045444               -0.01051231               -0.01049490
               3.01410058                8.96056124               70.08355495                0.37400579               -0.04434862               -0.20342884                0.17911399                0.13229551               -0.06403876                0.02130024
               4.01369814                8.95233085               70.08629131                0.01000000               -0.32411995               -0.55775017                0.19506117                1.70452618                0.19771859               -0.12870641
               5.00761818                8.97512848               70.09516358                0.01000000               -0.62174257               -0.02754721                0.19317411                2.11993073                0.51438925                0.05968699
               6.00126328                8.99542854               70.10386849                0.01430816               -0.46273078                0.01191833                0.20008034                1.40282469                0.44245214                0.18228844
               6.99836356                9.00571866               70.10978601                0.01070915               -0.14558605               -0.16376694                0.19547389                0.66833332                0.33700017                0.06915655
               7.99835156                9.00726577               70.11526105                0.01000001                0.24952671               -0.27709171                0.20065227                0.28072424                0.56185722                0.24699211
               9.00335410                9.00343331               70.12427709                0.99994237                0.22490267               -0.11636618                0.15106748                0.38923168                0.38420837                0.36513370
              10.00284962                9.00267143               70.12555411                1.00000000               -0.05044791                0.28899397                0.18784470                0.53687244               -0.00238880                0.22364263
               0.02361244                9.98496315               70.07357452                1.00000000               -0.03368847               -0.02886620                0.09838481               -0.00414331                0.02081128                0.02036302
               1.02327556                9.97663824               70.07740550                0.99999999               -0.03780046               -0.03747862                0.12561185               -0.00428947                0.02607108                0.00181204
               2.02285643                9.96831990               70.08133475                0.99999998               -0.04591537               -0.04585118                0.15355907               -0.00428578                0.02279521               -0.00527708
               3.02235725                9.96000987               70.08508330                0.99999998               -0.04828005               -0.05513635                0.18134896                0.00049999               -0.02969523               -0.00744012
               4.02189083                9.95181656               70.08796693                0.01000000               -1.08897549               -0.05142978                0.20088299                1.69227462                0.24781530               -0.02139742
               5.00057774                9.97746997               70.09734284                0.01000000               -1.39350271                0.23414904                0.20373611                1.49660018                0.54189128                0.03353796
               5.99402078                9.99582943               70.10589084                0.01000000               -0.26892454                0.04008901                0.20921884                0.58235518                0.35614600                0.06895397
               6.99519925               10.00360209               70.11063438                0.01000000                0.30850426               -0.21165696                0.21245271                0.09727789                0.36453197               -0.02273210
               8.00019086               10.00410361               70.11840324                0.01000002                0.45066371               -0.31621589                0.24013966                0.15156377                0.61612854                0.24019537
               9.00421252               10.00295476               70.12497507                1.00000000                0.17232905               -0.04785451                0.17225051               -0.01581813                0.26815416                0.00340222
              10.00363744               10.00207039               70.12625208                0.99400605               -0.05750801               -0.06010350                0.20902920               -0.00965425                0.00302460               -0.00304151
              -0.09384150               -0.00577700               71.05262702                0.99024176               -0.02122785               -0.02326554                0.07134661                0.00189451               -0.00905794                0.00867587
               0.90594622               -0.01039074               71.05636611                0.97381167               -0.02114558               -0.02319535                0.07112045                0.00002349               -0.00983142               -0.00159526
               1.90573559               -0.01496431               71.06009052                0.01000000                0.10600726               -0.02308841                0.07086893                0.29219951                0.01465524               -0.00381325
               2.90806636               -0.01365096               71.06431859                0.01310766                0.11774119                0.02378708                0.07703045                0.16832536                0.01578985                0.02999495
               3.90809041               -0.00841501               71.06736335                0.01180059               -0.09375853                0.04234137                0.07798956                0.23566650               -0.06244552                0.01605473
               4.90619119                0.00164166               71.06936038                0.01000001               -0.69191934                0.12766929                0.10266380                0.74311243               -0.17102025                0.03050380
               5.89425202                0.02353113               71.06988801                0.34900751               -0.61159689               -0.03374379                0.10100074                0.95897851               -0.10959851                0.00071487
               6.89395926                0.02631888               71.07254119                1.00000000               -0.02892180               -0.03302640                0.09732948               -0.00010365               -0.00031058               -0.00467593
               7.89367359                0.02918135               71.07526106                1.00000000               -0.02827990               -0.03207196                0.09495481               -0.00030069                0.00398214               -0.00146278
               8.89339366                0.03212113               71.07800524                1.00000000               -0.02757320               -0.03103973                0.09238458               -0.00025499                0.00408151                0.00047188
               9.89312212                0.03513697               71.08072955                1.00000000               -0.02715355               -0.03019865                0.08993450               -0.00445055                0.00307243                0.00304794
              -0.08920882                0.99399034               71.05435834                0.99999999               -0.02510756               -0.02508528                0.08371660                0.00196788                0.00119336                0.00930454
               0.91054011                0.98937730               71.05809737                0.01000000               -0.02517480               -0.02504191                0.08352513                0.00010335                0.00435463               -0.00460827
               1.91028769                0.98480481               71.06190164                0.01000000               -0.20325704                0.04281402                0.08328261                0.22387534                0.03956030                0.05032057
               2.90647497                0.98658692               71.06634536                0.01000000               -0.37434604                0.02808145                0.09725499                0.48914055                0.00983641                0.05405463
               3.90280077                0.99200841               71.06968454                0.01000000               -0.44128573                0.03205491                0.10549717                0.72914918               -0.02857192                0.04892066
               4.89764925                1.00291836               71.07210723                0.01000000               -0.56487837                0.01271162                0.11264432                1.28661824               -0.12866173                0.05324496
               5.89150320                1.02319369               71.07292517                0.01000001               -0.32580717               -0.44337596                0.12513091                1.24779586               -0.10195315                0.07902618
               6.89113311                1.02598862               71.07549767                0.75813082               -0.03668704               -0.03661929                0.12221590                0.00037709               -0.00696417               -0.00789292
               7.89076946                1.02886063               71.07822240                0.99872989               -0.03599042               -0.03583160                0.11965853                0.00024067                0.00113869               -0.00187993
               8.89041330                1.03181073               71.08095963                1.00000000               -0.03538407               -0.03439972                0.11706784               -0.00009761                0.00108262                0.00137240
               9.89006178                1.03483498               71.08368435                0.99893964               -0.03515236               -0.03331070                0.11452070               -0.00404143                0.00052912                0.00490473
              -0.08457607                1.99372129               71.05610462                0.17419035               -0.02901105               -0.02595193                0.09615143                0.00354789                0.00385456                0.04057299
               0.91513382                1.98910842               71.05976897                0.01000000               -0.12102257               -0.02735622                0.09610510                0.06885250                0.07174128                0.02173649
               1.91300348                1.98589197               71.06479486                0.01000001               -0.22441233               -0.02562033                0.09879213                0.42013012                0.11105194                0.12145093
               2.91064557                1.98691067               71.06909374                0.01000000               -0.33307629               -0.05025595                0.10605956                0.96103198                0.05344282                0.10180884
               3.90634195                1.99222609               71.07271044                0.01000000               -0.49536484               -0.03418966                0.11675637                1.43071714               -0.01805789                0.10263884
               4.90073828                2.00189589               71.07541725                0.01000001               -0.51021379               -0.26220561                0.12867349                1.87591068               -0.07426886                0.10893707
               5.89613768                2.01466361               71.07754143                0.01139307               -0.62192104               -0.51220809                0.14052766                1.76113729               -0.15460347                0.13080385
               6.88829986                2.02558650               71.07839693                0.01000000               -0.41406944               -0.28338673                0.14619115                0.97955801               -0.09298559                0.09058034
               7.88785629                2.02846472               71.08117948                0.22482870               -0.04412503               -0.01941398                0.14549897               -0.02052101                0.00178726                0.12504767
               8.88741736                2.03143313               71.08393490                0.99999998               -0.04317492               -0.04242262                0.14249462                0.00086304                0.00026730                0.00287003
               9.88699279                2.03447075               71.08667897                0.99953209               -0.04245652               -0.04120576                0.13834728               -0.00437221                0.00007862                0.00610423
              -0.07991212                2.99347130               71.05846509                0.01000001               -0.03414086                0.19015838                0.10561696                0.50082907                0.00355823                0.16539417
               0.91974648                2.98883018               71.06202839                0.01000000                0.04000738               -0.23306568                0.10624501                0.52079150                0.11608120                0.18393893
               1.92088803                2.98429240               71.06785773                0.01000000               -0.01924961               -0.26379431                0.10982577                0.93247765                0.14541921                0.16012621
               2.91936148                2.98558180               71.07222080                0.01000000               -0.22290725               -0.18013341                0.11885493                1.48192619                0.04958832                0.14357640
               3.91642989                2.99132461               71.07602174                0.01201829               -0.33157674               -0.21515033                0.13060161                1.75198468               -0.00159105                0.12329868
               4.91272995                2.99767424               71.07917658                0.01000000               -0.66972722               -0.26670985                0.14190745                2.25049837               -0.08753553                0.12875318
               5.90303534                3.01294953               71.08119089                0.01000001               -0.79033957               -0.28315082                0.15692132                2.22636071               -0.13289627                0.12250650
               6.89692316                3.02032088               71.08332903                0.01000000               -0.92614708               -0.31202275                0.16423313                1.80152383               -0.09173287                0.16929805
               7.88451240                3.02847235               71.08668416                0.01552302               -0.62493163               -0.12156715                0.20424974                1.00531594               -0.11841752                0.05222158
               8.88442452                3.03096228               71.08690959                0.05487741               -0.03066564                0.00545598                0.17489923                0.08321707               -0.12749311                0.15094266
               9.88389909                3.03401087               71.08964843                0.99999999               -0.05254365               -0.03582505                0.16902373                0.07070379               -0.00305430                0.21717466
              -0.06527724                3.99752446               71.06272722                0.01000001                0.00057931                0.13900372                0.11154379                0.52745515                0.03104677                0.21842899
               0.93472855                3.98444710               71.06694948                0.01000000                0.00893270               -0.47094586                0.11632167                1.01755455                0.02834643                0.27261477
               1.93490141                3.98061608               71.07123480                0.01000000               -0.07383351               -0.39046840                0.12266820                1.58335631                0.04232093                0.18032659
               2.93325188                3.98330801               71.07554834                0.01203116               -0.28061066               -0.26266418                0.13447035                1.81070020                0.01833136                0.14281622
               3.92928920                3.98792309               71.07917772                0.01000000               -0.45642754               -0.39319086                0.14422661                2.16050245               -0.02430834                0.12844692
               4.92412333                3.99656170               71.08245517                0.01000001               -0.56354742               -0.19979253                0.15377890                2.54695483               -0.05871909                0.14677773
               5.91801825                4.00900059               71.08538967                0.01000001               -0.76579113               -0.32627090                0.16970583                2.84540297               -0.14566392                0.20605083
               6.90880751                4.01934604               71.08756601                0.01236753               -1.03485190               -0.20180737                0.18747365                2.51311087               -0.35902365                0.21886585
               7.89732121                4.02603338               71.08787692                0.01214265               -1.26321632               -0.22640792                0.22665040                2.50522533               -0.42237502                0.14590389
               8.88354318                4.03154225               71.09279431                0.01000000               -0.75057630               -0.47209407                0.21745565                2.19158090               -0.67667214                0.58876989
               9.88230969                4.03375425               71.09682485                0.01000000               -0.12334945               -1.54008277                0.02810457                2.30203241               -0.78426516                1.16709660
              -0.04320831                4.99625138               71.06628229                0.01160524                0.02142458               -0.62568889                0.14332529                0.90897851                0.03733419                0.12785687
               0.95700594                4.97941126               71.07041143                0.01000000               -0.15487189               -0.38046760                0.14037803                1.58002781                0.02216636                0.15152892
               1.95369426                4.97648303               71.07445309                0.01000001               -0.43687269               -0.33785224                0.14295974                2.07564344               -0.01932178                0.15559034
               2.94826849                4.98032851               71.07831496                0.01000000               -0.36540065               -0.58221054                0.14752632                2.29704687               -0.00932782                0.11608691
               3.94638624                4.98346080               71.08225415                0.01000001               -0.28384735               -0.47791940                0.15659886                2.59591196                0.00160732                0.14183982
               4.94259154                4.99367839               71.08616566                0.01000001               -0.46135923               -0.34502364                0.16758256                3.12750509               -0.01622657                0.19748632
               5.93715906                5.00642411               71.08977483                0.01229083               -0.62194743               -0.34390047                0.17853264                3.16787538               -0.11106941                0.24842922
               6.93015259                5.01628474               71.09225988                0.01089922               -0.73691810               -0.36945884                0.19560405                3.12872114               -0.20537358                0.33091565
               7.92242070                5.02394419               71.09514015                0.01000000               -0.48086627               -0.44483330                0.19968971                2.98921590               -0.26135718                0.59124248
               8.92053527                5.02152039               71.09885017                0.01000000                0.15475187               -1.04513330                0.20520577                2.46193819               -0.18044217                0.75008251
               9.92551573                5.00320921               71.10446642                0.01053814                0.49804688               -2.10163878                0.20260118                1.80237753               -0.03669164                0.72575011
              -0.01341744                5.98501068               71.06888981                0.08583913               -0.04851068               -0.57479111                0.12425518                1.07975167               -0.00742914                0.11812481
               0.98609745                5.97683775               71.07341704                0.01000001               -0.55427652               -0.14392683                0.15587590                1.31289738               -0.06999895                0.11032451
               1.97549703                5.97385904               71.07689312                0.01138956               -0.69411998               -0.41332169                0.14201013                1.76911374               -0.06359198                0.01558669
               2.97221505                5.97166379               71.08094620                0.01000001               -0.38197350               -0.74101779                0.15682455                2.38169837               -0.00273242                0.07767160
               3.96785756                5.97836470               71.08528562                0.01000001               -0.42524663               -0.57805216                0.17136862                2.86240266                0.03823970                0.11800884
               4.96371012                5.98966122               71.08984517                0.01228800               -0.45440717               -0.50398666                0.17633586                3.16089059                0.02965644                0.16501097
               5.95876942                6.00212258               71.09367340                0.01091814               -0.49241365               -0.45996970                0.18482137                3.16405770                0.00207896                0.24767460
               6.95386185                6.01195686               71.09770931                0.01000000               -0.34497720               -0.41126689                0.18899585                3.02007398                0.03138037                0.42264305
               7.95186987                6.01713671               71.10248050                0.01000000               -0.01724598               -0.61530970                0.20220916                2.59752088                0.10858245                0.65276925
               8.95351693                6.01063959               71.10849873                0.01473400                0.15548679               -0.79633382                0.22321509                1.47787584                0.11806656                0.64003704
               9.95497961                5.99172148               71.11319156                0.01000000                0.14626796               -0.57703592                0.19965255                0.53999050                0.05916572                0.41880897
              -0.00526742                6.98475555               71.07066521                0.98205921               -0.03170550               -0.02616985                0.09095499               -0.00098157               -0.00680480                0.04578730
               0.99441553                6.97653272               71.07504702                0.10999761               -0.02410473               -0.03382970                0.12110985                0.00235082               -0.09668638                0.01369772
               1.99425049                6.96821660               71.07762321                0.01595518               -0.15093663               -0.30126239                0.10668098                0.78737409               -0.05363866                0.02226291
               2.99139680                6.96550816               71.08265656                0.01000000               -0.43068110               -0.45158161                0.15933613                1.52894475                0.06833120               -0.01126804
               3.98563687                6.97189975               71.08769593                0.01237503               -0.46726643               -0.84891772                0.18498021                2.43447004                0.07941646                0.01273659
               4.98205147                6.98359866               71.09242759                0.01088907               -0.37461462               -0.65823212                0.18216886                2.95574379                0.10461239                0.09042792
               5.97814457                6.99722471               71.09752976                0.01000000               -0.32557618               -0.39042710                0.18471021                2.94801466                0.18287979                0.26478619
               6.97553994                7.00805940               71.10349222                0.01000000               -0.12280904               -0.28886866                0.18841742                2.58155827                0.29452933                0.47829703
               7.97568839                7.01163800               71.11040701                0.01485975               -0.00159643               -0.41697825                0.20909796                1.76158494                0.20547230                0.48368890
               8.97550801                7.00559372               71.11383772                0.01247555               -0.07683160               -0.33835255                0.21467481                0.76763734                0.00432646                0.34943741
               9.97415176                6.99166849               71.11673574                0.01296743               -0.13562533                0.11700466                0.20936902                0.26439929               -0.03304065                0.24590051
               0.00300859                7.98448728               71.07193202                1.00000000               -0.03251623               -0.02721572                0.09290244               -0.00000155               -0.00475593                0.02603094
               1.00268343                7.97616116               71.07616014                0.99999999               -0.03697549               -0.03711695                0.12259112               -0.00070019               -0.01028011               -0.00505614
               2.00226908                7.96783379               71.08027169                0.01105956               -0.17863170               -0.04220844                0.15236851                0.14318176               -0.04093236                0.05299848
               2.99911079                7.96263216               71.08388968                0.01554001               -0.19063101               -0.32655585                0.21216271                0.61499830                0.02272551               -0.04926214
               3.99845646                7.96138634               71.08877265                0.01213718               -0.08053780               -1.06032322                0.16963309                1.88772070                0.13870750               -0.11120985
               4.99750004                7.97649658               71.09459439                0.01000000               -0.25937437               -0.50978042                0.18835365                2.73764204                0.25856891                0.06515597
               5.99326897                7.99431404               71.10163414                0.01000000               -0.32101529               -0.15558311                0.18501651                2.49138272                0.41273283                0.27419709
               6.99107973                8.00617949               71.10967334                0.01481365               -0.18508603               -0.15507260                0.18142021                1.74781679                0.34769896                0.30558864
               7.98956725                8.00879714               71.11402549                0.01191062               -0.11202740               -0.26807698                0.19760035                0.96711927                0.15150362                0.27735411
               8.98883918                8.00387253               71.11784774                0.01000000               -0.07246014               -0.14681144                0.17900483                0.58114105                0.09648177                0.46270458
               9.98811805                7.99406157               71.12161491                0.01000002               -0.07211347                0.50880233                0.17140834                0.37952976                0.06556788                0.32238979
               0.01138480                8.98421124               71.07329789                0.99999999               -0.03297860               -0.02800511                0.09520544                0.00030147                0.00209120                0.02621497
               1.01105502                8.97579038               71.07741107                0.99999999               -0.03708412               -0.03746640                0.12460209               -0.00010153                0.00127391                0.00192965
               2.01064312                8.96737243               71.08150628                0.99999994               -0.04554027               -0.04631099                0.15361484                0.00103202               -0.00912996               -0.01142826
               3.01014421                8.95897704               71.08542477                0.38629246               -0.05581294               -0.21153120                0.18585289                0.14013127               -0.03673870               -0.00624273
               4.00952686                8.95069329               71.08900312                0.01000000               -0.31337996               -0.57778677                0.24309742                1.69642097                0.15644797               -0.08190292
               5.00387661                8.97340305               71.09698014                0.01000000               -0.56187701               -0.04682617                0.18789850                2.14069524                0.45993120                0.05527502
               5.99828932                8.99411305               71.10581493                0.01466691               -0.39317180                0.00728127                0.18789186                1.45743976                0.41464865                0.17311335
               6.99601317                9.00495795               71.11158981                0.01107736               -0.04757925               -0.19149936                0.18218690                0.68323794                0.31684017                0.04646374
               7.99733774                9.00627646               71.11771817                0.01493456                0.29266175               -0.26521315                0.18154636                0.44813020                0.49943227                0.25732932
               9.00186641                9.00265749               71.12577250                0.99888820                0.20132751               -0.08440914                0.14817187                0.47576301                0.31672500                0.35294407
              10.00136429                9.00184454               71.12743697                1.00000000               -0.05021245                0.35869513                0.18896360                0.62311072               -0.00241632                0.24269838
               0.01985633                9.98392718               71.07455313                1.00000000               -0.03361202               -0.02840588                0.09741572               -0.00438258                0.02109957                0.02114247
               1.01952021                9.97541183               71.07866585                0.99999999               -0.03766313               -0.03785549                0.12667126               -0.00446139                0.02581082                0.00195666
               2.01910306                9.96690757               71.08287648                1.00000000               -0.04638250               -0.04648566                0.15584790               -0.00452013                0.02430524               -0.00531903
               3.01859256                9.95840154               71.08697844                0.99999997               -0.05720985               -0.05755014                0.18871205               -0.00901363                0.00104514               -0.00560531
               4.01795887                9.94983061               71.09075184                0.01000000               -1.08491894               -0.08626820                0.24763916                1.70112665                0.21673593               -0.00802156
               4.99689418                9.97556006               71.09930949                0.01000000               -1.35479978                0.21570084                0.20116162                1.53320948                0.48469480                0.03586586
               5.99086287                9.99445967               71.10793199                0.01000000               -0.21565473                0.03466123                0.19915718                0.59682728                0.33071321                0.06361972
               6.99258108               10.00234950               71.11265678                0.01000000                0.49837195               -0.26084422                0.20460297                0.10845153                0.36605325               -0.01886568
               8.00083031               10.00349288               71.12140023                0.01000002                0.51026401               -0.27835780                0.16219933                0.34099985                0.53669205                0.24779820
               9.00278636               10.00218435               71.12669352                1.00000000                0.06879272               -0.04731384                0.17165400               -0.02087517                0.18485811                0.00335889
              10.00220616               10.00123547               71.12835801                0.99425636               -0.05801982               -0.06090659                0.21243096               -0.01070000                0.00296136               -0.00309533
              -0.09766965               -0.00748431               72.05334154                0.99073281               -0.02130026               -0.02338296                0.07163726                0.00188633               -0.00895730                0.00855873
               0.90211734               -0.01220010               72.05707792                0.96905843               -0.02120116               -0.02324918                0.07123890                0.00000430               -0.00983337               -0.00164716
               1.90190632               -0.01687559               72.06079873                0.01054951                0.12322972               -0.02314172                0.07074067                0.29387968                0.00526004               -0.00381494
               2.90458194               -0.01563011               72.06483780                0.01000000                0.14554671                0.01268190                0.06561894                0.15719124               -0.01116778                0.03816911
               3.90481726               -0.01080803               72.06795342                0.01000000               -0.09787175                0.04487715                0.08487071                0.26108554               -0.07722686                0.04539889
               4.90262450               -0.00066093               72.07042698                0.01000001               -0.66205911                0.11346753                0.10260484                0.75947434               -0.23109215                0.04951759
               5.89157608                0.02038461               72.07089831                0.34811236               -0.56721365               -0.03555387                0.10671594                0.91505293               -0.11203425                0.00173441
               6.89128023                0.02319018               72.07351946                1.00000000               -0.02921492               -0.03341724                0.09877807               -0.00068267               -0.00091110               -0.00447696
               7.89099178                0.02607903               72.07621478                1.00000000               -0.02847371               -0.03245314                0.09587181               -0.00029531                0.00371278               -0.00182338
               8.89071076                0.02904360               72.07893170                1.00000000               -0.02767145               -0.03157184                0.09309952               -0.00033394                0.00382407                0.00002764
               9.89043835                0.03208186               72.08162923                0.99983625               -0.02724081               -0.03083944                0.09036343               -0.00432398                0.00280014                0.00235381
              -0.09293500                0.99228186               72.05519778                0.99999999               -0.02519728               -0.02522865                0.08414666                0.00195834                0.00120947                0.00922332
               0.90681302                0.98756741               72.05893420                0.01000000               -0.02524358               -0.02509232                0.08377405                0.00002112                0.00441108               -0.00458892
               1.90656013                0.98289300               72.06273605                0.01000000               -0.18464771                0.04514039                0.08342670                0.22543366                0.04873186                0.05155053
               2.90312007                0.98449671               72.06735856                0.01000000               -0.33083006                0.02567470                0.09277039                0.46781206                0.09071081                0.04202992
               3.89994352                0.98964075               72.07070513                0.01013018               -0.42485700                0.04381019                0.10656599                0.70536207               -0.00142983                0.06286890
               4.89462293                1.00047374               72.07323842                0.01000000               -0.55712379                0.00322974                0.11522146                1.26926884               -0.12806105                0.05664089
               5.88880105                1.02002907               72.07416958                0.01000001               -0.30983699               -0.43209356                0.13040084                1.19692985               -0.09468150                0.07403581
               6.88842619                1.02285601               72.07672500                0.74394236               -0.03694686               -0.03690013                0.12294068                0.00034210               -0.00689011               -0.00822742
               7.88806211                1.02575450               72.07942082                0.99781673               -0.03600927               -0.03614247                0.12013599                0.00002840                0.00081240               -0.00162910
               8.88770601                1.02872789               72.08213057                1.00000000               -0.03526280               -0.03472105                0.11742379                0.00000576                0.00105704                0.00044105
               9.88735686                1.03177346               72.08482850                0.99861892               -0.03491496               -0.03395679                0.11465629               -0.00376983                0.00081229                0.00249844
              -0.08820159                1.99201111               72.05706989                0.19989747               -0.02917837               -0.02647521                0.09677827                0.00342217                0.00376722                0.03936820
               0.91150663                1.98729805               72.06073205                0.01000000               -0.11563578               -0.02739621                0.09642717                0.07057299                0.07295892                0.02131735
               1.90948570                1.98402722               72.06578077                0.01000001               -0.21580995               -0.01423248                0.09517565                0.41305953                0.12090329                0.11463311
               2.90719043                1.98488338               72.07014539                0.01000000               -0.32691156               -0.03777247                0.10091055                0.93463743                0.05457168                0.09063852
               3.90294747                1.99006818               72.07385529                0.01000000               -0.47844364               -0.01792091                0.11083310                1.37542766               -0.01164428                0.11230524
               4.89762156                1.99940366               72.07669979                0.01000001               -0.49075289               -0.25427474                0.12719423                1.81626248               -0.05328424                0.10947387
               5.89313241                2.01174274               72.07896391                0.01135412               -0.60299592               -0.49393305                0.14102901                1.69596954               -0.13826483                0.12939784
               6.88556164                2.02245218               72.07986445                0.01000000               -0.40059711               -0.27169046                0.14625841                0.92690357               -0.08873157                0.09756315
               7.88512047                2.02535618               72.08263906                0.35551612               -0.04348639               -0.03343045                0.14433560               -0.00862674                0.00245861                0.06771657
               8.88469191                2.02834918               72.08534909                0.99999997               -0.04243340               -0.03968977                0.14097601                0.00202213               -0.00065809                0.00578999
               9.88427180                2.03140272               72.08804416                1.00000000               -0.04201134               -0.03930802                0.13776889               -0.00403531               -0.00072267                0.00601206
              -0.08344044                2.99175235               72.05953216                0.01000000               -0.03511840                0.18291970                0.10806820                0.47902205                0.00358163                0.16758147
               0.91620838                2.98701948               72.06310598                0.01000000                0.03382123               -0.19893063                0.10934931                0.50478881                0.11643561                0.19087996
               1.91723599                2.98260835               72.06895665                0.01000000               -0.02182581               -0.25049811                0.10591984                0.91197729                0.15123798                0.15648390
               2.91577186                2.98374126               72.07337803                0.01000000               -0.21520936               -0.16107036                0.11118366                1.44619632                0.06043812                0.14645689
               3.91293180                2.98928233               72.07730374                0.01203696               -0.32491201               -0.20031447                0.12403636                1.71338439                0.01250528                0.12846239
               4.90927362                2.99538825               72.08058546                0.01000000               -0.66299375               -0.24621322                0.13675333                2.18385107               -0.06812885                0.12983544
               5.89967192                3.01015041               72.08276657                0.01000001               -0.79614041               -0.25190381                0.15745294                2.14801958               -0.09637303                0.12237338
               6.89335081                3.01742220               72.08518674                0.01000000               -0.88396775               -0.27885090                0.17376218                1.67750492               -0.10489224                0.18225298
               7.88199257                3.02508589               72.08723364                0.01572233               -0.58254514               -0.08824303                0.05343184                0.83972838               -0.07964856                0.08140332
               8.88169991                3.02793409               72.08868061                0.48453159               -0.04117482               -0.00543270                0.16647282               -0.01525664               -0.06692886                0.12261679
               9.88116907                3.03098730               72.09136339                0.99679255               -0.05308376               -0.00537017                0.16431407                0.00611784               -0.00049884                0.12423728
              -0.06915541                3.99566951               72.06398764                0.01000000               -0.00981796                0.12921540                0.13779417                0.57202150                0.05900289                0.24223038
               0.93074641                3.98331944               72.06828189                0.01012514                0.00794377               -0.43299368                0.12589098                0.98774058                0.03762504                0.30897362
               1.93100347                3.97901726               72.07245538                0.01000000               -0.06530189               -0.37624645                0.11773205                1.52793295                0.03970874                0.19283208
               2.92944037                3.98166198               72.07687290                0.01203591               -0.27176511               -0.24823643                0.12698507                1.77345010                0.02717043                0.15074652
               3.92556817                3.98606189               72.08059394                0.01000000               -0.45049382               -0.37438371                0.13709713                2.11501859               -0.01560026                0.13621127
               4.92043050                3.99447940               72.08397928                0.01000001               -0.57546581               -0.17438628                0.14873336                2.50076494               -0.03745426                0.14921743
               5.91405885                4.00670466               72.08714908                0.01000001               -0.81271237               -0.27442488                0.17225752                2.78869464               -0.10430173                0.20183467
               6.90417625                4.01687516               72.08951562                0.01243233               -1.13278547               -0.14875137                0.20010839                2.45595737               -0.22067692                0.20186630
               7.89140314                4.02359132               72.09118366                0.01231713               -1.28454410               -0.15474554                0.27646902                2.33111278               -0.24118027                0.21932425
               8.87848537                4.02824053               72.09425425                0.01000000               -0.65577049               -0.39655949                0.06928276                2.01921323               -0.10771465                0.25576719
               9.87828773                4.03129532               72.09697434                0.01000000               -0.01976388               -1.46931453                0.00353066                2.20376966               -0.05651776                0.42019254
              -0.04729987                4.99433666               72.06786111                0.01000001               -0.00846869               -0.58359353                0.13375083                0.95134007               -0.08492087                0.17526201
               0.95261544                4.97835961               72.07185743                0.01000000               -0.16240078               -0.38464086                0.13958565                1.56342929               -0.08979932                0.27865230
               1.94945211                4.97508342               72.07601026                0.01000001               -0.42096028               -0.33287078                0.14566871                2.01905155               -0.04074933                0.15116306
               2.94419623                4.97877653               72.07977574                0.01000000               -0.35186802               -0.57298809                0.14528094                2.25419582               -0.02275363                0.13198748
               3.94241475                4.98179465               72.08380143                0.01000001               -0.27750426               -0.46484242                0.15036595                2.56149509                0.00266502                0.15380528
               4.93864615                4.99190052               72.08784487                0.01000001               -0.46823472               -0.31903325                0.16451330                3.10984496               -0.00343645                0.19632205
               5.93305006                5.00466191               72.09159748                0.01237377               -0.65314259               -0.30392809                0.17997306                3.16767142               -0.07016388                0.23069952
               6.92558330                5.01444717               72.09440298                0.01104698               -0.79003008               -0.32347028                0.20838445                3.15171398               -0.13940493                0.29855911
               7.91724945                5.02199098               72.09720266                0.01000000               -0.56015580               -0.38960868                0.20429535                3.09245822               -0.10066125                0.44207074
               8.91438018                5.02000290               72.10135917                0.01000000                0.09427172               -0.94008196                0.21599628                2.53323636               -0.04210020                0.60062879
               9.91913489                5.00160101               72.10647348                0.01000002                0.47547078               -2.08036254                0.15649597                1.79755547               -0.01921213                0.68055930
              -0.01817450                5.98399764               72.07032057                0.08685821               -0.05572527               -0.53269677                0.14025307                1.03461659               -0.00335105                0.07518208
               0.98126824                5.97562662               72.07516916                0.01000001               -0.54289587               -0.15359695                0.17490815                1.27837741               -0.08965755                0.09564317
               1.97096758                5.97235984               72.07833844                0.01136551               -0.67275941               -0.41788186                0.16840849                1.74484528               -0.10997238                0.00436787
               2.96781306                5.97020221               72.08259325                0.01000001               -0.36467511               -0.75292458                0.16458890                2.35668229               -0.03012327                0.09436235
               3.96367408                5.97676504               72.08703952                0.01000001               -0.40264571               -0.58237146                0.17501990                2.84706214                0.01713775                0.12628750
               4.95976014                5.98809873               72.09160635                0.01237207               -0.44042235               -0.49302700                0.17243852                3.16627047                0.02597442                0.15655375
               5.95486563                6.00062610               72.09554872                0.01108680               -0.49393415               -0.44453827                0.18347044                3.18188770                0.01498148                0.22330659
               6.94988146                6.01040575               72.09962302                0.01000000               -0.35845280               -0.38734593                0.18729546                3.08264365                0.06982420                0.37230559
               7.94769657                6.01579915               72.10461465                0.01000000               -0.01706954               -0.56748950                0.20181725                2.72521704                0.16414339                0.60132253
               8.94954007                6.00943889               72.11078135                0.01514592                0.16730217               -0.77579217                0.21814919                1.60566265                0.15274576                0.58576189
               9.95104262                5.98968807               72.11512834                0.01000000                0.15025499               -0.57727839                0.19030091                0.62360972                0.06150967                0.40821482
              -0.00986551                6.98368273               72.07156407                0.97683043               -0.03137030               -0.02879717                0.08811669               -0.00161914               -0.00661758                0.01790221
               0.98982078                6.97528767               72.07625319                0.05788647               -0.01805297               -0.03539292                0.12091080                0.00183344               -0.12062017               -0.01436103
               1.98977343                6.96672578               72.07864711                0.01586941               -0.14480498               -0.29741347                0.09932602                0.76550803               -0.05618758                0.02546675
               2.98692468                6.96371804               72.08448376                0.01000000               -0.41569755               -0.49386072                0.22345123                1.54128597                0.04582904               -0.00276703
               3.98145948                6.97014722               72.08954146                0.01242780               -0.44070915               -0.86624325                0.18719271                2.45424283                0.05029771                0.00660150
               4.97811050                6.98203998               72.09427787                0.01104040               -0.35393431               -0.66636236                0.18470497                2.97252390                0.08600877                0.07923840
               5.97438079                6.99577114               72.09936527                0.01000000               -0.30236910               -0.39181323                0.18009957                2.97624047                0.17221602                0.23643837
               6.97206312                7.00670025               72.10538274                0.01000000               -0.08300656               -0.27570717                0.18059336                2.66105182                0.31035270                0.43155583
               7.97272066                7.01064119               72.11254283                0.01533046                0.02706994               -0.39588902                0.20038327                1.86184646                0.26086683                0.47405595
               8.97260452                7.00448706               72.11610517                0.01297616               -0.08059647               -0.34187465                0.20954495                0.80239717                0.04363972                0.34701013
               9.97110873                6.99005544               72.11893657                0.01249034               -0.14957882                0.11745043                0.20461155                0.26237064               -0.02000097                0.26135776
              -0.00141678                7.98342169               72.07285107                0.99999998               -0.03213641               -0.02638657                0.09093799                0.00020410               -0.00487600                0.02660404
               0.99826186                7.97491877               72.07738470                0.99999999               -0.03679256               -0.03708826                0.12231286               -0.00084914               -0.01072262               -0.00581375
               1.99784737                7.96641157               72.08180185                0.01394235               -0.15222642               -0.03903626                0.15331884                0.10108107               -0.03818796                0.07684522
               2.99521733                7.96032500               72.08578228                0.01572705               -0.17051905               -0.31852116                0.18380405                0.59864390                0.01133813               -0.06055004
               3.99443699                7.95944017               72.09069474                0.01231638               -0.08153161               -1.07168104                0.19896837                1.91293688                0.11190732               -0.12669930
               4.99358670                7.97477148               72.09648365                0.01000000               -0.23534107               -0.52605481                0.19269287                2.76220754                0.23046572                0.05454538
               5.98973017                7.99278983               72.10347399                0.01000000               -0.26771259               -0.15890920                0.18134894                2.53429581                0.37907775                0.24483621
               6.98823245                8.00489161               72.11140791                0.01531548               -0.12917363               -0.15178819                0.16830724                1.79127736                0.34362328                0.25906233
               7.98714670                8.00788137               72.11618251                0.01245482               -0.10293437               -0.28017870                0.19139599                0.95733263                0.17995249                0.21839088
               8.98617376                8.00260140               72.11991171                0.01000001               -0.09967203               -0.14203238                0.23147434                0.57604915                0.17017289                0.48878445
               9.98515326                7.99203708               72.12376405                0.01000002               -0.10205029                0.53634252                0.31419252                0.36174892                0.18796720                0.44950261
               0.00714442                8.98315499               72.07424175                1.00000000               -0.03305043               -0.02730926                0.09361435                0.00037951                0.00208424                0.02675011
               1.00681392                8.97454591               72.07865961                0.99999999               -0.03778056               -0.03754761                0.12497250               -0.00016880                0.00105185                0.00208984
               2.00638881                8.96594505               72.08305405                0.99999999               -0.04724804               -0.04692302                0.15623027               -0.00078564               -0.00991025               -0.01203232
               3.00586896                8.95734762               72.08727201                0.38381147               -0.05585429               -0.17672908                0.18531865                0.10270094               -0.03754328               -0.01071180
               4.00527173                8.94871360               72.09115326                0.01000000               -0.29319839               -0.56407411                0.19097661                1.68143933                0.13657730               -0.08929699
               5.00000499                8.97151889               72.09892155                0.01000002               -0.51625737               -0.06214489                0.19167593                2.16920725                0.42836138                0.04813485
               5.99494658                8.99259296               72.10762633                0.01506514               -0.36039316                0.00389384                0.18680847                1.48515903                0.37035477                0.15575322
               6.99279713                9.00366449               72.11342975                0.01152168               -0.03945288               -0.19003872                0.18146078                0.66321448                0.22145348                0.01923193
               7.99415752                9.00503762               72.11889198                0.01059296                0.35863322               -0.30929561                0.13683887                0.38615953                0.34104662                0.16788372
               8.99996979                9.00164641               72.12724053                1.00000000                0.26574132               -0.07107519                0.14510742                0.52614089                0.31014955                0.31081323
               9.99947235                9.00078229               72.12933338                1.00000000               -0.04974442                0.40646623                0.18979523                0.67431030               -0.00238580                0.21770013
               0.01580899                9.98287551               72.07552283                1.00000000               -0.03405671               -0.02794855                0.09674023               -0.00431307                0.02138545                0.02165316
               1.01546842                9.97416781               72.07993893                0.99999999               -0.03895204               -0.03780926                0.12842484               -0.00466959                0.02596192                0.00191321
               2.01502995                9.96547311               72.08445171                1.00000000               -0.04828112               -0.04719413                0.15961978               -0.00475625                0.02410022               -0.00557861
               3.01450280                9.95679042               72.08885754                0.99999997               -0.05677207               -0.05571976                0.18900520               -0.00233696               -0.00034223               -0.00516346
               4.01389451                9.94815869               72.09291971                0.01000000               -1.07056575               -0.05549103                0.19172975                1.69918641                0.19849835                0.01084269
               4.99309149                9.97352859               72.10136607                0.01000001               -1.33033801                0.20097018                0.20375524                1.54410021                0.46281511                0.03255575
               5.98728775                9.99286771               72.10987399                0.01000000               -0.20197039                0.02747497                0.20292239                0.61222909                0.29024031                0.05405849
               6.98905208               10.00109083               72.11472644                0.01000000                0.48001086               -0.25736523                0.20852276                0.06688223                0.20869251               -0.00988312
               7.99688796               10.00169546               72.12164722                0.01000002                0.59499115               -0.33421611                0.08694306                0.27749708                0.22046397                0.12437080
               9.00095190               10.00117989               72.12840815                1.00000000                0.17398638               -0.04665164                0.17076280                0.02175787                0.23679485                0.00348055
              10.00036769               10.00016640               72.13050070                0.99450539               -0.05842086               -0.06158941                0.21552390               -0.01181501                0.00313109               -0.00291556
              -0.10149340               -0.00931831               73.05405977                0.99131278               -0.02142360               -0.02352338                0.07208299                0.00179873               -0.00885361                0.00842168
               0.89829237               -0.01413626               73.05779089                0.96492469               -0.02128503               -0.02323494                0.07139311               -0.00007885               -0.00983537               -0.00175343
               1.89808090               -0.01891527               73.06150534                0.01000000                0.11979755               -0.02309570                0.07064633                0.28606486                0.00979706               -0.00389945
               2.90068832               -0.01792909               73.06563097                0.01000000                0.14378940                0.00490125                0.07480676                0.25841957                0.02827477                0.05077388
               3.90095669               -0.01301045               73.06906077                0.01001762               -0.10319268                0.03743680                0.11916966                0.34047399               -0.04996184                0.02723811
               4.89862446               -0.00299085               73.07141248                0.01000003               -0.60189127                0.07692151                0.11744153                0.80159678               -0.20363525                0.04187798
               5.88891886                0.01702326               73.07202233                0.35396461               -0.49999531               -0.04144607                0.11845223                0.86086755               -0.10996599                0.00323416
               6.88862456                0.01981826               73.07451676                1.00000000               -0.02916322               -0.03391858                0.10061187               -0.00257069               -0.00642587               -0.00484687
               7.88833560                0.02273281               73.07717850                0.99999999               -0.02844323               -0.03290414                0.09666225               -0.00026149                0.00336932               -0.00159433
               8.88805569                0.02572395               73.07986723                1.00000000               -0.02762665               -0.03217883                0.09360669               -0.00025854                0.00405967                0.00071370
               9.88778307                0.02878551               73.08253682                0.99952700               -0.02726259               -0.03154822                0.09063286               -0.00393528                0.00328073                0.00341491
              -0.09665747                0.99044645               73.05604128                0.99999999               -0.02524798               -0.02537078                0.08451685                0.00191224                0.00124911                0.00917109
               0.90309005                0.98563139               73.05977285                0.01016295               -0.02522845               -0.02503798                0.08382366               -0.00014594                0.00451950               -0.00457484
               1.90283797                0.98085378               73.06357018                0.01000000               -0.13849741                0.04396505                0.08320032                0.22079150                0.04963992                0.04930708
               2.90032011                0.98211992               73.06820077                0.01000000               -0.29728273                0.03165321                0.09322344                0.47421523                0.06063907                0.05093401
               3.89689231                0.98736391               73.07181586                0.01031706               -0.43482652                0.04420181                0.10547359                0.71282074               -0.00376668                0.04762585
               4.89162358                0.99777836               73.07441166                0.01000000               -0.53846630               -0.01354108                0.11672623                1.25921921               -0.10426268                0.04777564
               5.88612298                1.01660880               73.07553318                0.01000001               -0.29397517               -0.41843401                0.14341851                1.14947817               -0.08953748                0.06415189
               6.88574407                1.01947907               73.07795649                0.72837851               -0.03714227               -0.03711183                0.12357555                0.00102482               -0.01222601               -0.00918355
               7.88538014                1.02240377               73.08062512                0.99999999               -0.03586563               -0.03632897                0.12029144                0.00041567                0.00089504               -0.00207550
               8.88502676                1.02540216               73.08330810                1.00000000               -0.03489917               -0.03625305                0.11762071                0.00048298                0.00118083                0.00084757
               9.88468216                1.02847002               73.08597748                0.99825301               -0.03446038               -0.03647021                0.11488318               -0.00295665                0.00072661                0.00412636
              -0.09182503                1.99017427               73.05804018                0.23015665               -0.02928437               -0.02706352                0.09721150                0.00233830                0.00362694                0.03929769
               0.90788212                1.98536298               73.06169751                0.01000000               -0.10833840               -0.02667301                0.09640908                0.06752026                0.07073357                0.02244407
               1.90600820                1.98196403               73.06669837                0.01000001               -0.21098204               -0.00531577                0.08824158                0.40718870                0.12288233                0.10776921
               2.90366248                1.98270398               73.07111195                0.01000000               -0.32267679               -0.01682524                0.09627951                0.89062975                0.06632503                0.08444474
               3.89955466                1.98787358               73.07492710                0.01000000               -0.45492590               -0.01043542                0.09773199                1.33072987               -0.00115018                0.10705463
               4.89456397                1.99673833               73.07796113                0.01000001               -0.46734728               -0.23934494                0.11648260                1.75309806               -0.03497216                0.10393318
               5.89020772                2.00865458               73.08036201                0.01131368               -0.58569436               -0.46984811                0.13840550                1.63606578               -0.12095507                0.12458287
               6.88285008                2.01907602               73.08132210                0.01000000               -0.38934471               -0.25821469                0.14426993                0.89829171               -0.08434149                0.09288488
               7.88242082                2.02200623               73.08406619                0.34832399               -0.04254901               -0.04239735                0.14207476               -0.00158581                0.00290775                0.01008788
               8.88199910                2.02499889               73.08675442                0.99319312               -0.04163095               -0.04463521                0.14135820               -0.00103495               -0.00008653                0.00238054
               9.88158821                2.02805610               73.08943435                0.99999999               -0.04108927               -0.04522989                0.14067305               -0.00220895               -0.00053643                0.00587888
              -0.08698812                2.98990518               73.06062646                0.01000001               -0.03611815                0.19329222                0.11185918                0.47624233                0.00277675                0.18052784
               0.91265070                2.98509793               73.06421538                0.01000000                0.03144336               -0.17439272                0.11030473                0.49867313                0.11036205                0.19118740
               1.91364075                2.98074746               73.06997612                0.01000000               -0.02137720               -0.22724569                0.09557797                0.88909288                0.15807892                0.14452344
               2.91222315                2.98178342               73.07444448                0.01000000               -0.20840946               -0.13893753                0.10036746                1.42009938                0.07688456                0.14305398
               3.90947256                2.98715521               73.07850247                0.01203928               -0.31593052               -0.18619808                0.11472666                1.67621001                0.02992637                0.13463076
               4.90590454                2.99299146               73.08191165                0.01000000               -0.64829755               -0.22258435                0.12520229                2.11558883               -0.04379583                0.13212803
               5.89650661                3.00721183               73.08433995                0.01000001               -0.77731465               -0.22240982                0.14972342                2.07557359               -0.06265371                0.12320626
               6.89035825                3.01431478               73.08680428                0.01000000               -0.85405246               -0.24544488                0.15410678                1.59266511               -0.12402657                0.19228740
               7.87942556                3.02155582               73.08775280                0.01594424               -0.57010295               -0.07776983                0.09338224                0.77664163               -0.09047811                0.11180455
               8.87895619                3.02450946               73.09023904                0.54069651               -0.04510044               -0.05099265                0.15457761               -0.01956468               -0.01246637                0.02501065
               9.87852355                3.02756543               73.09293472                0.99637441               -0.04326430               -0.05040416                0.15507063                0.01314392               -0.00012109                0.02876387
              -0.07268568                3.99404012               73.06548311                0.01056849               -0.03010064                0.17592481                0.14032240                0.48793921                0.04941049                0.24216941
               0.92701331                3.98187513               73.06946730                0.01029646               -0.01048723               -0.35004486                0.10706793                0.88945561                0.04754006                0.28462414
               1.92710457                3.97741912               73.07358944                0.01000000               -0.06782916               -0.35621122                0.10198382                1.46851559                0.06293327                0.19423631
               2.92565673                3.97992523               73.07808804                0.01205195               -0.26168763               -0.22677498                0.11526944                1.72647911                0.04715372                0.15828206
               3.92187082                3.98414962               73.08191966                0.01000000               -0.44188060               -0.35319404                0.12771501                2.06296349                0.00222887                0.14336978
               4.91681911                3.99228664               73.08542983                0.01000001               -0.57374709               -0.15068522                0.14034430                2.44394910               -0.01125906                0.15302410
               5.91039588                4.00420638               73.08883482                0.01000001               -0.82298619               -0.22866867                0.16101910                2.72857727               -0.04889945                0.19270297
               6.90035939                4.01416712               73.09156817                0.01251469               -1.13184488               -0.10831296                0.18644044                2.38227582               -0.12347238                0.19496548
               7.88775898                4.02045084               73.09340630                0.01251544               -1.23805943               -0.11006058                0.20115265                2.19188175               -0.18692114                0.24188924
               8.87559820                4.02397903               73.09417997                0.01000000               -0.60099180               -0.37517958                0.00875293                1.90317179               -0.09721656                0.27201341
               9.87573914                4.02704802               73.09689547                0.01000000                0.01409415               -1.44495157                0.00899299                2.12586503               -0.00076050                0.35947320
              -0.05289936                4.99342368               73.06895730                0.01000003               -0.00398336               -0.56143767                0.15745839                0.94253820               -0.06644246                0.15901310
               0.94706081                4.97809704               73.07320315                0.01000000               -0.10698392               -0.37601373                0.12420132                1.47363428               -0.07195216                0.28774497
               1.94496096                4.97362324               73.07736646                0.01000001               -0.35192851               -0.30547907                0.12324382                1.89599026               -0.03922215                0.18729355
               2.94002224                4.97724792               73.08122058                0.01000000               -0.32952745               -0.55411027                0.13564980                2.18614313               -0.01570608                0.15172643
               3.93837041                4.98009132               73.08526147                0.01000001               -0.26477348               -0.44996003                0.14169470                2.50231149                0.00633209                0.17096744
               4.93472677                4.98997776               73.08945593                0.01000001               -0.45863721               -0.29636692                0.15550490                3.07242183                0.01517527                0.19154897
               5.92919767                5.00263846               73.09337429                0.01247662               -0.64837280               -0.26927308                0.16841074                3.14136305               -0.02800806                0.20660153
               6.92175931                5.01214852               73.09642757                0.01122610               -0.78731934               -0.28719556                0.18764790                3.12745784               -0.06960960                0.24273492
               7.91345128                5.01935461               73.09922606                0.01000000               -0.56684330               -0.33139246                0.18345978                3.05463840               -0.01747503                0.36715001
               8.91042244                5.01700586               73.10317010                0.01000000                0.07257997               -0.81851069                0.17161138                2.48858653                0.05347891                0.61289427
               9.91490288                4.99866639               73.10759634                0.01000000                0.44804361               -1.98126672                0.12771077                1.75488695                0.05167063                0.69783398
              -0.02318163                5.98281136               73.07169487                0.09891173               -0.05319297               -0.54202905                0.12476922                1.06041646                0.00291264                0.05172898
               0.97628644                5.97435485               73.07691520                0.01000001               -0.54724376               -0.20335362                0.17677124                1.31787234               -0.09015817                0.07994061
               1.96587349                5.97130954               73.08026129                0.01131000               -0.66874687               -0.41803604                0.16860813                1.72116860               -0.12808775                0.02290066
               2.96291150                5.96884302               73.08423798                0.01000001               -0.33431424               -0.74920678                0.16286037                2.26188366               -0.09869009                0.18627989
               3.95918721                5.97515042               73.08878602                0.01000001               -0.35955426               -0.58573783                0.16449416                2.79972905               -0.00560693                0.14017687
               4.95572042                5.98635930               73.09329394                0.01247965               -0.40674142               -0.48358137                0.16102956                3.14457806                0.01881328                0.14813292
               5.95105238                5.99882092               73.09734281                0.01129797               -0.47640101               -0.43051273                0.17071236                3.16751292                0.02497883                0.18848102
               6.94619240                6.00842321               73.10145522                0.01000000               -0.35289885               -0.36214497                0.17251873                3.09060976                0.08997322                0.31152014
               7.94399440                6.01382299               73.10651685                0.01000000               -0.00671229               -0.49016768                0.17380281                2.79588132                0.20637778                0.53254116
               8.94605815                6.00760882               73.11286171                0.01561569                0.17607098               -0.68011502                0.18435527                1.65821645                0.18815473                0.53147891
               9.94751582                5.98742268               73.11699757                0.01000000                0.14576721               -0.52032257                0.18221342                0.64069018                0.06987894                0.42033888
              -0.01477801                6.98258310               73.07242754                0.97110591               -0.03019105               -0.02348430                0.08432804               -0.00404122               -0.00463388               -0.00823717
               0.98492008                6.97402996               73.07746524                0.01000000               -0.01629101               -0.03581959                0.12111388               -0.00444151               -0.14974107               -0.04373571
               1.98489617                6.96526252               73.07960973                0.01577044               -0.17505244               -0.31728916                0.19315440                0.77340322               -0.27928310                0.21163190
               2.98141903                6.96226378               73.08712559                0.01000000               -0.40237277               -0.51050544                0.21137595                1.53236093               -0.01563307               -0.00542047
               3.97684871                6.96837657               73.09143979                0.01251178               -0.37355993               -0.89549288                0.17793898                2.44241883               -0.02614875                0.02635595
               4.97394783                6.98030613               73.09612168                0.01122993               -0.31823481               -0.67077466                0.17858638                2.96306580                0.05309639                0.07667436
               5.97048402                6.99402821               73.10113175                0.01000000               -0.26891961               -0.39356027                0.16879586                2.97366828                0.14787671                0.20281343
               6.96856944                7.00490562               73.10710409                0.01000000               -0.01503581               -0.25547393                0.15856688                2.72871666                0.30248455                0.37692257
               7.97018330                7.00955126               73.11441467                0.01592464                0.07088193               -0.35035859                0.15901956                1.95830204                0.26803347                0.42466238
               8.96998708                7.00340356               73.11802862                0.01357780               -0.10471712               -0.25479757                0.17385157                0.86558180                0.04121681                0.33042036
               9.96808896                6.98825994               73.12082797                0.01145369               -0.18981187                0.26160631                0.20428302                0.31848272               -0.02129113                0.33934548
              -0.00615618                7.98234168               73.07375078                0.99999999               -0.03256233               -0.02543094                0.08866294               -0.00188223               -0.00572325                0.02545419
               0.99351819                7.97363846               73.07860640                1.00000000               -0.03680390               -0.03760070                0.12231291               -0.00171240               -0.01054150               -0.00282434
               1.99310774                7.96496376               73.08333806                0.01069429               -0.15367621               -0.03902939                0.15383529                0.09653978               -0.04362150                0.10160035
               2.99044467                7.95863291               73.08756576                0.01594791               -0.15572505               -0.32881225                0.18664114                0.60759597               -0.03403426               -0.04126806
               3.98999324                7.95724056               73.09275201                0.01252051               -0.05572864               -1.08470977                0.23169368                1.90355255                0.06729716               -0.11784659
               4.98933010                7.97294381               73.09844825                0.01000000               -0.20334886               -0.54114065                0.18902163                2.78660445                0.18227568                0.04478900
               5.98592626                7.99094971               73.10526112                0.01000000               -0.20432091               -0.16000409                0.17322864                2.55370622                0.33267430                0.21999546
               6.98524368                8.00331373               73.11303948                0.01589705               -0.06318797               -0.14407813                0.14854926                1.82366267                0.31956027                0.23088943
               7.98466250                8.00681581               73.11785341                0.01310751               -0.02912877               -0.26909194                0.14929650                0.96818609                0.19945845                0.17640691
               8.98466110                8.00251287               73.12247723                0.01678237               -0.02448906               -0.15131247                0.20950712                0.67399609                0.28346051                0.44220346
               9.98417272                7.99265481               73.12789876                0.01000002               -0.04883828                0.56009750                0.23760134                0.46628972                0.34089428                0.45288452
               0.00259077                8.98207448               73.07517018                1.00000000               -0.03270222               -0.02717971                0.09186352                0.00074816                0.00106100                0.02653568
               1.00226375                8.97327795               73.07991052                0.99999999               -0.03791292               -0.03735050                0.12559116               -0.00000873                0.00108186                0.00230877
               2.00183251                8.96448193               73.08463088                0.99999998               -0.04848045               -0.04815308                0.15880885               -0.00158473               -0.00961274               -0.01201536
               3.00129414                8.95568754               73.08913114                0.39636926               -0.06118241               -0.17528566                0.18817941                0.09367391               -0.06000243               -0.00760426
               4.00060887                8.94668237               73.09282265                0.01000000               -0.26616864               -0.53630099                0.10798606                1.66114235                0.15705044               -0.09316564
               4.99597077                8.96948332               73.10081366                0.01000002               -0.47103256               -0.08108435                0.22399840                2.20059316                0.39731708                0.04021901
               5.99118822                8.99082812               73.10955110                0.01553365               -0.33970899                0.00479004                0.18563219                1.49608942                0.33242037                0.14480202
               6.98917659                9.00202406               73.11521903                0.01206930               -0.04201643               -0.18776383                0.17404187                0.65396558                0.17913814                0.01215487
               7.99034789                9.00416942               73.12045495                0.01000000                0.42257068               -0.31730033                0.15895762                0.26243168                0.31195592                0.14658409
               8.99762800                9.00037731               73.12867465                1.00000000                0.33914916               -0.12970769                0.14163242                0.46500798                0.27979503                0.24080619
               9.99713087                8.99946189               73.13123288                1.00000000               -0.04971329                0.30938576                0.19029084                0.60400678               -0.00185225                0.09263945
               0.01145184                9.98179808               73.07648794                0.99999999               -0.03412703               -0.02763972                0.09618545               -0.00455636                0.02187310                0.02157353
               1.01111057                9.97289145               73.08123435                0.99999999               -0.03926934               -0.03864973                0.13004833               -0.00518753                0.02698651                0.00216832
               2.01066645                9.96400069               73.08606888                0.99999998               -0.04964342               -0.04812338                0.16315174               -0.00481884                0.02486653               -0.00634098
               3.01011770                9.95512720               73.09075855                0.99999996               -0.06230755               -0.05603411                0.19186641                0.00804840               -0.02471134               -0.00736057
               4.00942030                9.94651454               73.09458643                0.01000000               -1.04607469               -0.01678301                0.10898357                1.69088976                0.21674934               -0.00255640
               4.98919621                9.97132212               73.10338459                0.01000000               -1.30564958                0.18388011                0.23619203                1.54909242                0.45075984                0.03373918
               5.98330731                9.99104551               73.11199044                0.01000000               -0.21072573                0.02173897                0.21828079                0.62372635                0.26537792                0.04665296
               6.98498169                9.99955846               73.11682724                0.01000000                0.41252828               -0.24655999                0.21445161                0.05172513                0.14749271               -0.01137064
               7.99155788               10.00046981               73.12313909                0.01000002                0.68435472               -0.36996111                0.16594225                0.13901186                0.18638308                0.12951434
               8.99866879                9.99991871               73.13010878                1.00000000                0.32629105               -0.04585993                0.16971026                0.02271435                0.22398347                0.00325962
               9.99808370                9.99884252               73.13266849                0.99472764               -0.05850902               -0.06193677                0.21838358               -0.01233622                0.00287875               -0.00328643
              -0.10530896               -0.01127890               74.05478320                0.99191438               -0.02159724               -0.02362383                0.07265983                0.00155742               -0.00859874                0.00813635
               0.89447507               -0.01619911               74.05850578                0.96161656               -0.02144279               -0.02316069                0.07172165               -0.00027350               -0.00960475               -0.00195642
               1.89426218               -0.02108326               74.06221165                0.01000000                0.15584702               -0.02306363                0.07095603                0.30852557                0.01023569               -0.00393728
               2.89759201               -0.01975424               74.06633394                0.01351568                0.18871634               -0.02113542                0.06637720                0.11500568                0.03950049               -0.01972847
               3.89803651               -0.01577346               74.07033681                0.01000000               -0.10008852                0.05003878                0.07837263                0.25870456               -0.01720419                0.00196254
               4.89559024               -0.00582174               74.07277581                0.01000001               -0.58820154                0.07023387                0.20088714                0.78306414               -0.15289596                0.06364836
               5.88627248                0.01342758               74.07326735                0.38097595               -0.47973475               -0.04551556                0.12489388                0.82107484               -0.12559157                0.00473725
               6.88599554                0.01621378               74.07553169                1.00000000               -0.02818974               -0.03467817                0.10212363               -0.00426346               -0.01742958               -0.00580563
               7.88570868                0.01915391               74.07814803                0.99985834               -0.02809580               -0.03286179                0.09653265                0.00008930                0.00255981               -0.00189846
               8.88543363                0.02217614               74.08080383                1.00000000               -0.02719494               -0.03184851                0.09285032                0.00010969                0.00436288                0.00140704
               9.88516479                0.02526884               74.08344189                0.99999999               -0.02688401               -0.03103801                0.08957698               -0.00394427                0.00401462                0.00530018
              -0.10037318                0.98848487               74.05688812                0.99999999               -0.02523110               -0.02546080                0.08472316                0.00170490                0.00117408                0.00929030
               0.89937451                0.98356929               74.06061067                0.01132410               -0.02509082               -0.02482418                0.08350730               -0.00053564                0.00454024               -0.00468836
               1.89912501                0.97868611               74.06440006                0.01000000               -0.16436731                0.04299584                0.08238610                0.23659177                0.05985772                0.04398251
               2.89608717                0.98003440               74.06922303                0.01000000               -0.27338519                0.00414082                0.11573131                0.43685048                0.03170512               -0.02113546
               3.89365730                0.98472693               74.07281460                0.01051231               -0.36334042                0.06480656                0.06427071                0.64424855               -0.03315371                0.04112914
               4.88882036                0.99488060               74.07557294                0.01000000               -0.50959161               -0.00979649                0.10243750                1.20712326               -0.05931274                0.05231801
               5.88346547                1.01297242               74.07703796                0.01000001               -0.28653096               -0.39999741                0.15450997                1.10331275               -0.08362527                0.04779590
               6.88308974                1.01586699               74.07919651                0.70472627               -0.03685376               -0.03758456                0.12506142                0.00139791               -0.02454706               -0.01238945
               7.88272840                1.01882530               74.08182665                0.99999999               -0.03562404               -0.03618281                0.12015530                0.00141371                0.00065923               -0.00305771
               8.88237726                1.02185765               74.08448298                1.00000000               -0.03478790               -0.03551413                0.11727903                0.00107836                0.00164492                0.00258796
               9.88203264                1.02495846               74.08712616                0.99769862               -0.03446200               -0.03528903                0.11447515               -0.00309799                0.00091717                0.00836824
              -0.09544371                1.98821189               74.05901412                0.26696878               -0.02931814               -0.02824397                0.09756579               -0.00022639                0.00348086                0.04199858
               0.90426311                1.98330441               74.06266023                0.01000000               -0.10136964               -0.02479216                0.09569819                0.06281053                0.06546260                0.02305462
               1.90252890                1.97977666               74.06754560                0.01000001               -0.19874578               -0.00391806                0.07942677                0.40338134                0.12391347                0.08305031
               2.90028820                1.98032857               74.07207098                0.01000000               -0.32268093               -0.02040753                0.09059248                0.92210274                0.06628181                0.04768541
               3.89607528                1.98552267               74.07580993                0.01000000               -0.44004963                0.01277281                0.08118549                1.30298035               -0.01436622                0.12060292
               4.89148720                1.99398233               74.07902944                0.01000001               -0.43614708               -0.21592482                0.08601304                1.68224137               -0.03330738                0.13233744
               5.88735234                2.00542763               74.08173202                0.01126722               -0.56582897               -0.44153503                0.13815739                1.57702527               -0.10781530                0.11420229
               6.88017063                2.01546208               74.08274985                0.01000000               -0.38030212               -0.24225637                0.14138966                0.86851600               -0.07905235                0.08004502
               7.87974630                2.01843026               74.08548056                0.33570288               -0.04242999               -0.04217071                0.14211622                0.00118091                0.00516828               -0.00601680
               8.87932203                2.02146586               74.08817625                0.99060715               -0.04225466               -0.04244502                0.14227006                0.00121071                0.00218317               -0.00040135
               9.87890121                2.02456306               74.09085762                0.99999994               -0.04208199               -0.04285003                0.14103516               -0.00314594                0.00069564                0.00664198
              -0.09056275                2.98791999               74.06176935                0.01000000               -0.03712995                0.19850808                0.12087109                0.48075190                0.00051782                0.18740696
               0.90906595                2.98307344               74.06531208                0.01000000                0.03656091               -0.16401269                0.10434330                0.50077637                0.10038982                0.17755729
               1.91016847                2.97860774               74.07086821                0.01000000               -0.01413701               -0.21325052                0.08258588                0.88326510                0.17246203                0.10681216
               2.90878321                2.97962625               74.07538537                0.01000000               -0.20526591               -0.11385316                0.09190476                1.40698320                0.09968459                0.12946045
               3.90606315                2.98498238               74.07959828                0.01206483               -0.31114937               -0.16761957                0.10765497                1.65657580                0.04090905                0.15415142
               4.90256022                2.99056211               74.08308951                0.01000000               -0.62684632               -0.19933645                0.11900291                2.04811467               -0.02684739                0.14781993
               5.89352622                3.00414172               74.08576104                0.01000001               -0.75513970               -0.19516263                0.12535983                2.00249698               -0.04948523                0.12374422
               6.88745743                3.01102187               74.08826887                0.01000000               -0.83889912               -0.21554536                0.14679856                1.54024320               -0.11329674                0.17773232
               7.87674824                3.01798188               74.08910128                0.01619387               -0.55943814               -0.07372038                0.13883642                0.76467555               -0.09121062                0.11728696
               8.87626867                3.02100875               74.09177216                0.28693116               -0.04864686               -0.03580575                0.16421369               -0.00752882               -0.00039419               -0.05060088
               9.87577531                3.02410146               74.09446480                0.99999994               -0.04933620               -0.03699525                0.16287164                0.00628690               -0.00472892               -0.04384285
              -0.07613558                3.99218205               74.06679409                0.01000000               -0.02735356                0.16925853                0.13038325                0.45632761                0.08501143                0.21053169
               0.92359088                3.98002416               74.07042325                0.01048534               -0.01115114               -0.32034179                0.08697258                0.85154439                0.10940708                0.26786165
               1.92364139                3.97551165               74.07449506                0.01000000               -0.07688283               -0.32251538                0.08657143                1.42545595                0.14007171                0.14801599
               2.92205322                3.97805151               74.07917829                0.01207143               -0.26852236               -0.19825677                0.10951345                1.69312587                0.08876750                0.16020298
               3.91827095                3.98217028               74.08314825                0.01000000               -0.43815333               -0.33173674                0.12477595                2.00934947                0.02392662                0.15072965
               4.91329016                3.98999560               74.08678617                0.01000001               -0.56642137               -0.13473569                0.13557237                2.38153568                0.00784742                0.15843314
               5.90694252                4.00152438               74.09036946                0.01000001               -0.80774147               -0.19278851                0.14854822                2.65738011               -0.02345733                0.18319144
               6.89713533                4.01115118               74.09324443                0.01260582               -1.09447979               -0.08035228                0.15371763                2.31566901               -0.08440132                0.18360693
               7.88505292                4.01695585               74.09520671                0.01274785               -1.20417301               -0.08792255                0.15813224                2.15038722               -0.21532296                0.23611631
               8.87305187                4.02074974               74.09442931                0.01000000               -0.61056999               -0.37148540                0.16722002                1.88390585               -0.14655885                0.28561366
               9.87284152                4.02382316               74.09715420                0.01000000               -0.02103446               -1.43229400                0.16671282                2.08436740               -0.03344253                0.36716371
              -0.05712041                4.99130516               74.07101028                0.01000001               -0.01123496               -0.53100364                0.23737418                0.91507896                0.06325113                0.03748129
               0.94276724                4.97666661               74.07434145                0.01000000               -0.11146781               -0.35304068                0.13348079                1.40800318                0.02593696                0.23355153
               1.94065023                4.97215744               74.07847513                0.01000001               -0.33900700               -0.24685295                0.09709659                1.82180806                0.02599244                0.18905317
               2.93598710                4.97566112               74.08248873                0.01000000               -0.31720930               -0.50143515                0.12578296                2.07257543                0.01480638                0.16603047
               3.93430605                4.97834765               74.08663533                0.01000001               -0.25751312               -0.43900084                0.13861357                2.42206502                0.02201497                0.17500136
               4.93083684                4.98786739               74.09095497                0.01000001               -0.43938970               -0.27999861                0.14789843                3.01138800                0.02697369                0.18011432
               5.92551825                5.00028595               74.09496569                0.01260231               -0.62487505               -0.24430597                0.15276796                3.09044189               -0.00981561                0.17752602
               6.91833934                5.00941482               74.09815594                0.01146058               -0.76804154               -0.25957727                0.16200395                3.06545180               -0.04832636                0.19794214
               7.91015742                5.01622343               74.10087186                0.01000000               -0.56299300               -0.28472473                0.16374943                2.97644710                0.00250681                0.30916397
               8.90707948                5.01357905               74.10479140                0.01000002                0.05791984               -0.77698965                0.15038272                2.45013592                0.06646720                0.64862167
               9.91131582                4.99545558               74.10902769                0.01294727                0.42363430               -1.94799712                0.15080847                1.75400077                0.05826922                0.75764622
              -0.02855691                5.98156198               74.07281596                0.12794365               -0.05444296               -0.49215397                0.09555564                0.99447782                0.01086483               -0.01249007
               0.97089866                5.97296334               74.07870458                0.01000001               -0.51800241               -0.19724238                0.17589090                1.29445761               -0.12893430                0.06245062
               1.96108305                5.97057459               74.08171060                0.01126558               -0.67920700               -0.21378976                0.13653373                1.44683258               -0.14631357                0.08243380
               2.95731452                5.96802281               74.08585045                0.01000001               -0.32885359               -0.76896336                0.15381912                2.08052651               -0.09549729                0.19430431
               3.95450597                5.97339026               74.09032941                0.01000001               -0.28674553               -0.58196494                0.14688013                2.70035889               -0.01705410                0.13873864
               4.95157961                5.98439563               74.09482694                0.01261283               -0.36510231               -0.47241139                0.14886509                3.09458135                0.01036283                0.13157694
               5.94720393                5.99663826               74.09896296                0.01154724               -0.45363643               -0.41884236                0.15500435                3.12008317                0.01685606                0.14876319
               6.94250688                6.00595963               74.10307339                0.01000000               -0.33931430               -0.33801903                0.15466959                3.05568228                0.07546845                0.24515986
               7.94041764                6.01126136               74.10809071                0.01000000                0.01577751               -0.42127753                0.13904083                2.81248468                0.19035461                0.45988955
               8.94282244                6.00520995               74.11446846                0.01618698                0.18754111               -0.60495513                0.14117765                1.67689706                0.18160194                0.48164675
               9.94416846                5.98486322               74.11877261                0.01000000                0.13460287               -0.47572087                0.18240676                0.65374600                0.07147194                0.43253852
              -0.02003359                6.98146208               74.07325063                0.96876904               -0.03226352               -0.01869152                0.08209433               -0.00831037               -0.00651615               -0.02518782
               0.97964378                6.97272176               74.07867547                0.01000002               -0.27194973               -0.02731734                0.12162714                0.19923221               -0.08650216               -0.08073433
               1.97452742                6.96788164               74.08251020                0.01565446               -0.24309099               -0.35760835                0.25689451                0.72463129               -0.27850840                0.19435093
               2.97478196                6.96028185               74.08871128                0.01000000               -0.12935092               -0.52643633                0.12688587                1.33174390               -0.07909441                0.01425915
               3.97194040                6.96670835               74.09310024                0.01260312               -0.26507459               -0.88449415                0.15859544                2.42658917               -0.04197789                0.06359738
               4.96948047                6.97841916               74.09784959                0.01145559               -0.27922421               -0.67101690                0.16165912                2.91721237                0.02269576                0.06596504
               5.96635592                6.99190910               74.10274119                0.01000000               -0.23252917               -0.39339335                0.15520189                2.94118846                0.10206402                0.16408820
               6.96482988                7.00265444               74.10855408                0.01000000                0.04004416               -0.22825863                0.13132912                2.77066276                0.24418739                0.30536108
               7.96715680                7.00779788               74.11572322                0.01663295                0.10928372               -0.29460600                0.10539126                2.00529892                0.21889416                0.36368254
               8.96701556                7.00147994               74.11958221                0.01429270               -0.10362975               -0.22052564                0.14248200                0.85592318                0.03783412                0.25936799
               9.96508421                6.98594117               74.12302223                0.01002163               -0.19313533                0.29133217                0.20806840                0.29410295                0.00547672                0.25790455
              -0.01124248                7.98118815               74.07462433                0.99999999               -0.02937769               -0.02567635                0.08722407                0.00881166               -0.00725293                0.02546421
               0.98846374                7.97241700               74.07983096                1.00000000               -0.03709694               -0.03788163                0.12213672               -0.00173267               -0.01489082               -0.01103989
               1.98801558                7.96342242               74.08487856                0.01033190               -0.16705234               -0.24538554                0.15256465                0.37628031               -0.04348409                0.03063804
               2.98512270                7.95749408               74.08951510                0.01619883               -0.15575686               -0.31395551                0.20025336                0.69865686               -0.00614519               -0.01927626
               3.98490044                7.95570038               74.09532861                0.01275374               -0.01997959               -1.08462388                0.20074373                1.91355175                0.03876794               -0.13883835
               4.98472310                7.97097529               74.10026408                0.01000000               -0.15540121               -0.55161217                0.18994159                2.74062162                0.09744688                0.07048609
               5.98179242                7.98877039               74.10693857                0.01000000               -0.13458705               -0.15747104                0.14971314                2.56264311                0.27186892                0.18313597
               6.98203136                8.00139446               74.11437890                0.01660185               -0.00471509               -0.12673057                0.11203132                1.86225042                0.29100344                0.19113806
               7.98169812                8.00536924               74.11916844                0.01390952               -0.01168749               -0.25571305                0.13391893                0.95945991                0.16571837                0.14090195
               8.98179761                8.00079944               74.12410185                0.01516902               -0.02850205               -0.13244793                0.14623230                0.65464142                0.12665601                0.32605936
               9.98112808                7.99068986               74.12851607                0.01000002               -0.06695369                0.59620945                0.12557788                0.45077461                0.09403366                0.28008120
              -0.00231505                8.98094855               74.07607902                1.00000000               -0.03100992               -0.02583442                0.09079755                0.00136288                0.00113729                0.02468953
               0.99737485                8.97196413               74.08117143                0.99999999               -0.03545041               -0.04267354                0.12505253               -0.00055759                0.00051946                0.00018886
               1.99697594                8.96297393               74.08623023                0.99616570               -0.04488540               -0.04760602                0.15966205                0.00130570               -0.01025658               -0.01267547
               2.99647714                8.95400274               74.09103560                0.15816011               -0.01228583               -0.20528433                0.20096991                0.12051317               -0.14805902               -0.00885153
               3.99673022                8.94501587               74.09331298                0.01000000               -0.26271274               -0.55601853                0.29792712                1.70435930                0.11274903               -0.13834714
               4.99122289                8.96738692               74.10340152                0.01000002               -0.47703050               -0.09568995                0.22164013                2.18616930                0.40105735                0.06422516
               5.98718961                8.98875968               74.11133897                0.01608239               -0.28734197                0.00758528                0.16613229                1.50465746                0.27196441                0.12274710
               6.98547605                9.00011983               74.11691058                0.01271682               -0.01242957               -0.18737280                0.15740190                0.63729266                0.15791520                0.01372083
               7.98694102                9.00268362               74.12207113                0.01000000                0.46558584               -0.32258892                0.15630604                0.21735609                0.30144390                0.10013537
               8.99478776                8.99883098               74.13007318                0.99973645                0.36889140               -0.12113065                0.13964770                0.46431441                0.24125346                0.21766032
               9.99431885                8.99786535               74.13313920                1.00000000               -0.04689136                0.32697899                0.19053416                0.61232539               -0.00542822                0.13929575
               0.00675362                9.98067146               74.07744654                0.99999999               -0.03264126               -0.02770922                0.09630017               -0.00392591                0.02018041                0.01981800
               1.00642721                9.97156352               74.08253990                1.00000000               -0.03752700               -0.04006026                0.12958210               -0.00482174                0.02548816                0.00102402
               2.00600308                9.96247030               74.08771474                0.98783102               -0.04680946               -0.05036292                0.16407871               -0.00604230                0.02477922               -0.00602689
               3.00549102                9.95338839               74.09269487                0.99999995               -0.01998163               -0.06143454                0.20260776                0.00687316               -0.11454788               -0.01097580
               4.00560345                9.94458001               74.09509939                0.01000000               -1.03941716               -0.04358634                0.30197043                1.67097762                0.18047651               -0.06962831
               4.98470268                9.96906150               74.10608991                0.01000000               -1.32253950                0.16745749                0.25021073                1.56508355                0.49196294                0.02732495
               5.97915266                9.98892210               74.11423960                0.00999999               -0.19246985                0.01624129                0.22647324                0.62558004                0.23502794                0.04734560
               6.98085328                9.99764700               74.11901547                0.01000000                0.40907124               -0.24728257                0.22026669                0.03749139                0.13369151               -0.01771470
               7.98733408                9.99891746               74.12496607                0.01000002                0.75244432               -0.37661620                0.17533729                0.07579721                0.21108967                0.10724298
               8.99590217                9.99837682               74.13180236                1.00000000                0.39858793               -0.04541614                0.16958110                0.02703937                0.19409376                0.00556432
               9.99530584                9.99722944               74.13486837                0.99492543               -0.05963236               -0.06359157                0.22031768               -0.01603907                0.00541664               -0.00545632
              -0.10911053               -0.01336542               75.05551296                0.99249839               -0.02176543               -0.02332405                0.07342968                0.00116777               -0.00770090                0.00723926
               0.89067182               -0.01838518               75.05922532                0.96007946               -0.02160078               -0.02316463                0.07245148               -0.00056053               -0.00837668               -0.00236142
               1.89045746               -0.02337083               75.06292446                0.01630122                0.13406751               -0.02296891                0.07229210                0.21069777                0.00777865               -0.00355665
               2.89335317               -0.02410184               75.06695851                0.01000001                0.18566351                0.00620107                0.18243420                0.19085206               -0.14004819               -0.18605894
               3.89417073               -0.01792679               75.07062822                0.01000002               -0.03585817                0.06401647                0.13221295                0.41034466                0.07173854               -0.05101555
               4.89263600               -0.00731214               75.07543022                0.01000002               -0.52597876               -0.01167690                0.05544759                0.73297517               -0.48280785                0.40192464
               5.88365115                0.00957679               75.07452020                0.43446270               -0.46203585               -0.04767525                0.11973862                0.70180831               -0.20303538                0.00487373
               6.88339529                0.01237251               75.07655923                0.99948315               -0.02682477               -0.03593888                0.10300677               -0.00504424               -0.02812318               -0.00784018
               7.88311466                0.01533760               75.07910915                0.99999998               -0.02730988               -0.03275162                0.09501249                0.00028404                0.00125454               -0.00256675
               8.88284909                0.01839380               75.08172424                1.00000000               -0.02637017               -0.03122984                0.09090250                0.00037297                0.00455622                0.00183844
               9.88258725                0.02152296               75.08432836                1.00000000               -0.02618376               -0.03013004                0.08767402               -0.00439566                0.00449388                0.00624367
              -0.10407909                0.98640134               75.05773574                0.99999999               -0.02519897               -0.02507811                0.08443292                0.00132897                0.00043069                0.00970077
               0.89566892                0.98138318               75.06144300                0.01000000               -0.02490701               -0.02460749                0.08262441               -0.00068866                0.00376747               -0.00518164
               1.89542277                0.97639948               75.06521790                0.01000000               -0.15646246                0.02638594                0.08030790                0.15976269                0.08355936                0.03547445
               2.89253967                0.97596017               75.07051540                0.01000000               -0.27717217                0.07985880                0.03596567                0.48422586                0.18599044               -0.24517881
               3.88987932                0.98271338               75.07310128                0.01070301               -0.31628496                0.07143754                0.01108787                0.73745353               -0.15628612                0.08555868
               4.88621397                0.99257109               75.07646041                0.01000000               -0.45262066               -0.04096763                0.19543560                1.08631884               -0.27217991                0.45612374
               5.88082691                1.00910004               75.07862338                0.01000001               -0.28747644               -0.36806280                0.15926882                1.00609420               -0.06532179                0.02713569
               6.88046444                1.01201312               75.08045772                0.66924897               -0.03600273               -0.03839768                0.12808704                0.00176305               -0.04082220               -0.01908151
               7.88010685                1.01501009               75.08302822                0.99999999               -0.03521484               -0.03631704                0.12005116                0.00257534               -0.00053929               -0.00426190
               8.87976014                1.01808150               75.08565368                1.00000000               -0.03463601               -0.03460595                0.11686069                0.00140906                0.00215803                0.00319949
               9.87941413                1.02122166               75.08826698                0.99718151               -0.03460081               -0.03363298                0.11384350               -0.00337699                0.00149026                0.00937805
              -0.09904762                1.98613302               75.05999150                0.31560596               -0.02924744               -0.02639899                0.09760178               -0.00024089                0.00332080                0.05292722
               0.90065990                1.98112267               75.06361147                0.01000000               -0.09383295               -0.02485590                0.09410145                0.04572923                0.05639649                0.01803957
               1.89907572                1.97715689               75.06828690                0.01000001               -0.19680564               -0.02326193                0.07427071                0.39832918                0.13322160                0.04162923
               2.89672379                1.97749534               75.07292380                0.01000000               -0.33834208                0.06525722                0.07121696                0.96460934                0.02033897               -0.00061330
               3.89230887                1.98350197               75.07655081                0.01000000               -0.43740332                0.00932692                0.08653729                1.35402286               -0.10087756                0.23517394
               4.88797572                1.99186851               75.07968139                0.01000001               -0.39889353               -0.21899753                0.09452120                1.58522166               -0.00999029                0.23440369
               5.88433100                2.00221554               75.08312516                0.01120382               -0.52276109               -0.40253771                0.14084437                1.46233382               -0.07316111                0.07763513
               6.87752050                2.01160456               75.08414989                0.01000002               -0.36166077               -0.23191373                0.13668492                0.83416825               -0.07414892                0.06577072
               7.87709779                2.01461126               75.08690852                0.30977455               -0.04273997               -0.04173386                0.14328422                0.00441593                0.00971981               -0.01944585
               8.87666570                2.01770168               75.08959982                1.00000000               -0.04291977               -0.04185561                0.14339451                0.00318385                0.00389781                0.00331028
               9.87623939                2.02085030               75.09225505                0.99999999               -0.04263073               -0.04148370                0.14011684               -0.00366032                0.00154170                0.01029734
              -0.09406322                2.98587336               75.06304388                0.01000000               -0.03771480                0.14384009                0.13429997                0.54146237               -0.00050226                0.20087736
               0.90555963                2.98088606               75.06630225                0.01000000                0.05399556               -0.14598454                0.09111444                0.54507319                0.10217970                0.15001476
               1.90701669                2.97593424               75.07162784                0.01000000               -0.00364243               -0.21921857                0.08374227                0.92272497                0.20770095                0.05566134
               2.90548678                2.97726532               75.07628257                0.01000000               -0.22150404               -0.07347039                0.09866221                1.45103873                0.12339303                0.14000162
               3.90258661                2.98289992               75.08065557                0.01210296               -0.31409738               -0.16874011                0.11627197                1.66792156                0.05468918                0.18807318
               4.89920483                2.98819114               75.08429171                0.01000000               -0.61245351               -0.21393326                0.13181821                1.99642475               -0.03038887                0.18198859
               5.89033754                3.00104928               75.08684714                0.01000001               -0.72263774               -0.17749893                0.12717838                1.91605857               -0.07087112                0.10688604
               6.88475208                3.00737485               75.08974025                0.01000000               -0.81197404               -0.18261816                0.11400071                1.47198698               -0.25137600                0.24143021
               7.87409805                3.01417541               75.09052953                0.01649025               -0.55836467               -0.06043382                0.14582554                0.75196951               -0.07566344                0.08926627
               8.87358478                3.01724439               75.09352332                0.31366221               -0.05271846               -0.05148035                0.17566212                0.01352025                0.01620027                0.00569127
               9.87304369                3.02039198               75.09619215                0.99999994               -0.05410977               -0.05109472                0.17153670               -0.01618477               -0.00217944                0.01278540
              -0.07824378                3.98900982               75.06809077                0.01000002               -0.02557430                0.11390377                0.09900482                0.70764301                0.13056468                0.33930382
               0.92150048                3.97820298               75.07120675                0.01069505               -0.03026317               -0.31996641                0.10209645                0.91588807                0.26373347               -0.02995011
               1.92115096                3.97277252               75.07532087                0.01000000               -0.13607954               -0.28727425                0.11681039                1.40698954                0.25667154                0.10769939
               2.91877889                3.97602593               75.08027831                0.01209928               -0.32047404               -0.16844734                0.12390661                1.70130166                0.13113917                0.16371137
               3.91474148                3.98012716               75.08441518                0.01000000               -0.45120195               -0.32448631                0.13651592                1.96608942                0.04089102                0.15960586
               4.90975485                3.98758984               75.08814128                0.01000001               -0.56365052               -0.13259368                0.14351449                2.31347188                0.01516119                0.15716944
               5.90346847                3.99866556               75.09180579                0.01000001               -0.79603680               -0.17269045                0.15008900                2.59125993               -0.03725257                0.19312742
               6.89383411                4.00795220               75.09464253                0.01273781               -1.06004130               -0.05482262                0.14686416                2.24357868               -0.08889750                0.16754750
               7.88226764                4.01340259               75.09656894                0.01302694               -1.15572911               -0.07607591                0.15375242                2.07438884               -0.15802292                0.22121381
               8.87071953                4.01667207               75.09752437                0.01000000               -0.63235701               -0.36526214                0.28446171                1.82184934               -0.07668082                0.22796655
               9.86962050                4.01982840               75.10022972                0.01000000               -0.10990297               -1.40955381                0.27830067                2.04323302               -0.01750435                0.32288208
              -0.05829669                4.98815143               75.07370479                0.01151706               -0.15886191               -0.43443035                0.01717250                0.80863917                0.31602677               -0.20242408
               0.94011469                4.97448673               75.07587276                0.01000000               -0.21848881               -0.34665639                0.29751386                1.26749780                0.41454675                0.05600851
               1.93733353                4.97018876               75.07930839                0.01000001               -0.39782605               -0.19246861                0.10417275                1.70300143                0.10234552                0.19073017
               2.93215817                4.97389637               75.08373624                0.01000000               -0.34945270               -0.47596831                0.14005316                1.99126460                0.05322087                0.16590882
               3.93034448                4.97641019               75.08803374                0.01000001               -0.26111465               -0.43334414                0.14695160                2.33855293                0.03750145                0.16220424
               4.92693588                4.98553927               75.09241389                0.01000000               -0.42720478               -0.27468160                0.15241834                2.93622749                0.02526518                0.16268750
               5.92180038                4.99759548               75.09642965                0.01277529               -0.60246273               -0.23224365                0.15019244                3.02068562               -0.01463443                0.14398896
               6.91488662                5.00627840               75.09966765                0.01172711               -0.74672127               -0.25119649                0.15477394                2.98991615               -0.05208458                0.15694139
               7.90686596                5.01265389               75.10250105                0.01000000               -0.56453344               -0.26165891                0.16446805                2.88997656               -0.01853381                0.26415040
               8.90359595                5.00993914               75.10617775                0.01000002                0.03648606               -0.71105611                0.15166254                2.39178837                0.04203402                0.53723021
               9.90759568                4.99220091               75.11061251                0.01125902                0.39997265               -1.88747424                0.17162565                1.76199915                0.05455910                0.70125223
              -0.03474159                5.98032121               75.07360599                0.20801523               -0.04453026               -0.39402319                0.06419691                0.72179827                0.01096850               -0.07883056
               0.96481311                5.97126986               75.08043302                0.01000001               -0.47285317               -0.15989129                0.13338551                1.12088525               -0.18246519                0.02393992
               1.95580135                5.96892315               75.08299196                0.01118899               -0.62151814               -0.21035916                0.14258791                1.35966818               -0.17534607                0.09735212
               2.95238275                5.96650656               75.08731436                0.01000001               -0.29658569               -0.75060242                0.14939362                1.98130328               -0.04371046                0.12578763
               3.94986964                5.97146028               75.09172362                0.01000001               -0.25443164               -0.58804408                0.14946065                2.60580046               -0.01726592                0.12359824
               4.94729412                5.98209621               75.09627124                0.01278190               -0.33632922               -0.46754852                0.14844940                3.01926615               -0.00277085                0.09910849
               5.94314305                5.99402068               75.10044290                0.01187748               -0.43600476               -0.41305544                0.15005367                3.04262396               -0.00840458                0.10587428
               6.93857402                6.00292827               75.10454861                0.01000000               -0.33683124               -0.32855307                0.14993242                2.98666277                0.02468262                0.16726713
               7.93640643                6.00816941               75.10929767                0.01000000                0.02171315               -0.34533585                0.11592060                2.80948920                0.12591089                0.35583848
               8.93900828                6.00245095               75.11568526                0.01689995                0.19652645               -0.54908075                0.10081303                1.68791579                0.13415312                0.45709338
               9.94033696                5.98207892               75.12064571                0.01000000                0.13286728               -0.42631685                0.16903791                0.64893564                0.04867568                0.44434654
              -0.02575801                6.98027097               75.07406943                0.97323586               -0.03115282               -0.01493226                0.08428079                0.00314796               -0.00925499               -0.02479183
               0.97393046                6.97128891               75.07989778                0.01000000               -0.24758994               -0.01740780                0.12209410                0.19318205               -0.05833092               -0.11824626
               1.96929019                6.96598158               75.08474762                0.01549768               -0.23416794               -0.35333293                0.18579002                0.71739870               -0.00578188               -0.07134943
               2.96924710                6.95888432               75.08966330                0.01000000               -0.12096759               -0.52917478                0.12548946                1.30783477               -0.03952443                0.05502391
               3.96687084                6.96464931               75.09461170                0.01272522               -0.22431529               -0.86046104                0.15249600                2.37269795               -0.02288356                0.02495893
               4.96476079                6.97618830               75.09935487                0.01173686               -0.25250145               -0.66473022                0.15348441                2.85300101               -0.00735473                0.05233622
               5.96182081                6.98933437               75.10423579                0.01000000               -0.21448217               -0.40030150                0.15217338                2.88124018                0.03922289                0.10373604
               6.96047115                6.99970734               75.10973067                0.01000000                0.08561255               -0.20741375                0.11393002                2.83363289                0.13984657                0.21125772
               7.96353306                7.00574718               75.11652250                0.01751474                0.14868024               -0.24417316                0.06434820                2.05488376                0.09407937                0.27247487
               8.96344476                6.99895753               75.12087826                0.01517621               -0.11073050               -0.19539322                0.10167612                0.83828495               -0.04442052                0.27550638
               9.96131845                6.98367457               75.12498934                0.01000003               -0.21263072                0.30302729                0.17607685                0.31610394               -0.03778593                0.22160673
              -0.01671449                7.98002257               75.07549526                0.99999999               -0.03193577               -0.02624551                0.08884973               -0.00075117               -0.00886690                0.02507550
               0.98296615                7.97092170               75.08104913                1.00000000               -0.03657979               -0.03580589                0.11999814                0.00131967               -0.02003510               -0.02236899
               1.98255391                7.96185649               75.08638936                0.01000000               -0.15472187               -0.22946696                0.14756886                0.37371985               -0.03537759               -0.00569731
               2.97987171                7.95592307               75.09157083                0.01650226               -0.12671461               -0.32767905                0.19206546                0.71988423               -0.03083013               -0.01013639
               3.98001962                7.95425106               75.09676689                0.01303680               -0.01013155               -1.02523272                0.14838683                1.82528158                0.00676779               -0.01739614
               4.97966908                7.96880161               75.10224708                0.01000000               -0.13853993               -0.56231554                0.19325867                2.64843615                0.06041576                0.04436668
               5.97724882                7.98601465               75.10825538                0.01000000               -0.04176045               -0.16761689                0.12663267                2.56380043                0.16084803                0.12467593
               6.97883387                7.99877999               75.11528011                0.01746851                0.05025457               -0.10227184                0.07329156                1.92014345                0.19165948                0.10859887
               7.97825391                8.00328595               75.12053179                0.01489636               -0.04936416               -0.26863392                0.13931680                0.97221031                0.14033273                0.10028915
               8.97784659                7.99854308               75.12540188                0.01584456               -0.05144797               -0.09637555                0.12492498                0.63968868                0.12884200                0.32824246
               9.97722495                7.98813947               75.13041032                0.01000002               -0.06216363                0.61104718                0.17362261                0.43822912                0.11985369                0.26993150
              -0.00757130                8.97974606               75.07698613                1.00000000               -0.03057683               -0.02815802                0.09284525                0.00183428               -0.00103272                0.02158396
               0.99212293                8.97057279               75.08241157                0.99999999               -0.03327408               -0.03733472                0.12297669                0.00160807               -0.00238206               -0.00358019
               1.99176322                8.96139224               75.08782413                0.98441503               -0.04363587               -0.04726760                0.15384209                0.01055521               -0.00519746               -0.01007649
               2.99125021                8.95233074               75.09315054                0.16897631               -0.06326455               -0.21669675                0.22221133                0.16614033                0.01726619               -0.00819753
               3.99049793                8.94414466               75.09878120                0.01000000               -0.26421453               -0.63509507                0.50877771                1.61132103                0.07273499               -0.00790480
               4.98596592                8.96494199               75.10524646                0.01000002               -0.36897468               -0.11548930                0.17574131                2.10317725                0.20738554                0.04523747
               5.98311843                8.98598203               75.11287375                0.01678611               -0.21815972                0.00882531                0.13494055                1.52767022                0.25338464                0.09261060
               6.98160273                8.99766190               75.11836707                0.01353443                0.00478695               -0.18928010                0.12378922                0.62438263                0.17720920               -0.06716725
               7.98321417                9.00037450               75.12358107                0.01000001                0.48911402               -0.32305758                0.14336927                0.20534960                0.32023617                0.06803949
               8.99138501                8.99703002               75.13146760                1.00000000                0.38380483               -0.09857221                0.14065684                0.51613974                0.20770526                0.21008273
               9.99089027                8.99589551               75.13504356                1.00000000               -0.04947404                0.35677935                0.18968616                0.62830259               -0.00892423                0.12154565
               0.00166874                9.97945941               75.07841394                1.00000000               -0.03166052               -0.02866541                0.09947679               -0.00443634                0.01339725                0.01640378
               1.00135213                9.97017500               75.08382599                1.00000000               -0.03308381               -0.03977823                0.12906333               -0.00449336                0.01808320               -0.00007175
               2.00100706                9.96091114               75.08935045                1.00000000               -0.04550176               -0.04811002                0.15617509               -0.00490928                0.02404487               -0.00440970
               3.00044210                9.95158913               75.09481070                0.99999999               -0.06861365               -0.07416073                0.22342769               -0.04891056                0.04786319               -0.00649680
               3.99963479                9.94154916               75.10062584                0.01000000               -1.02734235               -0.25954975                0.50571428                1.65882071                0.16890725                0.00234493
               4.97989525                9.96649182               75.10838881                0.01000001               -1.22762386                0.15498343                0.21699905                1.62503282                0.35898210                0.03563960
               5.97508231                9.98619116               75.11651990                0.01020212               -0.14830978                0.02091309                0.20336049                0.62151618                0.26228483                0.04266417
               6.97692906                9.99499439               75.12123257                0.01000000                0.39552361               -0.26675100                0.21491334                0.06431426                0.11398800               -0.05570739
               7.98299278                9.99682479               75.12664583                0.01000002                0.78596546               -0.35497034                0.15954274                0.05672368                0.14842529                0.07926503
               8.99264836                9.99657164               75.13350040                1.00000000                0.45336125               -0.04583775                0.17041668                0.04884842                0.17165437                0.00792129
               9.99206001                9.99527505               75.13707485                0.99507271               -0.05883553               -0.06204621                0.21945999               -0.01268479                0.00803047               -0.00754928
              -0.11288769               -0.01557966               76.05625179                0.99335921               -0.02162737               -0.02199911                0.07464665                0.00065655               -0.00529678                0.00461149
               0.88689604               -0.02068170               76.05995481                0.96122023               -0.02138743               -0.02388030                0.07366544               -0.00091451               -0.00466082               -0.00295078
               1.88668456               -0.02574127               76.06365749                0.08827336                0.00956227               -0.02255759                0.07493937                0.00854848                0.12780373               -0.00191734
               2.88708728               -0.03058919               76.06998262                0.01616636                0.21575035               -0.02452684                0.16117716                0.68370029                0.02684995               -0.32842479
               3.89099957               -0.02173990               76.07298107                0.01108475               -0.25225959                0.22553997                0.04060523                0.89597845               -0.20502958               -0.07940015
               4.88204209                0.00015638               76.07388477                0.03888743               -0.49584031               -0.04044729               -0.08590932                0.93418584               -0.42627345                0.63757726
               5.88108276                0.00531870               76.07566212                0.54731164               -0.05989808               -0.04085143                0.10011737                0.11307725               -0.05864057                0.00333853
               6.88084413                0.00826000               76.07759183                1.00000000               -0.02570015               -0.03652930                0.10110428               -0.00028023               -0.03036674               -0.01116495
               7.88056876                0.01126444               76.08004828                0.99999999               -0.02692958               -0.03237495                0.09284993               -0.00001083                0.00009789               -0.00306807
               8.88030554                0.01435402               76.08262188                0.99999999               -0.02611712               -0.03079548                0.08908379                0.00021371                0.00460975                0.00171981
               9.88004642                0.01751648               76.08519537                1.00000000               -0.02591198               -0.02971439                0.08653641               -0.00481125                0.00419082                0.00515659
              -0.10777909                0.98420035               76.05857678                1.00000000               -0.02532146               -0.02290227                0.08353585                0.00143735               -0.00158870                0.00963239
               0.89196770                0.97907950               76.06226316                0.01047059               -0.02485591               -0.02561727                0.08111652                0.00161996                0.00079572               -0.00580189
               1.89172380                0.97403315               76.06600622                0.01000000               -0.00220516               -0.00297113                0.07623172               -0.03587596                0.01256056                0.03270981
               2.89192360                0.96916554               76.06994234                0.01000000               -0.35686139                0.25691650               -0.02836749                0.59130702               -0.02311799               -0.13370327
               3.88458657                0.98051550               76.07303636                0.01090686               -0.70344711                0.22058779                0.09325742                1.34434696               -0.24077375                0.18158480
               4.87785466                0.99975191               76.07948165                0.01000000               -0.32124201               -0.46586357                0.18400219                1.35328185               -0.22499234                0.45571277
               5.87816173                1.00491018               76.08022333                0.01000001                0.00069005               -0.32810621                0.14260465                0.42403271               -0.15256259                0.00221436
               6.87786846                1.00789470               76.08175825                0.60933314               -0.03200438               -0.03825141                0.13041585                0.00453327               -0.05789335               -0.03188637
               7.87752164                1.01094069               76.08422767                0.99999999               -0.03433993               -0.03622028                0.11959370                0.00366831               -0.00322576               -0.00535505
               8.87718166                1.01404607               76.08682019                1.00000000               -0.03428964               -0.03457945                0.11657742                0.00132761                0.00293682                0.00358862
               9.87683585                1.01721933               76.08940303                0.99705158               -0.03458091               -0.03363171                0.11391993               -0.00391540                0.00227852                0.00793923
              -0.10261724                1.98396229               76.06096616                0.38335618               -0.02871212               -0.01810439                0.09534513                0.01884408                0.00141815                0.07340993
               0.89709564                1.97880596               76.06454226                0.01000000               -0.07508757               -0.03005179                0.09237393                0.03974456                0.04827388                0.00401752
               1.89588101                1.97419930               76.06903101                0.01000001               -0.23322835               -0.06730702                0.07848169                0.41807730                0.10041973                0.06776150
               2.89243107                1.97454914               76.07349532                0.01000000               -0.42904321                0.29531217                0.06733877                0.93861547                0.01704498                0.15707422
               3.88730014                1.98267186               76.07754067                0.01000000               -0.38590086                0.01819852                0.11649198                1.54255992               -0.04074522                0.31902128
               4.88471305                1.99083911               76.08091987                0.01000001               -0.29397599               -0.70049589                0.17459803                1.69954622                0.00336804                0.11077587
               5.88142062                1.99875657               76.08454891                0.01114176               -0.49043826               -0.36556836                0.13973495                1.25771976               -0.07696188                0.03352692
               6.87490429                2.00749497               76.08548355                0.01535797               -0.34649283               -0.12684347                0.12865079                0.63312667               -0.06981793                0.01654906
               7.87449077                2.01054004               76.08834624                0.27955252               -0.04254193               -0.04169531                0.14408136                0.00488641                0.01934264               -0.03091034
               8.87405345                2.01366243               76.09104414                0.99999998               -0.04345964               -0.04240179                0.14522668                0.00261017                0.00704882                0.00589609
               9.87362157                2.01684384               76.09365995                0.99999999               -0.04318757               -0.04184166                0.14112545               -0.00394849                0.00258070                0.00949711
              -0.09708953                2.98383826               76.06445534                0.07075016               -0.03848887                0.21724618                0.12495585                0.60707001                0.00152076                0.22157723
               0.90252558                2.97847846               76.06713436                0.01000000                0.07158462               -0.44756597                0.09123627                0.66942838                0.14588372                0.10028475
               1.90434216                2.97268701               76.07254306                0.01000000               -0.01511168               -0.21071081                0.10662270                1.02077901                0.21278492                0.12285505
               2.90222335                2.97507178               76.07735862                0.01000000               -0.25971837               -0.03385335                0.12199407                1.56715451                0.13533374                0.19124464
               3.89914780                2.98087948               76.08192372                0.01213216               -0.32312401               -0.23438223                0.14186683                1.72979292                0.07303789                0.20436819
               4.89576087                2.98574199               76.08572587                0.01000000               -0.62437660               -0.29111497                0.15212224                1.91045325               -0.01650378                0.17548757
               5.88666026                2.99759881               76.08830461                0.01000001               -0.85066711               -0.14760753                0.16579341                1.89457226               -0.11220528                0.08006713
               6.87874753                3.00535783               76.09054889                0.01000000               -0.76041790               -0.14601190                0.12305270                1.40989536               -0.33471873                0.26068098
               7.87145191                3.01010679               76.09201779                0.01685264               -0.39087371               -0.05657131                0.12556139                0.61800275               -0.03037661                0.08079602
               8.87093005                3.01319803               76.09528540                0.33502483               -0.05289269               -0.05038976                0.17893356                0.00398695                0.03318537                0.03633236
               9.87039405                3.01638250               76.09789554                0.99999999               -0.05360000               -0.04917025                0.17156248               -0.00859501               -0.00040454                0.03774582
              -0.07975625                3.98830722               76.06877418                0.07149991                0.13917027               -0.10483998                0.06811531                0.25242710                0.06513959                0.16943242
               0.92163545                3.96985464               76.07246518                0.01089343               -0.02702417               -0.49589765                0.09056286                1.23034290                0.14981431                0.21626606
               1.91970327                3.96998509               76.07683127                0.01000000               -0.30268806               -0.21930323                0.16652611                1.72544674                0.19670943                0.13571812
               2.91558169                3.97387207               76.08165643                0.01213799               -0.42387378               -0.15642705                0.14849439                1.70509734                0.11342946                0.18376045
               3.91122579                3.97798422               76.08587856                0.01000000               -0.46894580               -0.32980910                0.15493459                1.91876829                0.04558258                0.16017171
               4.90620278                3.98501681               76.08965646                0.01000001               -0.57647855               -0.13754049                0.16221026                2.25027870                0.02149063                0.14454294
               5.89969622                3.99580442               76.09337124                0.01000000               -0.78042768               -0.15350979                0.16901297                2.54347356               -0.03671588                0.17399249
               6.89059422                4.00457473               76.09618171                0.01287557               -1.03427990               -0.13551350                0.17972810                2.30414547               -0.07294646                0.16392298
               7.87901062                4.00940861               76.09828176                0.01336869               -1.13683764               -0.06645346                0.17753201                1.99523207               -0.13359374                0.20739454
               8.86785747                4.01265464               76.10011854                0.01000000               -0.59649478               -0.35176366                0.26064520                1.76652360               -0.04692866                0.21267092
               9.86708073                4.01586044               76.10272021                0.01000000               -0.07767426               -1.36589304                0.24658844                1.97775225                0.00376079                0.31586770
              -0.05513583                4.98174146               76.07135373                0.17960290                0.05903972               -0.43432475               -0.08328916                0.57013724                0.60556961               -0.02718934
               0.94545457                4.96856051               76.08029173                0.01000000               -0.50152535               -0.02187582                0.16797588                1.13937061                0.28440817                0.08198904
               1.93483367                4.96830094               76.08055859                0.01000001               -0.85642024               -0.14513395                0.18083931                1.71871213               -0.09984322                0.17877018
               2.92832617                4.97194324               76.08528979                0.01000000               -0.42276220               -0.46302850                0.15776086                1.90546565                0.04784075                0.16034781
               3.92637842                4.97428329               76.08957436                0.01000001               -0.26899643               -0.43499724                0.16291940                2.25129586                0.03063679                0.15390186
               4.92294624                4.98299118               76.09400333                0.01000000               -0.42033045               -0.27899890                0.16806113                2.84237338                0.01891906                0.14099153
               5.91797181                4.99452862               76.09796954                0.01299909               -0.58599947               -0.24274085                0.16550045                2.93593154               -0.02247660                0.10176120
               6.91122625                5.00264756               76.10125142                0.01207882               -0.73475865               -0.26663907                0.17003311                2.89003218               -0.05498555                0.10612138
               7.90327664                5.00877772               76.10416122                0.01000000               -0.57087769               -0.25259686                0.18335728                2.81518901               -0.02743943                0.18956008
               8.89980869                5.00616276               76.10782465                0.01000002                0.01304247               -0.65016625                0.16551214                2.32934529                0.03435979                0.42214243
               9.90353749                4.98906464               76.11246021                0.01005821                0.37287960               -1.82435604                0.19053743                1.69720605                0.05473532                0.66926909
              -0.04199160                5.97962072               76.07409990                0.39821218               -0.01450151               -0.13322471                0.05283017                0.14266158               -0.00223228                0.11859505
               0.95786338                5.96941712               76.08137229                0.01000001               -0.36568081                0.05901061                0.05481783                0.49030449               -0.18016180               -0.13531650
               1.95069478                5.96708241               76.08456236                0.01112077               -0.50773624               -0.26218422                0.14745314                1.25034874               -0.17185909                0.08371019
               2.94770866                5.96461150               76.08883833                0.01000001               -0.27455048               -0.74086874                0.16074113                1.90015438               -0.05302142                0.10757390
               3.94520377                5.96928427               76.09331862                0.01000000               -0.24518695               -0.60595166                0.17043017                2.51190374               -0.02919343                0.11021772
               4.94280492                5.97943683               76.09779593                0.01298879               -0.32226521               -0.47505624                0.16311824                2.92141897               -0.02906246                0.07095309
               5.93875847                5.99094960               76.10196404                0.01227628               -0.43295742               -0.41786393                0.16210058                2.92989365               -0.03636637                0.06366453
               6.93414577                5.99924195               76.10607204                0.01000000               -0.34796283               -0.32497321                0.16120891                2.87604616               -0.03908432                0.08233300
               7.93179921                6.00435667               76.11040912                0.01000000                0.00058409               -0.33822298                0.12611120                2.75117627                0.04293191                0.23376623
               8.93415745                5.99965131               76.11648472                0.01777517                0.17109351               -0.44446504                0.05913693                1.64341317                0.03654210                0.37705551
               9.93522108                5.97937332               76.12215337                0.01000000                0.10636287               -0.42279754                0.09029274                0.60064276               -0.01097364                0.41936728
              -0.03187539                6.97907697               76.07493624                0.98538705               -0.03256335               -0.04238810                0.08962940                0.03957761               -0.00896613               -0.00287165
               0.96779897                6.96974072               76.08111735                0.01568326               -0.17391727                0.00193523                0.11447616                0.16429278               -0.06058843               -0.11711657
               1.96464626                6.96305726               76.08622600                0.01534918               -0.18357927               -0.34252199                0.14140340                0.67383487               -0.00448831               -0.09238692
               2.96412739                6.95712586               76.09122107                0.01000000               -0.14275485               -0.54036914                0.17130805                1.27634526               -0.04495304                0.04593557
               3.96179117                6.96216426               76.09615016                0.01287077               -0.22090530               -0.90506576                0.17650491                2.27599809               -0.04360334                0.00635943
               4.95970928                6.97349005               76.10091928                0.01207128               -0.25132987               -0.67328965                0.16796960                2.78225430               -0.04000179                0.04244379
               5.95676457                6.98617134               76.10578466                0.01000000               -0.21845900               -0.41618273                0.16174099                2.79379643               -0.03444847                0.03919738
               6.95534010                6.99614810               76.11083268                0.01000002                0.05631173               -0.21559526                0.13072273                2.76421475                0.02143058                0.10843708
               7.95789080                7.00201326               76.11701019                0.01000001                0.11601037               -0.20201099                0.05869786                2.18545756               -0.16082003                0.14358025
               8.95766031                6.99727346               76.12161573                0.01625672               -0.08922366               -0.14381852                0.06953174                0.94669503               -0.15197004                0.29853967
               9.95610633                6.98060869               76.12654376                0.01000003               -0.15539811                0.33304742                0.13790582                0.24788252               -0.03788408                0.15958625
              -0.02252756                7.97877296               76.07640132                0.99999999               -0.03034941               -0.03077084                0.09373331                0.00272600               -0.00945281                0.02229990
               0.97716894                7.96945582               76.08223092                0.99964775               -0.03430511               -0.03125298                0.11551456                0.00746213               -0.01971134               -0.02562776
               1.97678634                7.96023197               76.08782993                0.01000000               -0.15201904               -0.16229776                0.13656223                0.29175264               -0.02989339               -0.00974257
               2.97412856                7.95380412               76.09335641                0.01685482               -0.12133954               -0.32634768                0.16461693                0.63444965               -0.06046670               -0.00625558
               3.97435955                7.95118296               76.09829635                0.01337077                0.01571805               -1.05827196                0.18841104                1.82323807               -0.01771802                0.06486131
               4.97444292                7.96597104               76.10412925                0.01000000               -0.11915974               -0.56700557                0.17905235                2.65058787                0.00625444                0.02794532
               5.97197635                7.98262595               76.10947122                0.01000000               -0.04273874               -0.19119822                0.13794428                2.56655670                0.02941148                0.06271068
               6.97358815                7.99493004               76.11584473                0.01000001                0.12033275               -0.16620388                0.08048297                2.03316552                0.01391029               -0.03524953
               7.97438301                8.00031645               76.12195478                0.01610571                0.04538852               -0.20414475                0.12740093                1.20996526                0.17204929                0.09639493
               8.97449592                7.99677494               76.12660035                0.01792455               -0.04373712               -0.11696710                0.11901126                0.77684403                0.12650678                0.32530634
               9.97350826                7.98603427               76.13198853                0.01000002               -0.09876568                0.65115266                0.06353337                0.47003886                0.09709535                0.13963947
              -0.01318660                8.97846155               76.07793593                0.99999999               -0.03241887               -0.03145265                0.09983693                0.00166241               -0.00476130                0.01787989
               0.98648921                8.96911566               76.08363096                0.99999999               -0.03401868               -0.03612863                0.12219311                0.00165857               -0.00813255               -0.00493068
               1.98613303                8.95981130               76.08930707                0.98671053               -0.03119079               -0.04512585                0.14570650                0.00980913                0.01190306               -0.01052654
               2.98586539                8.95059891               76.09547982                0.88489425               -0.00220094               -0.19329913                0.18620840                0.11159248                0.12790197                0.01153057
               3.98608901                8.94099882               76.10348853                0.01000000               -0.22936734               -0.51226701                0.23266089                1.62974882                0.00799267                0.10098644
               4.98127805                8.96214994               76.10691634                0.01000002               -0.34761548               -0.12407245                0.17813331                2.14469449                0.01595048                0.02983980
               5.97913670                8.98234738               76.11403778                0.01763602               -0.14825678               -0.00714405                0.08694431                1.51261602                0.17936391                0.04540988
               6.97831291                8.99282402               76.11938637                0.01454015                0.05542570               -0.20640984                0.10460155                0.75009720                0.21772661               -0.15294240
               7.98024521                8.99793036               76.12493852                0.01000001                0.45832326               -0.29716152                0.15069899                0.28809240                0.40698966                0.07071843
               8.98747938                8.99493411               76.13288631                1.00000000                0.33716215               -0.11526453                0.14284867                0.50558525                0.18661099                0.20639578
               9.98698845                8.99363174               76.13693292                1.00000000               -0.04909230                0.34908065                0.18817660                0.61022809               -0.00833813                0.12255530
              -0.00380254                9.97814391               76.07943608                1.00000000               -0.03451006               -0.03176423                0.10852988               -0.00265927                0.00641029                0.01225024
               0.99585236                9.96873325               76.08512116                1.00000000               -0.03490954               -0.03824098                0.13105395               -0.00440782                0.00398420                0.00081641
               1.99549927                9.95932945               76.09083824                0.99999998               -0.03397314               -0.04818542                0.15058990               -0.00313150                0.02852834               -0.00384193
               2.99517290                9.94993813               76.09716342                0.99999999               -0.00478894               -0.06607781                0.18921754                0.01115858                0.14602942                0.00984016
               3.99540349                9.94093762               76.10521367                0.01000002               -0.95923194               -0.00612047                0.22759334                1.60902118                0.10967695                0.05583146
               4.97598826                9.96348959               76.11042990                0.01000000               -1.19244497                0.13396459                0.19363810                1.54829378                0.23606295                0.05394883
               5.97155459                9.98248307               76.11830681                0.01076904               -0.14905753                0.01356927                0.11727981                0.60740237                0.26781874               -0.01032954
               6.97300711                9.99080185               76.12331374                0.01000000                0.32400849               -0.20221754                0.16572567                0.06392728                0.11123736               -0.04859365
               7.97803476                9.99437322               76.12815692                0.01000002                0.79495677               -0.35571399                0.16143706               -0.03765476                0.07852274                0.05762764
               8.98890624                9.99446965               76.13521069                1.00000000                0.51414023               -0.04644638                0.17181335                0.07481956                0.15810246                0.00772465
               9.98831757                9.99301588               76.13925757                0.99516744               -0.05886776               -0.06158632                0.21721503               -0.01246580                0.00781573               -0.00787778
              -0.11662249               -0.01792316               77.05700590                0.99509551               -0.02046099               -0.01972204                0.07658016                0.00011087               -0.00095426               -0.00002875
               0.88317290               -0.02306090               77.06069863                0.96464369               -0.01958958               -0.02594091                0.07475105               -0.00092452                0.00260298               -0.00367601
               1.88298572               -0.02810662               77.06442325                0.20905981                0.06968458               -0.02132147                0.07679954                0.12446412                0.11147804                0.00093886
               2.88456659               -0.03058978               77.07018205                0.12513531                0.15911352                0.03631828                0.00600504                0.47212026                0.07154214               -0.06385855
               3.88616799               -0.01962537               77.07144032                0.14559951               -0.15685543                0.14108385               -0.02904218                0.17742512               -0.23825998                0.26011764
               4.88142948               -0.00575437               77.07371203                0.23445261               -0.36983566                0.04046120                0.03284672                0.31709220                0.11823315                0.05671853
               5.87877128                0.00052114               77.07652255                0.69191900               -0.15138424               -0.02636076                0.07961154                0.15131518                0.01846800               -0.00075363
               6.87840180                0.00381637               77.07858131                1.00000000               -0.03423578               -0.03326959                0.09569558                0.00985917               -0.01806800               -0.01156132
               7.87808656                0.00691746               77.08096615                0.99999999               -0.03038016               -0.03124335                0.09192692                0.00014381               -0.00086144               -0.00312058
               8.87779420                0.01003157               77.08350592                0.99968888               -0.02812291               -0.03005634                0.08907762               -0.00040269                0.00316749                0.00094201
               9.87752410                0.01321076               77.08605909                1.00000000               -0.02700931               -0.02949040                0.08811123               -0.00508880                0.00214295                0.00160544
              -0.11148364                0.98187962               77.05940646                1.00000000               -0.02609746               -0.01770978                0.08263747                0.00255827               -0.00464980                0.00695195
               0.88825539                0.97667969               77.06306533                0.01000000               -0.02607825               -0.03036391                0.07948695                0.00940816               -0.00520843               -0.00479093
               1.88799480                0.97168016               77.06674254                0.01000000               -0.16041109                0.00409529                0.07132132                0.11195224               -0.03353794                0.04287685
               2.88504717                0.96977341               77.06994805                0.01000000               -0.62351315                0.19051594                0.05271042                0.70468710               -0.17434596                0.19685033
               3.87552453                0.98178547               77.07496643                0.01114254               -0.52600086                0.03102005                0.12320705                1.13891359               -0.01153352                0.21618242
               4.87452715                0.99465025               77.08014045                0.01000000               -0.00127381               -0.32029125                0.02990609                0.90387137                0.03970121               -0.06880842
               5.87549906                1.00025754               77.08147548                0.01000001                0.03875423               -0.28581740                0.10457104                0.41451190               -0.11869154               -0.01392430
               6.87530223                1.00348368               77.08306603                0.51434987               -0.02593306               -0.03357331                0.12591289                0.01362507               -0.05892619               -0.04861995
               7.87498040                1.00660502               77.08542010                1.00000000               -0.03293586               -0.03572608                0.11861460                0.00424114               -0.00681257               -0.00585106
               8.87464352                1.00973101               77.08798523                0.99999999               -0.03431851               -0.03385924                0.11621003                0.00048009                0.00369485                0.00342584
               9.87429403                1.01291586               77.09054538                0.99707896               -0.03494893               -0.03315125                0.11488163               -0.00475102                0.00275078                0.00347369
              -0.10617146                1.98172265               77.06189840                0.46185765               -0.02680167                0.03086277                0.08937332                0.06555679               -0.00126996                0.07774075
               0.89356052                1.97633182               77.06545895                0.01000000               -0.08487467               -0.08554281                0.09127265                0.11934181                0.04348624                0.00089195
               1.89213105                1.97197528               77.06985654                0.01000001               -0.25027498               -0.05445354                0.09856489                0.49710264                0.07012558                0.13865199
               2.88855502                1.97322054               77.07427058                0.01000000               -0.40308134                0.15778481                0.10546340                1.13926891                0.09098784                0.27375894
               3.88406942                1.98099503               77.07888065                0.01000000               -0.37600899               -0.15680393                0.14873156                1.73874218                0.10639148                0.19137470
               4.88103485                1.98783981               77.08317335                0.01000001               -0.29206685               -0.58429693                0.17391954                1.58882385                0.01593965                0.00151376
               5.87822808                1.99480480               77.08591986                0.01104958               -0.43540159               -0.32146175                0.13031372                1.15382262               -0.12405573                0.01657599
               6.87232681                2.00314491               77.08672291                0.01517348               -0.31520176               -0.07966828                0.12284917                0.52202127               -0.06262014                0.00959969
               7.87192405                2.00620294               77.08979015                0.19850292               -0.04169246               -0.03746042                0.14455714               -0.00084546                0.03446620               -0.06598801
               8.87149296                2.00935439               77.09250435                0.99999997               -0.04323297               -0.04171860                0.14505824                0.00360134                0.01105924                0.01098407
               9.87105939                2.01254774               77.09507756                0.99999998               -0.04335748               -0.04146084                0.14075454               -0.00460034                0.00473197                0.00806297
              -0.09939085                2.98249688               77.06554300                0.26897573               -0.02195625                0.18887187                0.07467863                0.33961988               -0.00590865                0.20170768
               0.90038959                2.97496883               77.06812697                0.01000000                0.02194889               -0.34804422                0.11025250                0.54866857                0.16417599                0.04684143
               1.90104813                2.97059109               77.07376030                0.01000000               -0.07883980               -0.22519662                0.12434320                1.08615595                0.19056768                0.23442652
               2.89881279                2.97292910               77.07872245                0.01000000               -0.26840092               -0.07252902                0.13888635                1.57517284                0.13989096                0.23370163
               3.89568011                2.97864939               77.08349290                0.01216904               -0.31594650               -0.26575397                0.15418928                1.68094421                0.09523679                0.18631533
               4.89249386                2.98296431               77.08733415                0.01000000               -0.62048487               -0.28182832                0.16096809                1.84180260                0.01337327                0.10741009
               5.88327041                2.99382830               77.09016301                0.01000000               -0.90746717               -0.11621610                0.18696379                1.84534071               -0.05985988                0.07297113
               6.87434452                3.00189031               77.09220130                0.01000000               -0.72582047               -0.13083900                0.16369138                1.35826832               -0.19987014                0.16888187
               7.86875400                3.00585581               77.09304076                0.01727616               -0.29868885               -0.03979418                0.08857991                0.53706090               -0.02897235                0.08287890
               8.86837074                3.00889664               77.09710199                0.37824823               -0.04693388               -0.04840722                0.18567340                0.00401806                0.08049912                0.06863510
               9.86781533                3.01208664               77.09962340                0.99999998               -0.05554160               -0.04833217                0.17528831               -0.00935086               -0.00061713                0.05880939
              -0.08432297                3.98550009               77.06945308                0.25864401                0.07626555               -0.01074721                0.03380389                0.15356212               -0.09097532                0.01645674
               0.91643968                3.96937094               77.07301801                0.01111285                0.01084355               -0.38747199                0.07667196                0.90898333               -0.02527594                0.42084682
               1.91589390                3.96747135               77.07865139                0.01000000               -0.22197514               -0.22790100                0.14439435                1.58447492                0.09445482                0.23756278
               2.91200018                3.97176996               77.08324819                0.01217357               -0.41203994               -0.15038393                0.15411238                1.67475106                0.06529008                0.19715806
               3.90765310                3.97567995               77.08751387                0.01000000               -0.46540961               -0.33006095                0.16280955                1.84984230                0.04552781                0.15007189
               4.90269199                3.98220324               77.09138549                0.01000000               -0.57221023               -0.13723418                0.17300680                2.16128655                0.04061821                0.12743354
               5.89620890                3.99248047               77.09518605                0.01000000               -0.76136609               -0.13952000                0.18610305                2.45786171                0.01913389                0.12162194
               6.88746467                4.00052813               77.09823709                0.01305851               -1.02749783               -0.16899072                0.21183298                2.30886459               -0.01658207                0.11829842
               7.87565894                4.00540705               77.10011958                0.01378488               -1.10610829               -0.07690418                0.21883591                1.94240251                0.05890727                0.15230521
               8.86534250                4.00838624               77.10273727                0.01000000               -0.55832848               -0.34404129                0.26434388                1.68937279                0.01245182                0.18084599
               9.86449237                4.01158109               77.10516149                0.01000000               -0.08501316               -1.29667527                0.24681109                1.89968206               -0.00586850                0.29539516
              -0.06406131                4.98228193               77.07203900                0.37147301                0.06592998               -0.31947442                0.07689649                0.24334330               -0.05329538                0.18334168
               0.93659799                4.96721939               77.07923228                0.01000000               -0.28000439               -0.08165140               -0.06184837                0.90294340               -0.23573637                0.25764602
               1.93033860                4.96603307               77.08292518                0.01000001               -0.62493902               -0.12707068                0.15790210                1.58531328               -0.13536657                0.16168849
               2.92409921                4.96992142               77.08689146                0.01000000               -0.40474635               -0.45215957                0.15779496                1.82904904               -0.02142607                0.16014873
               3.92224368                4.97204817               77.09129213                0.01000000               -0.25900681               -0.42955602                0.16882552                2.14866316                0.02372841                0.15463270
               4.91891907                4.98021962               77.09577512                0.01000000               -0.40704557               -0.28019586                0.18093800                2.71825946                0.02173908                0.12156758
               5.91410277                4.99103790               77.09973966                0.01327327               -0.56619201               -0.25008083                0.18486228                2.81107962               -0.01170904                0.06340638
               6.90759523                4.99851050               77.10306831                0.01253080               -0.71794145               -0.27672318                0.18848938                2.75812072               -0.01918559                0.02723126
               7.89974394                5.00431773               77.10616819                0.01000000               -0.58055378               -0.27056453                0.19956795                2.73493819               -0.02811659                0.10963447
               8.89598416                5.00201581               77.10948800                0.01000002               -0.01623314               -0.60926317                0.16414102                2.22438883                0.06406170                0.30203791
               9.89941927                4.98615313               77.11442326                0.01000000                0.34351145               -1.75991924                0.16516244                1.62812294                0.09448555                0.60081493
              -0.04933103                5.97911060               77.07466259                0.60111853                0.00784406               -0.21849125                0.06281871                0.15081937               -0.00731784                0.08854966
               0.95074741                5.96773791               77.08152938                0.01000001               -0.28854191                0.04342770                0.01170277                0.53251400               -0.12306973               -0.02009136
               1.94489814                5.96492994               77.08594103                0.01104334               -0.40906778               -0.25834059                0.11855637                1.18734811               -0.13556722                0.03701759
               2.94256606                5.96272677               77.09052918                0.01000000               -0.22849861               -0.73182381                0.15970514                1.82417834               -0.07504501                0.13422659
               3.94032816                5.96708883               77.09513222                0.01000000               -0.22493047               -0.61247024                0.18007996                2.39647162               -0.04592823                0.13044009
               4.93806745                5.97659933               77.09953361                0.01327248               -0.30942736               -0.47578849                0.18084335                2.78986051               -0.05028493                0.06721718
               5.93413962                5.98747886               77.10368491                0.01277794               -0.43600991               -0.42133849                0.18016333                2.77550048               -0.05412757                0.02765159
               6.92934725                5.99499366               77.10777279                0.01000000               -0.36436149               -0.32035530                0.17721574                2.72979509               -0.06766458                0.02595244
               7.92685239                5.99999576               77.11181989                0.01000002               -0.06761884               -0.36223042                0.15693602                2.54984975               -0.05789837                0.13130575
               8.92799487                5.99620098               77.11686800                0.01000001                0.09638989               -0.36015619                0.07352034                1.56372837               -0.13164213                0.27703717
               9.92878018                5.97638271               77.12245157                0.01000000                0.07853094               -0.45609974                0.06817481                0.58244373               -0.12760632                0.48739939
              -0.03829954                6.97791211               77.07586202                1.00000000               -0.02715238               -0.08208580                0.09342306                0.05599827               -0.00838918                0.00862031
               0.96142893                6.96808795               77.08218731                0.01296098               -0.13018753                0.00788089                0.09461976                0.16750229               -0.05043602               -0.07791365
               1.95909670                6.96086626               77.08757568                0.01515823               -0.15025254               -0.31746850                0.12520217                0.65647064               -0.07594431                0.00125081
               2.95842388                6.95528495               77.09308946                0.01000000               -0.13980753               -0.55937860                0.17419052                1.22812068               -0.05695180                0.05098999
               3.95630055                6.95979877               77.09814180                0.01307853               -0.20488097               -0.94394592                0.20264549                2.19915792               -0.08189215                0.08857528
               4.95432626                6.97070385               77.10271426                0.01251769               -0.25410580               -0.66179352                0.18076347                2.66821056               -0.10008391                0.05763515
               5.95121844                6.98261113               77.10747061                0.01000000               -0.23260141               -0.42315559                0.17396413                2.66907460               -0.08092793                0.00668617
               6.94967423                6.99210339               77.11234513                0.01000002               -0.08424128               -0.27361743                0.16787131                2.58716289               -0.06586235                0.02812716
               7.94953361                6.99707312               77.11769646                0.01000001                0.05987736               -0.13551235                0.10091326                2.33980915               -0.19738934                0.12406450
               8.95087178                6.99481269               77.12226889                0.01760707                0.05855416               -0.12111779                0.09145515                1.11530569               -0.10998807                0.15754335
               9.95070470                6.97703114               77.12774745                0.01000003               -0.01670847                0.20801965                0.09492311                0.20236151                0.02509894                0.16548309
              -0.02856274                7.97746888               77.07736993                0.99999999               -0.02939510               -0.04216013                0.10094124                0.00481166               -0.00822302                0.01674458
               0.97114331                7.96789553               77.08335942                0.99612222               -0.03033559               -0.02520093                0.11002380                0.01359448               -0.01856912               -0.02787492
               1.97083055                7.95858057               77.08912060                0.01000000               -0.14736736               -0.13464303                0.12239164                0.23496944               -0.02592575               -0.01294679
               2.96819596                7.95153920               77.09486316                0.01727816               -0.09690671               -0.32653055                0.14826446                0.54161310               -0.04042145                0.02397859
               3.96889242                7.94820992               77.10053511                0.01378602                0.02116674               -1.02758540                0.20969372                1.73724818               -0.06894347                0.16415361
               4.96861930                7.96336345               77.10582813                0.01000000               -0.13854216               -0.57328565                0.16572137                2.61076266               -0.07405988                0.04505157
               5.96612157                7.97901575               77.11101427                0.01000002               -0.09953898               -0.22782492                0.15882907                2.45875521               -0.03601097               -0.01093055
               6.96662852                7.98952131               77.11688977                0.01000001                0.24088492               -0.24846741                0.10761863                2.18260290               -0.03175716               -0.07426026
               7.97093927                7.99728551               77.12307981                0.01761061                0.18572270               -0.07432030                0.08158538                1.62888601                0.05603320                0.05543743
               8.97034297                7.99377862               77.12778210                0.01000001               -0.12743791               -0.11325461                0.11169922                0.77543175               -0.10373183                0.20896361
               9.96839051                7.98054310               77.13168099                0.01000002               -0.19524599                0.70232201                0.09730302                0.27272760               -0.20368718                0.03963492
              -0.01905660                8.97706891               77.07898287                0.99999999               -0.03542620               -0.03823839                0.10992471                0.00097785               -0.00559231                0.01328860
               0.98058914                8.96758393               77.08485544                0.99999999               -0.03954876               -0.03422936                0.12282278               -0.00045835               -0.00731973               -0.00478290
               1.98015242                8.95817340               77.09073825                0.97835071               -0.04811706               -0.04043046                0.13792481               -0.00623885                0.00270129               -0.00609877
               2.97962679                8.94875434               77.09687471                0.85778206               -0.04655805               -0.15602340                0.13209215                0.09324778                0.02803506                0.00726851
               3.97922126                8.93924706               77.10343441                0.01000000               -0.19455551               -0.44972048                0.03318869                1.50766233               -0.03953586                0.06204983
               4.97573568                8.95923814               77.10880912                0.01000002               -0.24927887               -0.14098819                0.15026699                2.08558225               -0.01077516                0.06970743
               5.97423568                8.97805463               77.11461263                0.01000001               -0.03395806               -0.07846199                0.09439926                1.46645858                0.03523779               -0.06261808
               6.97505652                8.98713404               77.12045910                0.01581595                0.18091687               -0.16767678                0.12489146                1.01036270                0.18890664               -0.07929898
               7.97785402                8.99558672               77.12659505                0.01000001                0.40331530               -0.28724904                0.10895761                0.35702853                0.28183724               -0.07050298
               8.98312283                8.99254760               77.13432458                1.00000000                0.23881382               -0.08506234                0.14489164                0.49288302                0.15407649                0.20487445
               9.98263030                8.99107758               77.13880709                1.00000000               -0.04925317                0.49625486                0.18669407                0.63960122               -0.00846099                0.21732393
              -0.00957323                9.97670411               77.08058454                1.00000000               -0.03971210               -0.03647935                0.12152386               -0.00097993                0.00178653                0.00839150
               0.99002965                9.96721094               77.08644707                0.99999999               -0.04457031               -0.03729905                0.13472833               -0.00255621                0.00029313                0.00060937
               1.98953537                9.95777196               77.09236225                0.99264388               -0.05211973               -0.04014410                0.14991535               -0.00131609                0.01241352               -0.00010584
               2.98898726                9.94841873               77.09859505                0.99999999               -0.04867544               -0.03356063                0.13782586                0.00822360                0.03850467                0.00827055
               3.98856186                9.93921551               77.10517771                0.01137573               -0.87319432               -0.00315552                0.03736317                1.54030764                0.04975884               -0.00720088
               4.97152337                9.96054369               77.11226157                0.01000000               -1.05035070                0.13055500                0.12930529                1.49031859                0.21166643                0.07415795
               5.96755484                9.97744651               77.11886550                0.01000001               -0.11098406               -0.06081276                0.08430966                0.61312028                0.21182611               -0.12126404
               6.96930369                9.98616778               77.12454709                0.01000000                0.25557215               -0.09662637                0.14659960                0.12941791                0.24886610                0.01035132
               7.97266629                9.99154053               77.12987458                0.01000000                0.77030406               -0.40461840                0.19156238               -0.22329349                0.13471793               -0.04851727
               8.98470977                9.99207738               77.13693667                1.00000000                0.57281420               -0.04702179                0.17337227                0.10507730                0.13673748                0.00770555
               9.98412257                9.99046820               77.14141915                0.99519896               -0.05872001               -0.06093821                0.21516023               -0.01169083                0.00778989               -0.00784770
              -0.12029223               -0.02038135               78.05778340                0.99762900               -0.01770177               -0.01717621                0.07894119               -0.00048691                0.00406356               -0.00496476
               0.87953075               -0.02548863               78.06144983                0.96822796               -0.01385348               -0.02880197                0.07472561                0.00068428                0.01097153               -0.00330479
               1.87943070               -0.03036108               78.06519349                0.33855879                0.09851506               -0.01815302                0.07326585                0.17847592                0.08367420                0.00313742
               2.88150105               -0.03139835               78.07010272                0.26247246                0.16368468                0.04123743               -0.00824241                0.20973973                0.02951667               -0.04104887
               3.88270439               -0.02358975               78.07240023                0.24694469               -0.10882628                0.09885752                0.07099663                0.13752346               -0.12750392               -0.06791243
               4.87932453               -0.01156609               78.07454170                0.35979929               -0.30607726                0.04805079                0.08035831                0.23088688                0.00912981                0.00604181
               5.87658285               -0.00460222               78.07725435                0.81127829               -0.16426765               -0.01633861                0.07343962                0.15921813                0.01732637               -0.00386763
               6.87603917               -0.00094067               78.07950574                0.99967716               -0.04779583               -0.02786178                0.09134860                0.01543222               -0.00970886               -0.00736418
               7.87562693                0.00229414               78.08188682                0.99999999               -0.03816119               -0.02944652                0.09335609                0.00167090               -0.00499133               -0.00272908
               8.87527595                0.00541423               78.08440344                0.99999998               -0.03219999               -0.02980812                0.09167267               -0.00047451               -0.00180022               -0.00143156
               9.87498293                0.00857601               78.08695759                1.00000000               -0.02930187               -0.03056706                0.09309459               -0.00505800               -0.00263039               -0.00581949
              -0.11518983                0.97944688               78.06022953                1.00000000               -0.02827167               -0.01190382                0.08243151                0.00407138               -0.00676939                0.00114564
               0.88452745                0.97422335               78.06385290                0.01000000               -0.03199245               -0.03746097                0.07827157                0.02434921               -0.01147591               -0.00004310
               1.88417032                0.96945739               78.06743265                0.01000000               -0.21573334                0.01578286                0.06910629                0.19159311               -0.02664974                0.07318939
               2.88021279                0.96901402               78.07099655                0.01000000               -0.50034136                0.13241318                0.10677374                0.58335456               -0.01364736                0.14126690
               3.87416349                0.97739882               78.07550050                0.01135416               -0.40365779                0.07813158                0.06573427                0.88606014                0.28271601               -0.00599073
               4.87213963                0.98891442               78.08007977                0.01000000               -0.06505876               -0.23791150                0.00382995                0.82518399                0.09700714               -0.05141521
               5.87286232                0.99523439               78.08231475                0.01000001                0.03028412               -0.24986101                0.07345474                0.43367006               -0.05329755               -0.00871107
               6.87274531                0.99878071               78.08427651                0.40541841               -0.01980642               -0.02538188                0.11242076                0.02538536               -0.04309907               -0.05846423
               7.87246619                1.00199967               78.08659996                1.00000000               -0.03075219               -0.03472622                0.11623113                0.00535730               -0.00929555               -0.00481125
               8.87213027                1.00511615               78.08914439                0.99999999               -0.03478105               -0.03244343                0.11619818               -0.00090340                0.00269375                0.00129534
               9.87177057                1.00827034               78.09170066                0.99745483               -0.03597003               -0.03244607                0.11759785               -0.00523764                0.00287589               -0.00586390
              -0.10976375                1.97938057               78.06275362                0.51822099               -0.02290299                0.04354264                0.08306657                0.07886739               -0.00196183                0.04566104
               0.89000722                1.97376215               78.06636771                0.01000000               -0.08821799               -0.11835590                0.08898468                0.18191806                0.05258481                0.01982822
               1.88847189                1.96995458               78.07100231                0.01000001               -0.23902553               -0.04383532                0.11181959                0.54377354                0.10196386                0.17037759
               2.88522671                1.97124991               78.07560459                0.01000000               -0.39733487                0.08770872                0.12535827                1.15470369                0.15172684                0.23222575
               3.88052520                1.97797288               78.08051531                0.01000000               -0.36170370               -0.07131321                0.12713603                1.53515534                0.11643436                0.14700876
               4.87799264                1.98367568               78.08439826                0.01000001               -0.25676206               -0.46181818                0.10216296                1.48231347                0.04666818                0.02312778
               5.87538995                1.99040056               78.08715519                0.01096270               -0.41055217               -0.27211705                0.11581824                1.13048055               -0.09421750                0.04376737
               6.86978160                1.99855169               78.08794054                0.01496420               -0.29956566               -0.07797127                0.12547368                0.51630631               -0.04903758                0.00600476
               7.86939864                2.00159962               78.09123738                0.09505715               -0.03971890               -0.02823733                0.14219770               -0.01403746                0.05081300               -0.11122542
               8.86898722                2.00476536               78.09394531                0.98864009               -0.04144239               -0.03891671                0.14035452                0.00772971                0.01454147                0.01745901
               9.86856979                2.00792709               78.09647504                1.00000000               -0.04174236               -0.03977891                0.13689610               -0.00541121                0.00622318                0.00242319
              -0.10237565                2.98031774               78.06594892                0.32639800               -0.00325446                0.13798869                0.04217729                0.20675661               -0.00082259                0.09260435
               0.89759180                2.97185624               78.06933941                0.01000000               -0.00331551               -0.32979456                0.11083850                0.50936759                0.12377123                0.10925373
               1.89755804                2.96858069               78.07502992                0.01000000               -0.11516199               -0.21915609                0.12167894                1.09011216                0.17569078                0.23013045
               2.89528856                2.97076820               78.08013635                0.01000000               -0.25586033               -0.08018432                0.13245089                1.50950848                0.14700668                0.22790589
               3.89244083                2.97597256               78.08500750                0.01221671               -0.29651690               -0.23932280                0.14096351                1.61918607                0.11888402                0.14798306
               4.88935822                2.97967806               78.08894523                0.01000000               -0.59224554               -0.22755829                0.14605833                1.75849102                0.04821637                0.09268154
               5.88059592                2.98979205               78.09204389                0.01000000               -0.87429220               -0.08701706                0.16581375                1.76902863               -0.00107365                0.08625328
               6.87187238                2.99722129               78.09382271                0.01000000               -0.73120723               -0.12390004                0.19663455                1.35951648               -0.11261795                0.15657687
               7.86597177                3.00143493               78.09378939                0.01000001               -0.29574939               -0.11361688                0.07810168                0.67032350               -0.01248950                0.11339560
               8.86595739                3.00433781               78.09899887                0.46601642               -0.03164428               -0.04399058                0.19207900                0.00586058                0.14267934                0.10364150
               9.86533889                3.00747476               78.10140130                0.99999997               -0.06185037               -0.04793018                0.18163643               -0.00904892                0.00314361                0.07847313
              -0.08870561                3.98214034               78.06945026                0.28762544                0.06372385               -0.00594774                0.00992218                0.09196036               -0.01515590                0.03400368
               0.91193162                3.96716626               78.07399861                0.01136590                0.00338964               -0.33270872                0.08061647                0.78464922                0.03035735                0.29327046
               1.91136218                3.96557146               78.07971915                0.01000000               -0.19533064               -0.21678053                0.09897408                1.46945409                0.08598748                0.23456906
               2.90802501                3.96964622               78.08473867                0.01221747               -0.36815603               -0.14514854                0.13480200                1.59285466                0.06888011                0.19729030
               3.90399906                3.97318642               78.08913475                0.01000000               -0.43410207               -0.31074814                0.14966531                1.75033966                0.05391258                0.13864789
               4.89934297                3.97912452               78.09311659                0.01000000               -0.53858803               -0.12018247                0.16341181                2.05245302                0.06990898                0.11541870
               5.89322730                3.98866021               78.09709330                0.01000000               -0.70069615               -0.12470831                0.18244009                2.33988494                0.08356597                0.08992461
               6.88532905                3.99607369               78.10041837                0.01332864               -0.87693553               -0.17824001                0.19475719                2.16043424                0.10264151                0.10585079
               7.87568859                3.99932728               78.10265847                0.01429838               -1.11322245               -0.10824148                0.20302359                1.90673519                0.36694373                0.07287202
               8.86306460                4.00388555               78.10540542                0.01000000               -0.67868329               -0.31325126                0.23993956                1.72593377                0.00978727                0.15604955
               9.86211492                4.00696848               78.10765644                0.01000000               -0.09496773               -1.18419468                0.22870860                1.81918308                0.01741242                0.25346393
              -0.07058829                4.98019878               78.07289166                0.37987089                0.04419567               -0.22858212                0.06991924                0.14203225               -0.00365953                0.08586652
               0.92985367                4.96520206               78.07905476                0.01000000               -0.24722774               -0.05529984               -0.00858424                0.81191116               -0.09244436                0.18760338
               1.92446716                4.96424508               78.08371663                0.01000001               -0.51614891               -0.11996036                0.07102165                1.51423066               -0.08886563                0.17334591
               2.91953069                4.96786522               78.08844569                0.01000000               -0.32489132               -0.42740998                0.13617142                1.72520343               -0.00001589                0.15688762
               3.91796933                4.96975760               78.09295087                0.01000000               -0.22985987               -0.40715076                0.15624752                2.03454529                0.03187924                0.15556324
               4.91493349                4.97727441               78.09762209                0.01000000               -0.37624448               -0.26412418                0.17917226                2.57219256                0.04375593                0.11632780
               5.91044444                4.98729788               78.10166679                0.01364994               -0.52597458               -0.24442645                0.19346977                2.62957588                0.01694090                0.04753036
               6.90441400                4.99365649               78.10502120                0.01306460               -0.70749098               -0.27947570                0.19390490                2.56503342                0.02335514               -0.03730064
               7.89629462                4.99927010               78.10815258                0.01000000               -0.57895699               -0.19363780                0.19034281                2.51368744               -0.04002025                0.03590271
               8.89283486                4.99807279               78.11110747                0.01000002               -0.03689721               -0.57371952                0.16702177                2.11745519                0.10180838                0.24252214
               9.89555668                4.98379087               78.11576345                0.01000002                0.27218158               -1.55856863                0.11691008                1.54115319                0.12917029                0.46089078
              -0.05587153                5.97756870               78.07535627                0.69332284               -0.00049179               -0.18283732                0.07037925                0.14388340                0.00128928                0.01784437
               0.94412355                5.96606027               78.08160635                0.01000001               -0.25724201                0.05751693                0.01771571                0.54132359               -0.05387622                0.02707498
               1.93898363                5.96317225               78.08693348                0.01095990               -0.35534955               -0.21711882                0.08497513                1.13979099               -0.05830602                0.07356031
               2.93701656                5.96109802               78.09203243                0.01000000               -0.18514235               -0.70267700                0.13245310                1.73813537               -0.04827830                0.15101638
               3.93528078                5.96504341               78.09692022                0.01000000               -0.18850127               -0.56123578                0.16484646                2.26516020               -0.03265112                0.16029558
               4.93324653                5.97384203               78.10141280                0.01364047               -0.29220236               -0.44630836                0.18732789                2.60867889               -0.04168519                0.07400745
               5.92943673                5.98377169               78.10556730                0.01340184               -0.42945174               -0.41610889                0.19186687                2.58564224               -0.05025712                0.00925313
               6.92465750                5.99048418               78.10961636                0.01000000               -0.39453500               -0.30314108                0.18722506                2.55329204               -0.05580496                0.00538226
               7.92154603                5.99545452               78.11354784                0.01000002               -0.18822829               -0.30177340                0.17746390                2.48258045               -0.07858828                0.07814420
               8.92089293                5.99241116               78.11795513                0.01000001               -0.00221044               -0.42812829                0.13597249                1.64586399               -0.10489728                0.25761875
               9.92150183                5.97579711               78.12351687                0.01000000                0.06088919               -0.45509687                0.08263163                0.84332091               -0.06645455                0.48474195
              -0.04469375                6.97654204               78.07680470                0.99999999               -0.02296594               -0.07908480                0.09489676                0.04106234               -0.00564927               -0.00343404
               0.95507659                6.96635240               78.08300974                0.01000001               -0.15405141                0.00849649                0.07711404                0.21420007               -0.02818514               -0.03815203
               1.95222522                6.95990270               78.08873005                0.01496517               -0.13271732               -0.31808957                0.10827305                0.66198678               -0.06472132                0.05308617
               2.95242224                6.95381168               78.09470488                0.01000000               -0.08483461               -0.52997909                0.13383500                1.17596241               -0.01463647                0.08563247
               3.95052853                6.95853288               78.10020307                0.01333997               -0.20217240               -0.79349995                0.17580673                2.06357428               -0.08081871                0.17794160
               4.94837879                6.96834824               78.10453455                0.01306990               -0.25066934               -0.65324144                0.17516689                2.48394279               -0.14536932                0.07556543
               5.94551514                6.97897571               78.10926394                0.01000000               -0.22908935               -0.42531867                0.18116870                2.50015899               -0.08175548               -0.00574515
               6.94379701                6.98759366               78.11419011                0.01000002               -0.07479448               -0.25766553                0.18286116                2.52444474               -0.09318948               -0.03722457
               7.94401925                6.99323463               78.11902845                0.01000001                0.08062729               -0.14639554                0.14524946                2.24909292               -0.07940149                0.09633600
               8.94540955                6.98951022               78.12344483                0.01000001                0.08159686               -0.17563139                0.16733587                1.21907324               -0.14584054                0.13686446
               9.94565119                6.97468893               78.12844223                0.01000000                0.02416356               -0.00148916                0.17806698                0.52461684               -0.16747276                0.31928331
              -0.03467102                7.97598700               78.07842015                1.00000000               -0.02820978               -0.05146626                0.10772795                0.00682728               -0.00655291                0.00442850
               0.96504689                7.96623020               78.08443139                1.00000000               -0.02824519               -0.02100231                0.10484497                0.01671468               -0.01400014               -0.02074895
               1.96476408                7.95681046               78.09027777                0.01000000               -0.15706293               -0.17275109                0.10969966                0.31054024               -0.01006009               -0.01605305
               2.96190563                7.95049844               78.09632170                0.01000001               -0.13741838               -0.33996470                0.12035859                0.68353212               -0.01396000                0.11831764
               3.96201571                7.94917341               78.10249022                0.01430543                0.02884692               -1.04678320                0.12776574                1.65570533               -0.16705023                0.38174925
               4.96248257                7.96077720               78.10744368                0.01000000               -0.09106121               -0.56187958                0.15747719                2.37987170               -0.11087212                0.00821142
               5.96019449                7.97526531               78.11264780                0.01000002               -0.07975485               -0.28659603                0.16136273                2.36150004               -0.07644043               -0.03620665
               6.96088747                7.98533087               78.11799710                0.01000001                0.22084239               -0.20064700                0.13637135                2.17864610               -0.05649910               -0.03386909
               7.96461134                7.99252661               78.12358648                0.01000001                0.14663155               -0.17545494                0.13364403                1.57824445               -0.19762943               -0.13595573
               8.96382010                7.98889853               78.12883434                0.01071496               -0.14872946                0.01834073                0.23037782                0.80900128               -0.06664765                0.30767831
               9.96163675                7.97576733               78.13393459                0.01000002               -0.21833532                0.67755675                0.32126510                0.29703061               -0.04984438                0.47216855
              -0.02504359                8.97551271               78.08013442                0.99999998               -0.03689842               -0.04393060                0.11825294                0.00092133               -0.00351146                0.00580215
               0.97458743                8.96593235               78.08608742                0.99999999               -0.03943155               -0.03340142                0.12196891               -0.00157046               -0.00269317               -0.00413512
               1.97416778                8.95644768               78.09206557                0.99999998               -0.04287447               -0.03655607                0.12588405               -0.00422431                0.00546216               -0.00111284
               2.97372994                8.94701239               78.09812167                0.83537311               -0.04019526               -0.19177949                0.12051893                0.11857225                0.01709930                0.00026644
               3.97336387                8.93759722               78.10415230                0.01000000               -0.19228054               -0.59331995                0.09226162                1.54073481                0.00568509                0.00014428
               4.96988433                8.95711065               78.10992168                0.01000002               -0.25861978               -0.13546738                0.12453856                1.98488988                0.02808483                0.08945477
               5.96819148                8.97324378               78.11592577                0.01000001                0.01121528               -0.18566278                0.13662887                1.48905928                0.02120459               -0.06844792
               6.97010863                8.98358072               78.12188420                0.01740644                0.19125000               -0.12489848                0.10354400                1.12848151                0.00237851                0.02515389
               7.97201648                8.98972553               78.12711767                0.01000001                0.41201155               -0.28413968                0.11261262                0.50122556                0.10911020               -0.16668701
               8.97834886                8.98987704               78.13578415                0.99841126                0.29188633                0.02505227                0.14728043                0.73954270                0.18087915                0.21115285
               9.97785420                8.98824006               78.14066680                0.99993405               -0.04946575                0.59337437                0.18560895                0.72988590               -0.00852284                0.18353950
              -0.01549188                9.97510839               78.08186655                1.00000000               -0.04276131               -0.04043173                0.13220914                0.00054869                0.00108843                0.00393267
               0.98408051                9.96556217               78.08781573                0.99999999               -0.04542815               -0.03701866                0.13684019               -0.00214438                0.00337787               -0.00024291
               1.98359956                9.95607934               78.09383655                0.99999999               -0.04764868               -0.03683391                0.14021645               -0.00178784                0.01319465                0.00061063
               2.98312753                9.94666285               78.09991994                0.99999998               -0.04337030               -0.03495381                0.12931306                0.00114338                0.02120986               -0.00076720
               3.98273215                9.93730701               78.10596094                0.01000000               -0.82968690               -0.02902065                0.09967389                1.50707800                0.07186620               -0.00889043
               4.96653380                9.95806786               78.11301600                0.01000000               -0.96132776                0.09572081                0.08616380                1.37719943                0.14629920                0.09027178
               5.96350560                9.97155206               78.11999300                0.01000001                0.02207780               -0.16917276                0.10345697                0.76966399                0.18423866               -0.06662806
               6.96697535                9.98283290               78.12624573                0.01000000                0.24169698               -0.07478274                0.12330447                0.45126016                0.21357559                0.03696459
               7.96833954                9.98684382               78.13198817                0.01000000                0.65605349               -0.28817144                0.15121615               -0.03936026                0.19960653               -0.02609147
               8.98009642                9.98939957               78.13867814                0.99992010                0.55844363               -0.04774610                0.17526855                0.21430593                0.09813987                0.00764781
               9.97950841                9.98763481               78.14356077                0.99513763               -0.05880133               -0.06052488                0.21359900               -0.01105551                0.00770783               -0.00794146
              -0.12387408               -0.02291471               79.05858472                0.99952366               -0.01436773               -0.01529811                0.08074006               -0.00101237                0.00779952               -0.00777742
               0.87598224               -0.02793314               79.06219314                0.96860721               -0.00598046               -0.03059120                0.07343888                0.00367666                0.01480898               -0.00060570
               1.87600631               -0.03252219               79.06588856                0.42460474                0.09839712               -0.01426796                0.06502587                0.16792093                0.05043697                0.00467399
               2.87795018               -0.03319841               79.07001721                0.33594988                0.15863102                0.02952882                0.00196529                0.14251942               -0.01264297               -0.00887764
               3.87917893               -0.02718416               79.07286025                0.28011830               -0.05961160                0.07347416                0.04039219                0.11610649               -0.09051319               -0.03051283
               4.87675795               -0.01670968               79.07531920                0.38744189               -0.25125844                0.04750608                0.07179146                0.16486671               -0.01057062               -0.00666378
               5.87415376               -0.00967701               79.07799134                0.88603828               -0.15913967               -0.01405117                0.07473599                0.15012267               -0.00454669               -0.00088529
               6.87357516               -0.00587245               79.08040829                0.99954297               -0.05323613               -0.02479548                0.09070090                0.01366783               -0.01566800               -0.00362657
               7.87308904               -0.00256342               79.08283327                1.00000000               -0.04438723               -0.02783523                0.09590215                0.00342990               -0.01542445               -0.00207222
               8.87268741                0.00052103               79.08533937                0.99999999               -0.03629281               -0.03059823                0.09653218               -0.00049049               -0.01115777               -0.00314936
               9.87236318                0.00360822               79.08792098                1.00000000               -0.03242315               -0.03270989                0.10114457               -0.00369804               -0.01006148               -0.01301424
              -0.11886577                0.97693231               79.06105509                1.00000000               -0.03114760               -0.00844064                0.08275427                0.00462453               -0.00635136               -0.00471064
               0.88082275                0.97176095               79.06463076                0.01000000               -0.04080362               -0.04124937                0.07703871                0.03920551               -0.01254300                0.00698087
               1.88031815                0.96733513               79.06812466                0.01000000               -0.20581934                0.01538765                0.06971488                0.21315333               -0.00423104                0.09410123
               2.87670636                0.96709688               79.07208352                0.01000000               -0.41112626                0.09618354                0.09446169                0.51709156                0.07892640                0.11056782
               3.87209563                0.97355058               79.07628111                0.01162659               -0.35266618                0.08061857                0.07106949                0.75470050                0.19083341                0.03331513
               4.86965304                0.98376538               79.08021705                0.01000000               -0.09296282               -0.19267078                0.02343420                0.76011401                0.08015389               -0.00204187
               5.87023637                0.99018248               79.08294457                0.01000001                0.02510012               -0.21859914                0.06127911                0.43809561               -0.00851441                0.01632671
               6.87015504                0.99387960               79.08531445                0.31943001               -0.01548857               -0.02043786                0.09678027                0.03322271               -0.02214316               -0.05118532
               7.86992660                0.99715823               79.08774472                0.99516297               -0.02791771               -0.03237917                0.11213895                0.00909705               -0.00806789               -0.00200847
               8.86959669                1.00021504               79.09030920                0.99999999               -0.03437987               -0.03359678                0.11609862               -0.00091933                0.00100090               -0.00263104
               9.86923900                1.00328113               79.09289734                0.99853520               -0.03576846               -0.03563325                0.12059238               -0.00533182                0.00256602               -0.01848546
              -0.11343887                1.97691648               79.06355973                0.54847933               -0.01975988                0.03600099                0.08092168                0.06641341               -0.00144023                0.01609700
               0.88636354                1.97124187               79.06723865                0.01000000               -0.08138436               -0.11189722                0.08332896                0.19151707                0.05937441                0.03802038
               1.88493345                1.96778556               79.07209293                0.01000001               -0.21434850               -0.04291346                0.09935645                0.54651235                0.12475092                0.17994530
               2.88207657                1.96872526               79.07677774                0.01000000               -0.36645056                0.06281285                0.10398142                1.08558147                0.15170006                0.19924040
               3.87760444                1.97442821               79.08142337                0.01000000               -0.33741186               -0.02804860                0.08190881                1.39324609                0.12755062                0.14829923
               4.87532833                1.97943691               79.08521661                0.01000001               -0.24014885               -0.38328882                0.07451617                1.41457861                0.07116479                0.08002067
               5.87280146                1.98595101               79.08823622                0.01087723               -0.40322316               -0.22836135                0.09887397                1.12084883               -0.05394943                0.08709011
               6.86726386                1.99371880               79.08923238                0.01475971               -0.29329621               -0.06677931                0.13231002                0.55148013               -0.03184177                0.05211639
               7.86693553                1.99678900               79.09263410                0.01015684               -0.03588661               -0.02277973                0.13320604               -0.02341249                0.05734057               -0.14517168
               8.86654613                1.99984909               79.09531144                0.95208829               -0.04055758               -0.03528421                0.13730304                0.00611432                0.01443261                0.02836010
               9.86612438                2.00289556               79.09781548                0.99778158               -0.04217498               -0.04032078                0.13977195               -0.00363649                0.00774573               -0.00052063
              -0.10618829                2.97765233               79.06638654                0.33167331               -0.00276961                0.11604710                0.05441895                0.17287068               -0.00048052                0.03572859
               0.89378401                2.96952300               79.07034374                0.01000000               -0.00233466               -0.28604377                0.08771755                0.46194655                0.09136644                0.14758734
               1.89376501                2.96647686               79.07619387                0.01000000               -0.10043326               -0.21547682                0.10235423                1.03851375                0.16340588                0.21092227
               2.89177535                2.96835313               79.08137147                0.01000000               -0.22580543               -0.06594202                0.10882037                1.41991817                0.15332907                0.20661900
               3.88924891                2.97298961               79.08631217                0.01230976               -0.26767684               -0.19593313                0.11373019                1.52477345                0.12717304                0.14684687
               4.88642181                2.97609961               79.09025532                0.01000000               -0.54387226               -0.18010742                0.11515630                1.67144726                0.06900863                0.10971823
               5.87837146                2.98561526               79.09347929                0.01000000               -0.80375759               -0.06474734                0.13222370                1.71106915                0.07302908                0.10636700
               6.87034666                2.99254401               79.09613399                0.01000000               -0.75217016               -0.11360723                0.17240857                1.38879184               -0.05580225                0.19720483
               7.86332806                2.99670264               79.09460279                0.01000000               -0.33671210               -0.21438468                0.22549192                0.90202900                0.26346928               -0.05920671
               8.86361241                2.99950936               79.10094357                0.86428467               -0.01273603               -0.02252263                0.16767625               -0.01168870                0.19744920                0.10604982
               9.86307334                3.00247471               79.10325613                0.99999997               -0.05390789               -0.03036694                0.16237040                0.00724492                0.00862387                0.07446899
              -0.09372280                3.97923742               79.06965152                0.26667523                0.05007379                0.02204631                0.03219059                0.11473666               -0.01076608                0.07238466
               0.90677794                3.96552100               79.07463034                0.01158753                0.02981952               -0.30796371                0.05234220                0.71893615                0.02563827                0.27474577
               1.90687359                3.96347602               79.08063087                0.01000000               -0.14078788               -0.20955999                0.07986272                1.36453851                0.11266706                0.19016441
               2.90396218                3.96740642               79.08594423                0.01229653               -0.32600788               -0.12938573                0.10715470                1.50614146                0.08971785                0.17911212
               3.90035343                3.97050954               79.09050718                0.01000000               -0.39152785               -0.28078151                0.12154374                1.64421483                0.07277503                0.12882821
               4.89613162                3.97583476               79.09465372                0.01000000               -0.48874986               -0.09248166                0.13814640                1.94014937                0.09828331                0.11980643
               5.89057844                3.98465606               79.09883485                0.01000000               -0.60896513               -0.10503749                0.16133861                2.21414521                0.11450531                0.10730934
               6.88395232                3.99144665               79.10213223                0.01368315               -0.62838347               -0.19887568                0.16012011                1.95375668                0.10182923                0.06546195
               7.87801077                3.99250131               79.10418005                0.01495710               -1.17060184               -0.12781075                0.16886114                1.87405982                0.23336330                0.19323059
               8.86054028                3.99939864               79.10753606                0.01000002               -0.88360931               -0.25964070                0.13082136                1.82919740                0.04312359                0.09028140
               9.86033858                4.00228822               79.10973566                0.01000000               -0.02017041               -1.14820952                0.12862044                1.76982705                0.02289747                0.15738867
              -0.07646071                4.97809326               79.07343739                0.33458097                0.03848442               -0.18414914                0.05119511                0.12291742               -0.01123079                0.11040134
               0.92392413                4.96336373               79.07906060                0.01000000               -0.21844628               -0.05982835                0.01198916                0.77535699               -0.03257313                0.17509256
               1.91917036                4.96228566               79.08434561                0.01000001               -0.45297390               -0.10441474                0.05719856                1.44170175                0.00775591                0.14501945
               2.91486465                4.96576542               79.08961489                0.01000000               -0.27327486               -0.39592516                0.10486194                1.63699481                0.04390788                0.14312794
               3.91370486                4.96737398               79.09441708                0.01000000               -0.18931881               -0.37334997                0.13115488                1.92129459                0.06550441                0.14995317
               4.91107828                4.97424997               79.09935856                0.01000000               -0.33311966               -0.23338710                0.16049592                2.42977838                0.08297951                0.12835825
               5.90704247                4.98351451               79.10360905                0.01410775               -0.47508637               -0.22946489                0.19089330                2.43345031                0.05207564                0.05815728
               6.90157655                4.98856650               79.10694641                0.01377243               -0.70926022               -0.27571234                0.19487719                2.34651050                0.03126976               -0.00821469
               7.89285727                4.99414642               79.10997505                0.01000000               -0.55835506               -0.09092694                0.17426725                2.23405650                0.00606846                0.05676005
               8.89040945                4.99431655               79.11282843                0.01170074               -0.00832774               -0.51913212                0.17822972                2.03758582                0.10732190                0.16010677
               9.89269071                4.97951052               79.11676146                0.01000000                0.22812633               -1.44447231                0.10338414                1.31884910                0.14738554                0.18466741
              -0.06180540                5.97555444               79.07607017                0.73164582               -0.01019263               -0.16568528                0.07381781                0.15890456                0.00653333                0.00302441
               0.93809268                5.96432443               79.08188369                0.01000001               -0.24443338                0.05680669                0.03870869                0.54245239               -0.00416659                0.05332611
               1.93330593                5.96138773               79.08764053                0.01087249               -0.32394583               -0.18509791                0.06779829                1.10501356                0.01175930                0.07933172
               2.93161376                5.95948792               79.09317825                0.01000000               -0.15055814               -0.65285467                0.10155172                1.67241451                0.01461212                0.13182947
               3.93029477                5.96304255               79.09842915                0.01000000               -0.15135491               -0.47931895                0.14071635                2.14143703                0.01851852                0.15509488
               4.92858666                5.97116702               79.10328017                0.01412360               -0.26819275               -0.40328457                0.18335606                2.41519747                0.00229751                0.07829799
               5.92493092                5.98006677               79.10752225                0.01420263               -0.41680228               -0.40493868                0.19608814                2.38253448               -0.01565595                0.01861226
               6.92025062                5.98593240               79.11151729                0.01000000               -0.39945340               -0.27941727                0.19254227                2.35426913               -0.02331877                0.00704821
               7.91694185                5.99068277               79.11536917                0.01000002               -0.21613568               -0.25926113                0.18802459                2.44585926               -0.02320467                0.04796571
               8.91592790                5.98901600               79.11958745                0.01000001               -0.03071173               -0.38228897                0.15794213                1.54238784               -0.02392274                0.26788495
               9.91632761                5.97339877               79.12410420                0.01000000                0.03997123               -0.32557176                0.06464051                0.67176485               -0.05515207                0.41364782
              -0.05082261                6.97477955               79.07775995                0.99999999               -0.02375052               -0.06633514                0.09574374                0.02648682               -0.00235117               -0.01935168
               0.94893989                6.96449986               79.08372959                0.01000000               -0.15351237                0.00392202                0.07284243                0.23585814               -0.00148618               -0.01351890
               1.94610715                6.95858370               79.08974115                0.01476717               -0.11408808               -0.32318724                0.10054099                0.68207858                0.01773427                0.01540012
               2.94665813                6.95270833               79.09576616                0.01000000               -0.06263202               -0.44995774                0.09106826                1.16472228                0.02901124                0.07252634
               3.94485451                6.95778760               79.10165793                0.01368812               -0.21500606               -0.55734395                0.12816095                1.88053070               -0.02708699                0.10239548
               4.94235800                6.96618428               79.10621760                0.01376307               -0.24633668               -0.65132314                0.17522227                2.26428762               -0.09054826                0.05435026
               5.93992777                6.97541573               79.11109398                0.01000000               -0.21560368               -0.42184887                0.18572315                2.29511483               -0.04753954               -0.00635558
               6.93804593                6.98297815               79.11600235                0.01000002               -0.06184557               -0.23912816                0.18557236                2.39273517               -0.05863935               -0.02663239
               7.93869086                6.98896120               79.12060145                0.01000000                0.02476331               -0.21027922                0.17521860                2.14501046               -0.03761360                0.06813686
               8.93854120                6.98667077               79.12561561                0.01000001               -0.06652049               -0.07115600                0.19607278                1.33859500               -0.08669284                0.32810589
               9.93736045                6.97299908               79.13130879                0.01000000               -0.11807470                0.21815615                0.19899311                0.67610746               -0.11670221                0.45675445
              -0.04071629                7.97422773               79.07952449                1.00000000               -0.02780241               -0.05205020                0.11024689                0.00700236               -0.00504616               -0.01030743
               0.95900569                7.96440287               79.08545632                1.00000000               -0.02723354               -0.01914846                0.10120486                0.01802430               -0.00851789               -0.01311559
               1.95873904                7.95492398               79.09131459                0.01000000               -0.16506904               -0.19956693                0.10046711                0.41030836               -0.00629451               -0.01811764
               2.95570431                7.95048876               79.09727034                0.01000000               -0.21548057               -0.37734517                0.11133589                0.90978002               -0.01347460                0.08305590
               3.95442943                7.95189567               79.10309042                0.01496212                0.02699849               -1.10041810                0.10506856                1.51661165               -0.06053604                0.19539321
               4.95624428                7.95814055               79.10897767                0.01000000               -0.01950443               -0.53646833                0.14398359                2.09500194               -0.04267963                0.01685499
               5.95403934                7.97162979               79.11424152                0.01000002               -0.08422129               -0.30376306                0.17613897                2.28893875               -0.07337755               -0.04069060
               6.95455985                7.98114984               79.11961720                0.01000000                0.10550513               -0.17948316                0.17750802                2.03568252               -0.04772924               -0.06828480
               7.95614944                7.98647718               79.12575269                0.01000001                0.20510318               -0.25549549                0.20234042                1.69442257               -0.10077678               -0.10662622
               8.95866192                7.98759288               79.13238966                0.01406702                0.05218411                0.01280444                0.25508243                1.29674003                0.14540218                0.42672879
               9.95719313                7.97776190               79.13810629                0.01000002               -0.14687890                0.60615499                0.31565411                0.78360640                0.18907082                0.57290288
              -0.03103283                8.97373855               79.08134792                0.99999999               -0.03630440               -0.04546161                0.12165382                0.00115861               -0.00163758               -0.00411815
               0.96860413                8.96411689               79.08729481                0.99999999               -0.03698740               -0.03267021                0.11901182               -0.00123304               -0.00007511               -0.00406758
               1.96822742                8.95459236               79.09325594                0.99999999               -0.03610408               -0.03408872                0.11619855                0.00002668                0.00744370                0.00097288
               2.96788204                8.94516142               79.09928509                0.86363527               -0.03462370               -0.28409643                0.11529464                0.13848164                0.01529422                0.00564618
               3.96753495                8.93577923               79.10527965                0.01000002               -0.16790614               -0.82376146                0.11352834                1.63835915                0.01658102                0.01697716
               4.96452392                8.95545491               79.11129990                0.01180062               -0.24188444               -0.09900330                0.14205863                1.88671214                0.04221095                0.06963754
               5.96269726                8.96934047               79.11734521                0.01000001               -0.03058663               -0.18251616                0.13794973                1.39520599               -0.00238873               -0.04347288
               6.96391219                8.97938849               79.12252998                0.01000001                0.17195095               -0.14829180                0.14992691                1.07654995               -0.10198497               -0.06532772
               7.96613628                8.98385129               79.12884730                0.01000002                0.46395474               -0.25997414                0.22332750                0.78074658                0.17605063               -0.10239049
               8.97319128                8.98692685               79.13727018                0.99866931                0.32791286               -0.05752607                0.14958714                0.88544737                0.15037045                0.09379327
               9.97269453                8.98512218               79.14251927                0.99899347               -0.04967487                0.33797624                0.18445491                0.68544934               -0.00843653                0.05364980
              -0.02144981                9.97331850               79.08322872                1.00000000               -0.04229774               -0.04200435                0.13672676                0.00139849               -0.00015398               -0.00173271
               0.97812721                9.96374947               79.08918388                1.00000000               -0.04275722               -0.03674274                0.13493668               -0.00150589                0.00227267               -0.00103347
               1.97769505                9.95424221               79.09516658                1.00000000               -0.04200727               -0.03501521                0.12999832               -0.00036916                0.00905021                0.00066817
               2.97728707                9.94480683               79.10118132                0.99999998               -0.03959620               -0.03545901                0.12440405               -0.00058619                0.01335158               -0.00059592
               3.97690312                9.93542044               79.10717119                0.01032151               -0.84348915               -0.03587973                0.12083698                1.50450016                0.05472757               -0.00079526
               4.96041728                9.95616049               79.11398485                0.01000000               -0.94466174                0.07055719                0.11214477                1.21728781                0.03109738                0.09349655
               5.95800989                9.96797947               79.12093464                0.01225899                0.05813743               -0.13610048                0.08601543                0.63243879                0.07878792               -0.00222726
               6.96158003                9.97818400               79.12701318                0.01000000                0.31080619               -0.12044845                0.13452528                0.43169619                0.00966552               -0.06950707
               7.96422601                9.98127770               79.13289890                0.01000001                0.67599671               -0.25735888                0.16148222                0.22189081                0.33566929               -0.12885470
               8.97509997                9.98644235               79.14044204                0.99898854                0.51427220               -0.04845009                0.17710561                0.35305454                0.12247727                0.00774343
               9.97451145                9.98452142               79.14569113                0.99497028               -0.05885125               -0.06007621                0.21197396               -0.01040115                0.00782859               -0.00785083
              -0.12735308               -0.02547763               80.05939820                0.99918121               -0.01238337               -0.01447063                0.08104130               -0.00134823                0.00921692               -0.00773586
               0.87252309               -0.03037599               80.06291861                0.96338911               -0.00157754               -0.03065495                0.07179908                0.00528522                0.01308301                0.00296614
               1.87261537               -0.03473979               80.06649400                0.45934576                0.08767061               -0.01251566                0.05950396                0.13512915                0.02273886                0.00524488
               2.87427650               -0.03570854               80.07014203                0.35584423                0.14883812                0.01733811                0.02419750                0.12073972               -0.03091897                0.00691807
               3.87559213               -0.03104172               80.07320807                0.27301517               -0.01472383                0.05437321                0.03808633                0.13612356               -0.06725319               -0.02091860
               4.87398202               -0.02149507               80.07597753                0.35937053               -0.20946526                0.04712384                0.06435990                0.13548976               -0.00701303               -0.01299723
               5.87140283               -0.01452638               80.07874907                0.93034428               -0.15490693               -0.01575722                0.07675438                0.15265763               -0.01997049                0.00548858
               6.87088388               -0.01082553               80.08131976                1.00000000               -0.05077360               -0.02415602                0.09136049                0.00965102               -0.02768129               -0.00261643
               7.87038736               -0.00757020               80.08380486                1.00000000               -0.04594011               -0.02711270                0.09819277                0.00412849               -0.02898106                0.00032628
               8.86996508               -0.00458841               80.08633408                0.99999999               -0.03844405               -0.03201345                0.10187957               -0.00008103               -0.02169405               -0.00406983
               9.86961847               -0.00163699               80.08898048                1.00000000               -0.03466078               -0.03568863                0.10938947               -0.00214403               -0.01741591               -0.02040799
              -0.12246821                0.97437766               80.06188461                1.00000000               -0.03247722               -0.00756560                0.08271480                0.00411539               -0.00404309               -0.00720509
               0.87720702                0.96931747               80.06539367                0.01000000               -0.04494259               -0.04072155                0.07515140                0.04479088               -0.00807112                0.01164343
               1.87663294                0.96513505               80.06882694                0.01000000               -0.17860780                0.01120325                0.06933397                0.19799107                0.01710485                0.09725597
               2.87363486                0.96446484               80.07288578                0.01000000               -0.33931534                0.08276556                0.07006790                0.45103644                0.10578086                0.09833792
               3.86984663                0.96950201               80.07692189                0.01188326               -0.32778064                0.09747641                0.05753900                0.67782678                0.14849457                0.03782345
               4.86707925                0.97897617               80.08054846                0.01000000               -0.11259992               -0.16335531                0.03941222                0.72175491                0.06655837                0.02469546
               5.86759463                0.98531605               80.08354033                0.01000001                0.02115261               -0.19329882                0.06127245                0.44245563                0.01597905                0.04346090
               6.86750230                0.98893291               80.08621211                0.27159332               -0.01422753               -0.01999985                0.08668235                0.03528140               -0.00406761               -0.02838532
               7.86731008                0.99215868               80.08884274                0.99999999               -0.02523174               -0.02958465                0.10674112                0.01187862               -0.00393226                0.00179198
               8.86699767                0.99509145               80.09146637                0.99999999               -0.03322381               -0.03566981                0.11504032               -0.00115731               -0.00151281               -0.00051527
               9.86664561                0.99800613               80.09411251                0.99942645               -0.03520601               -0.04025639                0.12289717               -0.00362486                0.00030455               -0.02132206
              -0.11715038                1.97437105               80.06437206                0.56692032               -0.01881062                0.02814294                0.08216295                0.05228014               -0.00156933                0.00164858
               0.88266151                1.96880958               80.06803429                0.01000000               -0.07109019               -0.09505862                0.07652081                0.17589986                0.06341867                0.04322043
               1.88142782                1.96548427               80.07298944                0.01000001               -0.18656209               -0.04369300                0.08061248                0.51513366                0.13447655                0.17545409
               2.87893027                1.96594677               80.07768422                0.01000000               -0.33952383                0.06346211                0.07907774                1.00127573                0.14177090                0.18462440
               3.87463734                1.97090781               80.08215348                0.01000000               -0.31635938                0.01618399                0.06488071                1.27724307                0.10795507                0.16174153
               4.87260308                1.97523783               80.08588858                0.01000001               -0.21710699               -0.32704307                0.06158797                1.35959344                0.06950522                0.11704100
               5.87029520                1.98160764               80.08913267                0.01078959               -0.39281009               -0.19976411                0.08337610                1.10599216               -0.02667888                0.12034330
               6.86474688                1.98877448               80.09058674                0.01457609               -0.29144055               -0.03336916                0.13403067                0.61804993               -0.01507789                0.06113043
               7.86446639                1.99183811               80.09390150                0.01228494               -0.03261980               -0.17269183                0.12054093                0.25226086                0.05439389               -0.02665598
               8.86409449                1.99469819               80.09669137                0.98061513               -0.03748805               -0.04286322                0.13078012               -0.00124270                0.02010992                0.02590777
               9.86371663                1.99755789               80.09927048                0.99254070               -0.03778589               -0.04810840                0.13843199               -0.00199846                0.01322680               -0.01048741
              -0.11029966                2.97494052               80.06703730                0.33213956               -0.00885389                0.10830670                0.07191739                0.16116794               -0.00174758                0.01593015
               0.88961180                2.96741629               80.07109376                0.01000000                0.00490446               -0.24326297                0.06987480                0.40620992                0.08905291                0.13650675
               1.88979842                2.96426119               80.07707701                0.01000000               -0.06874753               -0.21306310                0.07684684                0.95957983                0.16599470                0.18734719
               2.88823685                2.96573408               80.08231275                0.01000000               -0.18489928               -0.04808606                0.08148075                1.32886420                0.15531021                0.18994006
               3.88610044                2.96982569               80.08728211                0.01241635               -0.23327822               -0.16248635                0.08413990                1.44044783                0.12911774                0.14855757
               4.88357128                2.97243531               80.09124836                0.01000000               -0.49613055               -0.14102118                0.08748513                1.59364795                0.08112197                0.12810189
               5.87617783                2.98132076               80.09468836                0.01000000               -0.69692247               -0.04655031                0.10704649                1.67869562                0.07075302                0.13550298
               6.86963283                2.98826553               80.09727089                0.01000000               -0.48731213               -0.11019792                0.10025544                1.23288095                0.03245637                0.19423503
               7.86643159                2.98870484               80.09829923                0.01000001               -0.41898969               -0.20092398                0.29080761                0.82271460                0.26085524               -0.02087957
               8.86125304                2.99423419               80.10235240                0.79951420               -0.27726690               -0.04459394                0.13604361                0.13080461                0.08441955                0.04679064
               9.86088625                2.99704396               80.10464871                0.99999999               -0.03667911               -0.04734807                0.13689738                0.00382929                0.00467753                0.01066325
              -0.09887857                3.97653719               80.07009407                0.24934128                0.03436074                0.05238179                0.05531633                0.15273090               -0.00914796                0.07209668
               0.90146504                3.96394432               80.07504546                0.01188556                0.05900951               -0.29828659                0.04078204                0.66840052                0.04194093                0.24160910
               1.90230162                3.96122301               80.08131641                0.01000000               -0.07609899               -0.20626918                0.05973018                1.26551433                0.13959332                0.15367289
               2.89994306                3.96498505               80.08688177                0.01240954               -0.27782759               -0.11201557                0.08156597                1.42677989                0.11184801                0.15973671
               3.89674507                3.96765808               80.09156563                0.01000000               -0.34810454               -0.24955009                0.09125060                1.54338280                0.08834325                0.11925069
               4.89298097                3.97241740               80.09587952                0.01000000               -0.43530887               -0.06100915                0.10677538                1.84241948                0.11978958                0.13209128
               5.88803889                3.98067664               80.10032007                0.01000000               -0.54802714               -0.07735676                0.13097269                2.09366982                0.12864976                0.14350880
               6.88202043                3.98657052               80.10362077                0.01415834               -0.65434356               -0.20791979                0.18059028                1.80917825                0.08188183                0.11541814
               7.87495202                3.98781963               80.10603570                0.01580048               -1.18244829                0.02556728                0.16318395                1.56690881               -0.03265762                0.19087120
               8.85837146                3.99380631               80.10802185                0.01000002               -0.83891757               -0.25053262                0.08680558                1.78665714                0.00077036                0.08315899
               9.85817367                3.99661092               80.11022885                0.01000000               -0.01977896               -1.19641396                0.08709750                1.76806555                0.00241082                0.11090070
              -0.08205932                4.97598816               80.07391556                0.29904213                0.03533019               -0.16152824                0.05384581                0.12177426               -0.01193179                0.11875897
               0.91829398                4.96145056               80.07929455                0.01000000               -0.19363484               -0.07432636                0.03063291                0.75762396               -0.00590360                0.16689166
               1.91406799                4.96013581               80.08486060                0.01000001               -0.39783033               -0.09298295                0.04880969                1.38329239                0.06020136                0.12035606
               2.91033738                4.96349377               80.09054293                0.01000000               -0.22661213               -0.37008571                0.08179645                1.56379988                0.08798987                0.12021957
               3.90953574                4.96483469               80.09557397                0.01000000               -0.14681320               -0.33768101                0.10164400                1.82627576                0.10078026                0.14379517
               4.90740111                4.97121513               80.10083201                0.01000000               -0.28188163               -0.19342225                0.12779792                2.30786822                0.12947498                0.15102375
               5.90389811                4.97977363               80.10548465                0.01474454               -0.43638557               -0.20088168                0.17554299                2.28698020                0.09758615                0.09269151
               6.89867340                4.98410713               80.10891875                0.01468045               -0.66820716               -0.25006599                0.21926158                2.18831680                0.03711578                0.04901441
               7.89053397                4.98921619               80.11163792                0.01000000               -0.52392568               -0.10160969                0.19369860                2.15880822                0.03699368                0.08130499
               8.88819489                4.98922354               80.11467206                0.01409915                0.00521829               -0.44123175                0.15470273                1.86037417                0.12785235                0.10089525
               9.89063833                4.97311568               80.11783114                0.01000000                0.24434444               -1.35440956                0.11357311                1.04879547                0.13609754                0.05541588
              -0.06736790                5.97330662               80.07683263                0.76908364               -0.01622404               -0.16437323                0.07776436                0.18408106                0.00914160                0.00754745
               0.93246986                5.96245780               80.08238052                0.01000001               -0.23539234                0.05294144                0.05592669                0.54142090                0.02265198                0.06278111
               1.92792426                5.95936335               80.08828945                0.01079713               -0.29748432               -0.17995857                0.05655704                1.08004412                0.06454148                0.07049808
               2.92652018                5.95758334               80.09406346                0.01000000               -0.11875138               -0.61618251                0.08448653                1.61447050                0.07833689                0.09173447
               3.92554923                5.96090446               80.09973454                0.01000000               -0.11603938               -0.44575830                0.11715940                2.04826167                0.09030669                0.13729326
               4.92419939                5.96854896               80.10507992                0.01474672               -0.23313703               -0.37386927                0.16962736                2.27426047                0.06244351                0.10177997
               5.92088649                5.97665900               80.10948907                0.01524526               -0.39275930               -0.38221556                0.16697720                2.19508624                0.03638728                0.04911994
               6.91634420                5.98156920               80.11346720                0.01000000               -0.39373534               -0.25730097                0.20385545                2.17858942                0.03947405                0.00537857
               7.91301178                5.98578744               80.11730833                0.01107257               -0.23323780               -0.25011685                0.22514966                2.32661164                0.04194491                0.03843598
               8.91167945                5.98498168               80.12111397                0.01000000               -0.08232468               -0.29767025                0.15712675                1.42543781                0.01280925                0.17299839
               9.91136529                5.96952273               80.12480968                0.01000000               -0.03141588               -0.16468776                0.04072389                0.51872802               -0.05610073                0.28475605
              -0.05668004                6.97270069               80.07871958                0.99970404               -0.02542835               -0.05568691                0.09588447                0.01748402               -0.00078554               -0.02946215
               0.94306567                6.96250939               80.08446659                0.01000002               -0.13883139               -0.00275698                0.07618757                0.22262507                0.02419123               -0.00267537
               1.94054333                6.95653664               80.09074086                0.01455359               -0.09899956               -0.32150173                0.10864063                0.67803256                0.04722454               -0.00214607
               2.94108568                6.95117012               80.09652624                0.01000000               -0.05039870               -0.44713496                0.07470409                1.13615068                0.05885318                0.03741300
               3.93953535                6.95591952               80.10276629                0.01416697               -0.19769519               -0.57224501                0.14951747                1.80580229                0.05779760                0.05216508
               4.93713178                6.96373774               80.10803900                0.01468038               -0.23778796               -0.62584766                0.21001883                2.12441399                0.00455850                0.02997083
               5.93477960                6.97212932               80.11297840                0.01000000               -0.20075115               -0.42293657                0.19982897                2.12121471               -0.01788483                0.03917493
               6.93311676                6.97896111               80.11790156                0.01179298               -0.05629377               -0.20658269                0.17638187                2.20810242               -0.00070062                0.00751133
               7.93365372                6.98421385               80.12253283                0.01000000               -0.00742032               -0.18196022                0.17489207                2.05602860               -0.02667267                0.01167680
               8.93296835                6.98327013               80.12736629                0.01000001               -0.08614702                0.03984270                0.15199741                1.41515838               -0.06633166                0.18403521
               9.93193078                6.96982192               80.13242209                0.01000000               -0.10375693                0.32460872                0.11694401                0.78616000               -0.03166996                0.40374785
              -0.04663561                7.97219289               80.08062509                0.99999998               -0.02779675               -0.04872892                0.10902441                0.00647319               -0.00262072               -0.02257276
               0.95308642                7.96240266               80.08645549                0.99999999               -0.02701046               -0.01929701                0.09943204                0.01763352               -0.00265869               -0.00792968
               1.95282418                7.95293332               80.09228711                0.01000000               -0.16130555               -0.19607433                0.09607317                0.40105155                0.01899618               -0.02176934
               2.94986031                7.94864064               80.09854842                0.01000001               -0.18632600               -0.39778938                0.12031242                0.87263339                0.04195307               -0.00576550
               3.94909766                7.94945956               80.10459159                0.01580646                0.03087828               -1.10317617                0.14437036                1.47683492                0.05719344               -0.03428276
               4.95047787                7.95603200               80.11032335                0.01000000               -0.05051226               -0.51207591                0.17213359                2.01359577                0.01731198               -0.00278476
               5.94808741                7.96820027               80.11617058                0.01109216               -0.10280758               -0.32240528                0.22767792                2.17697816               -0.01919025               -0.01133510
               6.94842172                7.97743754               80.12154726                0.01000000                0.08679631               -0.20414614                0.18553828                1.86990249               -0.04051319               -0.01502045
               7.94982334                7.98214823               80.12763329                0.01000001                0.29764090               -0.18411700                0.15616283                1.77422759               -0.04999430               -0.01924412
               8.95437454                7.98577853               80.13393599                0.01775228                0.20807812                0.02151945                0.09723884                1.42913125                0.08755988                0.23138558
               9.95398490                7.97601491               80.14024767                0.01000002               -0.03896392                0.59531493                0.07215958                0.78646390                0.13547917                0.25911041
              -0.03697012                8.97172611               80.08256750                0.99999999               -0.03519655               -0.04403697                0.12059708                0.00125092               -0.00081506               -0.01362908
               0.96267791                8.96212345               80.08846766                0.99999999               -0.03517482               -0.03196406                0.11578577               -0.00046396                0.00126649               -0.00459028
               1.96232638                8.95261515               80.09438954                0.99999999               -0.03329006               -0.03309520                0.11199109                0.00249152                0.01007042                0.00421663
               2.96201211                8.94321433               80.10042756                0.88795981               -0.03228472               -0.28910798                0.11383976                0.13852500                0.01594960               -0.00545571
               3.96168069                8.93385600               80.10642287                0.01000002               -0.16745648               -0.79757654                0.11404222                1.61037025                0.03205300               -0.00472024
               4.95866298                8.95349622               80.11276285                0.01423987               -0.23835330               -0.07320593                0.13502317                1.73698167                0.09132009                0.00709946
               5.95691362                8.96568121               80.11868476                0.01000000               -0.10480686               -0.19358072                0.15702642                1.26737907                0.06231675               -0.03539074
               6.95656684                8.97487819               80.12488274                0.01000001                0.19418323               -0.24805905                0.23345731                1.08164884               -0.02919642               -0.03681606
               7.96079728                8.98053151               80.13158422                0.01000002                0.55587282               -0.29923552                0.24837225                1.03115243                0.12457644                0.00217061
               8.96768430                8.98370052               80.13877589                0.99877600                0.31950096               -0.12838992                0.15155446                0.82879577                0.07225846                0.07810390
               9.96718730                8.98172822               80.14435590                0.99778876               -0.04969959                0.25595888                0.18288861                0.56186582               -0.00840523                0.02478285
              -0.02740527                9.97131215               80.08460109                1.00000000               -0.04066287               -0.04139658                0.13542637                0.00160830               -0.00406760               -0.00793020
               0.97218810                9.96176338               80.09051446                1.00000000               -0.04058034               -0.03600733                0.13095965               -0.00101764               -0.00206098               -0.00200886
               1.97178312                9.95227141               80.09643652                0.99999999               -0.03990700               -0.03437367                0.12496293                0.00042931                0.00300375                0.00212162
               2.97138996                9.94285848               80.10240802                0.99999997               -0.03799748               -0.03558568                0.12117118               -0.00038426                0.00677588               -0.00023409
               3.97102317                9.93350803               80.10837767                0.01021418               -0.89988345               -0.03479705                0.11930568                1.51971916                0.05356261                0.00208758
               4.95339229                9.95456789               80.11525890                0.01000000               -0.94850739                0.10716627                0.09295268                1.01396265                0.01366794                0.04281876
               5.95205303                9.96432866               80.12171331                0.01000001                0.09060550               -0.13525555                0.06903900                0.40936439                0.07522045               -0.00663655
               6.95520440                9.97247636               80.12893624                0.01000000                0.47855160               -0.24018284                0.17388994                0.45549918                0.11095108               -0.03583180
               7.96162406                9.97616352               80.13521782                0.02704542                0.72746692               -0.43679860                0.20931781                0.61939582                0.22163956               -0.08099627
               8.96975374                9.98321073               80.14222025                0.99777901                0.37713755               -0.04897872                0.17854852                0.45547220                0.07886358                0.00774511
               9.96916681                9.98113409               80.14780025                0.99470807               -0.05869317               -0.05941383                0.20988272               -0.00971420                0.00783005               -0.00782128
              -0.13073056               -0.02804225               81.06020555                0.99632899               -0.01213457               -0.01433984                0.07961613               -0.00159064                0.00893258               -0.00591920
               0.86914810               -0.03282396               81.06362912                0.95330690               -0.00158882               -0.02979113                0.07066548                0.00504382                0.01014759                0.00476939
               1.86923767               -0.03708318               81.06707864                0.46987613                0.07348204               -0.01320132                0.05998477                0.10686734                0.00851997                0.00480505
               2.87061774               -0.03854756               81.07050116                0.34998192                0.13803484                0.00690085                0.04569500                0.11357950               -0.03546983                0.01085284
               3.87199836               -0.03503018               81.07362198                0.25534580                0.02294755                0.03918114                0.04976975                0.16225218               -0.05288761               -0.01291501
               4.87107669               -0.02611148               81.07660640                0.31861958               -0.17931208                0.04597192                0.06643896                0.12292845               -0.00151366               -0.01394803
               5.86841212               -0.01914976               81.07952643                0.96181062               -0.15554706               -0.01821353                0.07825047                0.16811735               -0.02580492                0.01048252
               6.86796575               -0.01570949               81.08223550                1.00000000               -0.04585120               -0.02455983                0.09144624                0.00640870               -0.03734844               -0.00242053
               7.86749510               -0.01263266               81.08479713                0.99999998               -0.04439196               -0.02699194                0.09948055                0.00408771               -0.04094920                0.00255475
               8.86707791               -0.00982494               81.08737696                0.99999999               -0.03865202               -0.03276075                0.10543967                0.00030835               -0.03140608               -0.00283824
               9.86672206               -0.00706399               81.09010877                0.99999327               -0.03558513               -0.03713222                0.11443146               -0.00083028               -0.02417905               -0.02289051
              -0.12596476                0.97181435               81.06270938                1.00000000               -0.03162421               -0.00804912                0.08151984                0.00317061               -0.00166499               -0.00637457
               0.87371900                0.96687813               81.06613379                0.01000000               -0.04335477               -0.03849273                0.07311210                0.04184465               -0.00280345                0.01223032
               1.87316814                0.96278481               81.06951134                0.01000000               -0.14959816                0.00638771                0.06770339                0.16893485                0.02811480                0.09162658
               2.87072703                0.96152145               81.07348488                0.01000000               -0.28826493                0.07691696                0.05663627                0.38535124                0.10744128                0.09571386
               3.86740284                0.96536163               81.07743189                0.01225435               -0.31806349                0.11664993                0.04826183                0.61937989                0.12356780                0.04736798
               4.86436576                0.97434824               81.08100530                0.01000000               -0.12552735               -0.14053468                0.04929464                0.69845161                0.06000018                0.03638569
               5.86489230                0.98066811               81.08417002                0.01000001                0.02027603               -0.18201950                0.06513378                0.44271422                0.02738289                0.06294481
               6.86477128                0.98404492               81.08704810                0.25862036               -0.01492968               -0.02039406                0.08293021                0.03285190                0.00788214               -0.00018774
               7.86459370                0.98709742               81.08987954                1.00000000               -0.02373117               -0.02839753                0.10190845                0.01131059                0.00100238                0.00667834
               8.86429666                0.98984745               81.09261000                0.99999999               -0.03204503               -0.03469205                0.11253192               -0.00156485               -0.00215873                0.00128959
               9.86395280                0.99256468               81.09535528                0.99945178               -0.03438573               -0.03931977                0.12237884               -0.00284465               -0.00048564               -0.02391905
              -0.12079471                1.97179676               81.06520299                0.58034894               -0.01907578                0.02172844                0.08315821                0.04237148               -0.00136644               -0.00176314
               0.87901453                1.96640619               81.06876906                0.01000000               -0.06161175               -0.08180831                0.07241901                0.15270884                0.06656815                0.03891433
               1.87797305                1.96304458               81.07370518                0.01000001               -0.16332942               -0.04439892                0.06739162                0.46411815                0.13737383                0.16143667
               2.87574794                1.96299078               81.07835930                0.01000000               -0.32069405                0.07164689                0.06098909                0.91038293                0.13025852                0.17693181
               3.87155917                1.96730282               81.08272099                0.01000000               -0.30043454                0.05934875                0.05216900                1.17899290                0.09096010                0.16718070
               4.86973925                1.97107783               81.08644837                0.01000001               -0.19947205               -0.28387654                0.05331516                1.30896314                0.06502991                0.13550950
               5.86756973                1.97720985               81.08990374                0.01074975               -0.37728899               -0.17650988                0.07670525                1.08382516               -0.00600054                0.13492533
               6.86219347                1.98388263               81.09191299                0.01440346               -0.28254756               -0.03251206                0.12678600                0.61015861               -0.00084482                0.07106667
               7.86191878                1.98679939               81.09504492                0.01101336               -0.03070585               -0.14732866                0.10997350                0.22342636                0.04288584                0.02287479
               8.86157935                1.98948121               81.09792705                0.98938425               -0.03440426               -0.03663753                0.11910035                0.00024392                0.02177744                0.02906118
               9.86123069                1.99214961               81.10058412                0.99999999               -0.03486597               -0.04175355                0.12697939               -0.00208766                0.01281526               -0.01256767
              -0.11433618                2.97224892               81.06782489                0.33256182               -0.01384580                0.10021632                0.08242247                0.14861406               -0.00147459                0.00973813
               0.88552536                2.96524197               81.07174124                0.01000000                0.01010508               -0.21268966                0.06502323                0.35139049                0.09781285                0.11146726
               1.88586592                2.96189683               81.07773081                0.01000000               -0.04244555               -0.21393467                0.06041300                0.87842579                0.17621016                0.16156008
               2.88467645                2.96295438               81.08300109                0.01000000               -0.14851325               -0.03099016                0.06134201                1.24268780                0.15687524                0.17631565
               3.88289565                2.96654861               81.08799497                0.01256734               -0.20192265               -0.13500623                0.06423486                1.36398493                0.12518734                0.14611176
               4.88063800                2.96867071               81.09200502                0.01000000               -0.45658305               -0.10924469                0.06911859                1.53115124                0.08026080                0.13476911
               5.87376399                2.97713791               81.09562022                0.01000000               -0.66265400               -0.02399533                0.08399635                1.62822082                0.05009625                0.15650285
               6.86738492                2.98339467               81.09813910                0.01000000               -0.51501719               -0.08877411                0.10540746                1.23469020               -0.00135421                0.21814107
               7.86346365                2.98415085               81.10041894                0.01000001               -0.42167973               -0.19096782                0.16819974                0.83788937                0.02781760                0.09963105
               8.85895132                2.98911470               81.10366444                0.87416913               -0.24446962               -0.03695319                0.12501608                0.11809770                0.04523589                0.05019538
               9.85857426                2.99172961               81.10599407                0.99999999               -0.03770639               -0.04129004                0.12856343               -0.00140321                0.00052350                0.00653490
              -0.10380853                3.97380109               81.07075785                0.23740406                0.02029549                0.07404816                0.07489842                0.17907341               -0.00608101                0.05873698
               0.89639442                3.96215240               81.07544598                0.01221084                0.08188410               -0.29377344                0.04402468                0.61502253                0.06618740                0.20835662
               1.89782915                3.95876588               81.08182547                0.01000000               -0.02222519               -0.20885486                0.04855255                1.17393300                0.16654248                0.12558557
               2.89594992                3.96237097               81.08757555                0.01256894               -0.23533020               -0.09831350                0.06316308                1.35357235                0.12584657                0.14163190
               3.89312255                3.96460270               81.09233219                0.01000000               -0.30884725               -0.22338234                0.06701464                1.45288476                0.09178506                0.10558218
               4.88977297                3.96889293               81.09678923                0.01000000               -0.38561838               -0.03003298                0.07719150                1.76231722                0.12560915                0.12897848
               5.88541018                3.97672995               81.10145430                0.01000000               -0.49493211               -0.04692842                0.09710855                2.01788406                0.17101257                0.18220385
               6.87987433                3.98210715               81.10574404                0.01480353               -0.62268179               -0.18471581                0.18254374                1.75153862                0.08714287                0.23227423
               7.87295654                3.98298004               81.10744373                0.01694485               -1.17558937                0.01745179                0.21708261                1.55075873                0.04873568                0.05486163
               8.85636254                3.98874215               81.10927218                0.01000001               -0.84918729               -0.29361859                0.12147595                1.80828655               -0.00626824                0.10027186
               9.85597280                3.99132381               81.11147761                0.01065885               -0.03897477               -1.28458038                0.12288554                1.78417894                0.00532402                0.11715989
              -0.08745733                4.97372988               81.07451430                0.27378026                0.03183420               -0.14498625                0.06789980                0.11817050               -0.01015875                0.10711275
               0.91286102                4.95936650               81.07967325                0.01000000               -0.17083362               -0.08721946                0.04352781                0.73421621                0.01069321                0.16423161
               1.90912600                4.95771974               81.08532180                0.01000001               -0.34749664               -0.09242296                0.04674076                1.33531447                0.09525140                0.09537072
               2.90591108                4.96098811               81.09125082                0.01000000               -0.18473052               -0.35158380                0.06663724                1.50733557                0.11362523                0.10096766
               3.90543139                4.96208096               81.09644996                0.01000000               -0.10769963               -0.30033043                0.07523439                1.75219187                0.11606582                0.13171458
               4.90375709                4.96807005               81.10191452                0.01000000               -0.22619682               -0.14486512                0.08896062                2.22132079                0.15091126                0.15747266
               5.90090746                4.97619934               81.10711991                0.01558715               -0.37957468               -0.15872659                0.12911874                2.17457571                0.17182084                0.10341848
               6.89616560                4.97970036               81.11133164                0.01585974               -0.65318156               -0.25249909                0.21800224                2.08235226                0.16273315                0.08202002
               7.88784382                4.98449989               81.11384902                0.01000000               -0.46961594               -0.12117277                0.22849494                2.03597016                0.14756011               -0.01833149
               8.88677328                4.98324233               81.11592249                0.01742353                0.06253465               -0.44802048                0.18024134                1.69291581                0.11707510                0.10602725
               9.88909452                4.96603801               81.11903292                0.01000000                0.23212386               -1.34104331                0.09098489                0.87163747                0.16066266                0.07572087
              -0.07271836                5.97090137               81.07762546                0.80898085               -0.01927500               -0.16660172                0.08027786                0.20691328                0.00977684                0.01050193
               0.92708889                5.96040801               81.08300222                0.01000001               -0.21839093                0.05024439                0.06578235                0.52787348                0.02699104                0.06573327
               1.92291382                5.95691743               81.08877167                0.01072376               -0.26767446               -0.15883087                0.05593265                1.03986376                0.09059746                0.05402767
               2.92173540                5.95533930               81.09486798                0.01000000               -0.09146869               -0.60082409                0.07693474                1.57886721                0.14522476                0.04979905
               3.92108445                5.95859609               81.10077234                0.01000000               -0.08271958               -0.40535571                0.09044349                1.98613207                0.15181755                0.16721782
               4.92008101                5.96599563               81.10667271                0.01559031               -0.19065340               -0.32648908                0.12751355                2.17196475                0.08653119                0.16869534
               5.91727138                5.97355541               81.11086179                0.01656675               -0.34300901               -0.33408125                0.15620932                1.99308000                0.01042360                0.01164205
               6.91322083                5.97705717               81.11559440                0.01000000               -0.35687016               -0.23260199                0.19678133                1.96565334               -0.00856754                0.06364145
               7.91013398                5.98055658               81.11987216                0.01328432               -0.22690447               -0.28150570                0.23175300                2.17867119                0.03975315               -0.01795868
               8.90868274                5.97978174               81.12272999                0.01000000               -0.11598962               -0.28564363                0.16278924                1.22491930                0.05601797               -0.00798386
               9.90781419                5.96450294               81.12491868                0.01000000               -0.08685557               -0.02009785                0.05299290                0.34816681               -0.04606063                0.24937700
              -0.06233234                6.97039785               81.07967764                1.00000000               -0.02652311               -0.04865026                0.09563174                0.01179640               -0.00030203               -0.03531368
               0.93740243                6.96037139               81.08525334                0.01000002               -0.13378352               -0.00823984                0.08067070                0.21734361                0.05312566                0.00134851
               1.93499199                6.95454312               81.09191396                0.01438446               -0.07963307               -0.30387517                0.12840245                0.63562313                0.16695075               -0.14580941
               2.93580976                6.94897163               81.09726025                0.01000000               -0.02471426               -0.44335818                0.08328232                1.09671069                0.14040879                0.03515240
               3.93449770                6.95397385               81.10464828                0.01481925               -0.17863523               -0.55213298                0.16896956                1.76412750                0.18523113                0.07168746
               4.93223706                6.96154027               81.11041797                0.01584456               -0.23950930               -0.63173148                0.21617527                2.02371945                0.06566207                0.14869873
               5.92970752                6.96951772               81.11509056                0.01000000               -0.18797816               -0.39293414                0.19577476                1.93341492                0.05459107               -0.01433069
               6.92847750                6.97504832               81.11952999                0.01417093               -0.05074199               -0.15944593                0.17653792                1.92090507                0.09188448                0.08933584
               7.92869268                6.97886977               81.12409929                0.01000002               -0.05760977               -0.17578379                0.15867176                1.75539948                0.01615010               -0.06914066
               8.92732530                6.97752945               81.12865556                0.01000001               -0.10386140                0.05146214                0.12694860                1.29411353               -0.07665274               -0.06976144
               9.92661545                6.96563605               81.13364767                0.01000000               -0.07098541                0.32536759                0.09190828                0.78391754               -0.00037184                0.30335889
              -0.05242951                7.96992836               81.08170497                0.99874414               -0.02799976               -0.04539419                0.10687347                0.00562955               -0.00029267               -0.03176642
               0.94729049                7.96024321               81.08744496                1.00000000               -0.02722250               -0.02026346                0.09877545                0.01582744                0.00214978               -0.00508319
               1.94702604                7.95083992               81.09323606                0.01000002               -0.15258031               -0.20079150                0.09481051                0.38529327                0.03690692               -0.03472725
               2.94423889                7.94647213               81.09967658                0.01000001               -0.16138370               -0.38894644                0.10443434                0.85357222                0.04864596               -0.01532843
               3.94379837                7.94755343               81.10597783                0.01694041                0.03863233               -1.10375500                0.20460985                1.41159375               -0.01720383                0.03489024
               4.94501153                7.95336100               81.11242034                0.01000000               -0.06833691               -0.54394536                0.22984622                1.99973385               -0.03745367                0.11179462
               5.94243163                7.96569673               81.11879508                0.01329675               -0.13623285               -0.32138974                0.23302273                2.13117227               -0.01688685                0.00427221
               6.94228688                7.97386825               81.12332796                0.01000002                0.01646029               -0.18925626                0.17182827                1.66477379               -0.08318240                0.07970793
               7.94276083                7.97704091               81.12887594                0.01000001                0.27559305               -0.12797983                0.09603430                1.64923556               -0.13626054                0.00939373
               8.94779874                7.98081098               81.13433444                0.01000002                0.22592561                0.13376089                0.07783010                1.42544317               -0.24790102               -0.02119028
               9.94727935                7.97101030               81.13954948                0.01000002               -0.05193911                0.62146052                0.08457008                0.75747943               -0.35272700                0.01976756
              -0.04284945                8.96948996               81.08375987                0.99999999               -0.03431352               -0.04178223                0.11749726                0.00119554               -0.00041843               -0.02156544
               0.95680741                8.95996612               81.08961053                0.99999998               -0.03408100               -0.03137660                0.11296935               -0.00012999                0.00219229               -0.00488685
               1.95646893                8.95052729               81.09549576                0.99999997               -0.03198553               -0.03246169                0.10960487                0.00310536                0.01392942                0.00806441
               2.95616770                8.94119270               81.10156188                0.91600897               -0.03141086               -0.28154563                0.11268580                0.13070003                0.02030935               -0.00860248
               3.95584071                8.93189875               81.10756049                0.01363534               -0.10396340               -0.80004232                0.11292317                1.53968950                0.03964917               -0.01797487
               4.95408843                8.95066136               81.11400036                0.01753010               -0.20085006               -0.06681116                0.16183861                1.67673227                0.15064145               -0.04391979
               5.95182371                8.96308992               81.12048574                0.01000000               -0.18298179               -0.19535522                0.18680983                1.20035818                0.02137837                0.05074443
               6.95042880                8.97126319               81.12719912                0.01000001                0.14554716               -0.22539403                0.18144799                1.06139656                0.01010632                0.00001970
               7.95473465                8.97631018               81.13381474                0.01000002                0.57179879               -0.23251620                0.20218521                1.07777171                0.22928012                0.08680297
               8.96186477                8.98020467               81.14030127                0.99836815                0.33158795               -0.05512236                0.15358810                0.90255750                0.02219993                0.12105284
               9.96136641                8.97806526               81.14617704                0.99625894               -0.04983623                0.32329963                0.18143754                0.59749404               -0.00839383                0.13737212
              -0.03335791                9.96909272               81.08593725                0.99999916               -0.03915246               -0.03972463                0.13082773                0.00145050               -0.00878978               -0.01364833
               0.96625057                9.95961568               81.09180307                1.00000000               -0.03902655               -0.03504384                0.12654547               -0.00078606               -0.00740614               -0.00249439
               1.96586156                9.95019069               81.09766584                1.00000000               -0.03845704               -0.03365995                0.12101413                0.00054031               -0.00239661                0.00431277
               2.96548143                9.94084122               81.10360474                0.99999997               -0.03690299               -0.03514819                0.11792969               -0.00053301                0.00324655                0.00013704
               3.96512350                9.93155258               81.10955730                0.01031345               -0.90632105               -0.03461659                0.11624265                1.48745663                0.02182751                0.00371345
               4.94735500                9.95202478               81.11584390                0.01000000               -0.96432720                0.13634176                0.12193704                0.83850919                0.05443899               -0.02646732
               5.94583696                9.96178963               81.12231542                0.01000000                0.14697734               -0.13002944                0.06781913                0.26810426                0.17073150                0.01257607
               6.95029455                9.96936037               81.13049097                0.01000000                0.47689167               -0.19028235                0.12351341                0.51662295                0.27968682               -0.00300390
               7.95537479                9.97239058               81.13708526                0.02281609                0.69001261               -0.39195949                0.23994895                0.58142196                0.23963449                0.09299414
               8.96409480                9.97970854               81.14401301                0.99625417                0.40666301               -0.04961341                0.18009474                0.47728823                0.06031394                0.00774421
               9.96350805                9.97747629               81.14988878                0.99428951               -0.05867539               -0.05889706                0.20794437               -0.00906113                0.00782609               -0.00781058
              -0.13402157               -0.03060369               82.06099052                0.99173326               -0.01254806               -0.01435867                0.07661291               -0.00149973                0.00818573               -0.00423914
               0.86585294               -0.03528994               82.06433192                0.94066808               -0.00323452               -0.02879338                0.06992191                0.00433484                0.00895203                0.00435213
               1.86591373               -0.03950909               82.06769370                0.47820750                0.05854097               -0.01498671                0.06365152                0.08459112                0.00736871                0.00444966
               2.86702376               -0.04145893               82.07105593                0.33909115                0.12577017               -0.00200897                0.06302626                0.11339932               -0.02892349                0.00891804
               3.86842914               -0.03891984               82.07420347                0.24028640                0.05117677                0.02702088                0.06764075                0.18119886               -0.04207577               -0.00707269
               4.86804730               -0.03057182               82.07730631                0.28545447               -0.15857526                0.04337368                0.07730903                0.11517970               -0.00544152               -0.01059634
               5.86525763               -0.02360391               82.08031408                0.98868646               -0.15905393               -0.01984644                0.07906207                0.18782034               -0.02899341                0.01339399
               6.86486622               -0.02049914               82.08314868                1.00000000               -0.04153637               -0.02492012                0.09092267                0.00441930               -0.04318391               -0.00223884
               7.86442691               -0.01768393               82.08579447                1.00000000               -0.04204521               -0.02716208                0.09953200                0.00352560               -0.04972083                0.00531130
               8.86402532               -0.01511126               82.08844287                1.00000000               -0.03778166               -0.03215786                0.10603214                0.00014922               -0.03893120               -0.00173171
               9.86367127               -0.01258781               82.09126911                0.99876826               -0.03540440               -0.03597910                0.11489866               -0.00024858               -0.02929168               -0.02568126
              -0.12935032                0.96925273               82.06351501                0.99220798               -0.03006836               -0.00880132                0.07945280                0.00252661               -0.00015610               -0.00428113
               0.87034899                0.96442213               82.06685592                0.01000000               -0.04027657               -0.03648203                0.07214323                0.03630323                0.00041714                0.01034436
               1.86984414                0.96034105               82.07018101                0.01000001               -0.12429278                0.00013112                0.06758613                0.13850850                0.02900309                0.08601604
               2.86786314                0.95852098               82.07401851                0.01000000               -0.25232858                0.07140682                0.05484190                0.32525943                0.09694692                0.09698657
               3.86479757                0.96135036               82.07788713                0.01262392               -0.31610049                0.13040933                0.04717197                0.56396318                0.10892279                0.06328646
               4.86154113                0.96986191               82.08153435                0.01000000               -0.13490396               -0.12399431                0.05644071                0.67604455                0.06265001                0.04556960
               5.86209949                0.97619763               82.08484301                0.01000001                0.02046488               -0.17700711                0.06918922                0.44213411                0.03256377                0.07635946
               6.86195042                0.97925166               82.08787072                0.27291948               -0.01656352               -0.01980297                0.08284592                0.02847067                0.01494562                0.02373769
               7.86176822                0.98204445               82.09088091                0.99999999               -0.02358359               -0.02799336                0.09919259                0.00993227                0.00456306                0.01183567
               8.86147875                0.98456716               82.09371701                0.99999999               -0.03114421               -0.03318801                0.10899076               -0.00132720               -0.00313963                0.00307140
               9.86114534                0.98705239               82.09656009                0.99900493               -0.03334134               -0.03722231                0.11814163               -0.00210129               -0.00165069               -0.02639114
              -0.12430985                1.96922029               82.06603522                0.59091217               -0.01994595                0.01638499                0.08325897                0.03543735               -0.00055864                0.00087795
               0.87549069                1.96398042               82.06948267                0.01000001               -0.05525450               -0.07267038                0.07232569                0.12931947                0.06884472                0.03196485
               1.87458506                1.96049354               82.07433727                0.01000001               -0.14855263               -0.04844740                0.06346345                0.41037080                0.13649453                0.14787482
               2.87251964                1.95996920               82.07890400                0.01000000               -0.31087952                0.07615811                0.05632135                0.82209309                0.12204950                0.17145614
               3.86836747                1.96368834               82.08319686                0.01000000               -0.28993557                0.08931772                0.04853115                1.08908801                0.07788687                0.18147160
               4.86672092                1.96694829               82.08695489                0.01000001               -0.18284499               -0.25360399                0.05148464                1.25888677                0.06667303                0.14721251
               5.86471057                1.97285595               82.09066677                0.01071177               -0.35660561               -0.16486830                0.07794555                1.05513470                0.01636467                0.14481777
               6.85958881                1.97910480               82.09312246                0.01432044               -0.27002580               -0.02271783                0.11379080                0.58784265                0.00856897                0.10191210
               7.85931005                1.98175621               82.09610097                0.01000000               -0.02989907               -0.18729025                0.10325474                0.24072766                0.03374771                0.03630495
               8.85899083                1.98422498               82.09907338                0.99999999               -0.03256375               -0.03370969                0.11164725                0.00077025                0.02317139                0.03010198
               9.85865878                1.98666774               82.10181007                0.99699758               -0.03320538               -0.03856136                0.11892468               -0.00111836                0.01288499               -0.01802108
              -0.11816185                2.96958043               82.06868575                0.33509653               -0.01760159                0.09011133                0.08826367                0.13549991               -0.00036897                0.01226544
               0.88166213                2.96296872               82.07239423                0.01000000                0.01123166               -0.19004917                0.06793415                0.30110725                0.10540786                0.08937837
               1.88206278                2.95937210               82.07828527                0.01000000               -0.02759692               -0.21749030                0.05813665                0.79966273                0.18140892                0.14143838
               2.88111019                2.96004414               82.08353959                0.01000000               -0.12312664               -0.02006228                0.05298019                1.15991286                0.15479841                0.16314147
               3.87960025                2.96313672               82.08856680                0.01279256               -0.17794706               -0.11868059                0.05535182                1.28726601                0.11740909                0.14540856
               4.87755125                2.96478983               82.09263073                0.01000000               -0.42772862               -0.09304074                0.06678762                1.47068317                0.07832446                0.12548519
               5.87104567                2.97290026               82.09636829                0.01000000               -0.63721140               -0.00174673                0.07470221                1.59006195                0.04974610                0.15553924
               6.86480702                2.97879730               82.09937904                0.01000000               -0.47915375               -0.05406685                0.10671078                1.17917116                0.00125517                0.24842268
               7.86146260                2.97829865               82.10166322                0.01000000               -0.41121998               -0.31347101                0.14153168                0.90921044                0.04184020                0.15640761
               8.85658262                2.98389297               82.10485272                0.92672562               -0.26125758               -0.03356378                0.11491734                0.16019517                0.03904415                0.04464294
               9.85623745                2.98628117               82.10721998                0.99999997               -0.03451751               -0.03762323                0.11812979               -0.00065499                0.00063729               -0.00439750
              -0.10837645                3.97102251               82.07159204                0.22985886                0.00976088                0.08411855                0.08971163                0.19476589               -0.00410509                0.05052005
               0.89172116                3.96017944               82.07592595                0.01258580                0.09396721               -0.28948876                0.05379348                0.55797174                0.08823752                0.18336748
               1.89350289                3.95614373               82.08228746                0.01000000                0.01160567               -0.21375352                0.04997377                1.08605950                0.19451243                0.10445608
               2.89195327                3.95956796               82.08814503                0.01279752               -0.20679001               -0.09117186                0.05650342                1.27712662                0.13525739                0.12707204
               3.88936709                3.96131473               82.09290592                0.01000000               -0.27911157               -0.20539444                0.06056951                1.35563114                0.08070110                0.08707971
               4.88637104                3.96508747               82.09742335                0.01000001               -0.34313796               -0.01543687                0.06101011                1.68522125                0.10226134                0.10701470
               5.88250434                3.97282102               82.10226224                0.01000000               -0.42985950               -0.02328777                0.05787768                1.99038626                0.17317966                0.16024879
               6.87777385                3.97802347               82.10727165                0.01570834               -0.50528687               -0.14500666                0.10623208                1.65288514                0.16563568                0.30936591
               7.87239860                3.97548679               82.11037735                0.01000000               -1.17808189               -0.09387596                0.21472008                1.64809797                0.11970980                0.00630138
               8.85421221                3.98355370               82.11045136                0.01000000               -0.92646623               -0.30033479                0.11486916                1.95991771               -0.10009636                0.14974758
               9.85386927                3.98591528               82.11268656                0.01217468               -0.03429402               -1.25460659                0.11742048                1.80582060                0.01149467                0.07674438
              -0.09258039                4.97126280               82.07527355                0.25918767                0.02807393               -0.13345941                0.08379927                0.11414350               -0.00576958                0.08458365
               0.90770035                4.95717895               82.08016510                0.01000000               -0.15120784               -0.09935313                0.05576230                0.69882748                0.02733874                0.16621520
               1.90439545                4.95509703               82.08579542                0.01000001               -0.31093116               -0.11459885                0.05181258                1.27046572                0.12063016                0.08834134
               2.90148172                4.95822070               82.09187568                0.01000000               -0.16010492               -0.34990357                0.06920401                1.47012650                0.11525067                0.09273017
               3.90119335                4.95902883               82.09707866                0.01000001               -0.08661682               -0.26321166                0.06061492                1.68370708                0.10397438                0.10053142
               4.89974939                4.96448110               82.10261122                0.01000000               -0.16379719               -0.08340314                0.04598676                2.14376009                0.12750253                0.12645907
               5.89791741                4.97243451               82.10806703                0.01671315               -0.22752154               -0.19499113                0.10188502                2.05425072                0.15665558                0.07216100
               6.89519896                4.97589717               82.11327879                0.01740402               -0.45115439               -0.16898947                0.12766338                1.66876264                0.10559754                0.19376494
               7.88889432                4.97642113               82.11620782                0.01000000               -0.49232346               -0.01543948                0.17612447                1.81308821                0.22799531               -0.20167878
               8.88535249                4.97788627               82.11827689                0.01000001               -0.06318033               -0.57323881                0.18895812                1.91544932               -0.05007929                0.27697948
               9.88763072                4.96118904               82.11965083                0.01000002                0.22782267               -1.30098770                0.17496820                0.94014772               -0.15950074                0.44223316
              -0.07792588                5.96835332               82.07843818                0.85287942               -0.02106408               -0.16739457                0.08169530                0.22105111                0.01004868                0.00699421
               0.92186348                5.95819238               82.08369617                0.01000001               -0.21018320                0.04573362                0.07159211                0.48449761                0.03138833                0.06701499
               1.91787045                5.95385175               82.08940810                0.01070819               -0.22197378               -0.29704839                0.08123669                1.09287473                0.10621435                0.07596228
               2.91742400                5.95256989               82.09560216                0.01000000               -0.05448051               -0.55780701                0.07224319                1.59382775                0.16303083                0.03512545
               3.91678084                5.95605050               82.10154341                0.01000000               -0.07917188               -0.34405240                0.05807947                1.98692105                0.14024672                0.16796102
               4.91584056                5.96341941               82.10763019                0.01670641               -0.23037844               -0.17585037                0.10232553                2.05620245                0.06733662                0.14857983
               5.91217327                5.96892120               82.11261325                0.01000001               -0.43390397               -0.42625474                0.20960993                2.00331281               -0.03438226               -0.03639323
               6.90716248                5.97464368               82.11740283                0.01000000               -0.27510063               -0.14414501                0.14622018                1.85017810               -0.07036640                0.16771643
               7.90667126                5.97517800               82.12194339                0.01612829                0.02954040               -0.12969375                0.10543325                1.67010405               -0.00407978               -0.01821368
               8.90775329                5.97208893               82.12436975                0.01000002               -0.03022828               -0.38079093                0.14168368                1.06259722                0.01958059               -0.07019743
               9.90606670                5.95989552               82.12586953                0.01000000               -0.16865958                0.00346304                0.23849795                0.49607942               -0.00019290                0.37193669
              -0.06783748                6.96791490               82.08063221                1.00000000               -0.02706527               -0.04389947                0.09512480                0.00809326               -0.00037725               -0.03933296
               0.93189187                6.95809362               82.08608001                0.03881903               -0.01435435               -0.01242876                0.08394596                0.04880041                0.08838573                0.00284261
               1.93187544                6.94915606               82.09330891                0.01432398               -0.03661676               -0.25973899                0.10774880                0.62155919                0.19109553               -0.16403497
               2.93115954                6.94706456               82.09819189                0.01000000               -0.08965938               -0.42687276                0.10097911                1.18295874                0.16507822                0.02798016
               3.93008225                6.95214778               82.10614568                0.01570642               -0.15783987               -0.44026725                0.10074871                1.65642520                0.29024367                0.14724529
               4.92800274                6.96096409               82.11236250                0.01740167               -0.16614238               -0.43669501                0.12812721                1.64163086                0.17997283                0.10650147
               5.92675940                6.96390941               82.11689390                0.01000000               -0.10285103               -0.30153290                0.14586478                1.83594815                0.16522676               -0.07959116
               6.92594572                6.97301427               82.12143231                0.01721565               -0.09541249               -0.16405551                0.16087700                1.97162838                0.17726885                0.17243240
               7.92485115                6.97382725               82.12570626                0.01000002               -0.20294051               -0.12786727                0.15839771                1.33382864                0.07211738               -0.03295917
               8.92188691                6.97027045               82.12990526                0.01000000               -0.14560190                0.08100416                0.13397199                0.92103653                0.01292798               -0.01322490
               9.92193911                6.96125830               82.13426025                0.01000000                0.00522059                0.19926841                0.08420392                0.62046304               -0.00481820                0.39537380
              -0.05812145                7.96747533               82.08276256                0.99999999               -0.02802234               -0.04261878                0.10433787                0.00472949                0.00160008               -0.03869792
               0.94159833                7.95794380               82.08843100                0.99999999               -0.02739290               -0.02130065                0.09826657                0.01378159                0.00592288               -0.00346590
               1.94133070                7.94865697               82.09418332                0.01013425               -0.17534372               -0.04047012                0.09504785                0.24334043                0.04489056               -0.05839319
               2.93809146                7.94403243               82.10063710                0.01000000               -0.26604364               -0.39752166                0.11987100                0.88911031                0.12801078               -0.02657165
               3.93600982                7.94724515               82.10868379                0.01000000               -0.05899533               -1.11153752                0.20803378                1.53030117               -0.04987564                0.10329166
               4.93691155                7.95468551               82.11492028                0.01000000                0.04161167               -0.58849090                0.18090421                1.81966040               -0.17983471                0.19960603
               5.93684206                7.96289054               82.12083103                0.01613863               -0.01171680               -0.03668248                0.09658725                1.70300365               -0.02385689               -0.00236530
               6.93667721                7.97136257               82.12498383                0.01000002               -0.03752010               -0.26493493                0.15193443                1.36121800               -0.03949022                0.11339773
               7.93609165                7.97262065               82.12955398                0.01000000                0.10328837                0.01155010                0.09733344                1.48880149                0.01172751                0.14132505
               8.93874298                7.97370901               82.13549259                0.01000000                0.02043071                0.30862747                0.14016310                1.25696650               -0.10559334                0.00019421
               9.93650027                7.96388089               82.14193907                0.01000002               -0.22427124                0.64390353                0.17480754                0.68362681               -0.14121303                0.19282407
              -0.04867982                8.96706253               82.08491744                1.00000000               -0.03343138               -0.03954595                0.11353610                0.00094467               -0.00019090               -0.02789349
               0.95098586                8.95766761               82.09072704                0.99999998               -0.03332810               -0.03076958                0.11019394               -0.00014071                0.00303078               -0.00499420
               1.95065362                8.94834666               82.09658164                0.99999999               -0.03161505               -0.03197333                0.10787338                0.00246741                0.01806438                0.01179820
               2.95035356                8.93911413               82.10268127                0.95724618               -0.03092118               -0.26284635                0.11037530                0.15211749                0.02517660               -0.00318781
               3.95003519                8.92991703               82.10868134                0.01000000               -0.08015012               -0.88282362                0.10940380                1.66454409                0.08658192               -0.09712479
               4.94875056                8.94919427               82.11599963                0.01000001               -0.29463860               -0.21670269                0.18905996                1.90350689                0.12324898                0.03764543
               5.94414242                8.96317576               82.12242096                0.01000002               -0.26552985               -0.09848587                0.15490487                1.12499134               -0.08748459                0.04005531
               6.94343996                8.96771557               82.12851170                0.01000001                0.40691584               -0.27649901                0.11057610                1.01167899                0.06072408                0.05095317
               7.95228074                8.97405826               82.13562792                0.01645688                0.61630176               -0.05691342                0.08802575                1.27652437                0.19814128                0.21094481
               8.95576600                8.97644300               82.14184765                0.99999997                0.14935764                0.11165667                0.15529068                0.97458126               -0.00419556                0.12729309
               9.95526789                8.97413637               82.14798465                0.99438223               -0.04981091                0.48367535                0.17962950                0.82291273               -0.00828528                0.09513574
              -0.03931271                9.96668442               82.08721764                0.99874794               -0.03759044               -0.03781134                0.12491512                0.00111072               -0.01297370               -0.01871114
               0.96031139                9.95732841               82.09304537                0.99999997               -0.03768851               -0.03391961                0.12175886               -0.00079330               -0.01213114               -0.00273520
               1.95993352                9.94801751               82.09885680                0.99928398               -0.03739774               -0.03291515                0.11744540                0.00034509               -0.00691282                0.00638326
               2.95956343                9.93877550               82.10476662                1.00000000               -0.03564786               -0.03386248                0.11369088               -0.00045458                0.00027158                0.00004539
               3.95922056                9.92958868               82.11070253                0.01215725               -0.89202394               -0.03283519                0.11095313                1.49733469                0.05578625                0.00540592
               4.94172295                9.95035146               82.11769764                0.01000002               -0.91999914                0.11571878                0.19234369                0.86384618                0.17594965               -0.03166124
               5.94082058                9.96092082               82.12306970                0.01000000                0.21526741               -0.22549448                0.23343034                0.44187233                0.26976347               -0.00410181
               6.94602830                9.96583259               82.13140650                0.01000000                0.60370654               -0.18829864                0.09649770                0.78691181                0.31876580               -0.00755006
               7.95289471                9.97148238               82.14001680                0.01927070                0.60640963               -0.25758730                0.12494016                0.56687524                0.33719546                0.23224754
               8.95815649                9.97594214               82.14582214                0.99437689                0.23385394               -0.05008581                0.18127030                0.34265008               -0.00890759                0.00781473
               9.95757179                9.97355440               82.15195914                0.99373647               -0.05847034               -0.05819707                0.20560908               -0.00838469                0.00790187               -0.00769644
              -0.13724963               -0.03317601               83.06173781                0.98627336               -0.01264085               -0.01399641                0.07242184               -0.00089716                0.00774690               -0.00294848
               0.86262396               -0.03778491               83.06502756                0.92715441               -0.00446692               -0.02808178                0.06912251                0.00409790                0.00973606                0.00315043
               1.86266103               -0.04196881               83.06835167                0.49345731                0.04527708               -0.01696330                0.06784647                0.06698584                0.01428739                0.00420141
               2.86352950               -0.04429436               83.07176168                0.33289885                0.11227178               -0.00925282                0.07572968                0.11452809               -0.01284064                0.00553616
               3.86490647               -0.04253895               83.07497480                0.23080226                0.06638700                0.01729211                0.08567447                0.19164275               -0.03022380               -0.00363014
               4.86485724               -0.03477949               83.07815258                0.26715536               -0.14582939                0.03905457                0.09347529                0.11052500               -0.02276132               -0.00320911
               5.86198988               -0.02793973               83.08110767                0.99259751               -0.16177795               -0.02176592                0.08176714                0.20079086               -0.03648606                0.01504077
               6.86162168               -0.02519833               83.08405395                1.00000000               -0.03916926               -0.02557699                0.09106247                0.00308254               -0.04611485               -0.00150269
               7.86120649               -0.02269931               83.08678777                0.99999999               -0.03985204               -0.02730561                0.09847978                0.00274308               -0.05581395                0.00773077
               8.86082464               -0.02040784               83.08949760                1.00000000               -0.03613738               -0.03137852                0.10382435               -0.00000838               -0.04499691               -0.00059103
               9.86048374               -0.01815957               83.09240675                1.00000000               -0.03408968               -0.03445250                0.11100616               -0.00018531               -0.03343471               -0.02784039
              -0.13264970                0.96668403               83.06429844                0.98358562               -0.02889636               -0.00902016                0.07689046                0.00246676                0.00009328               -0.00174741
               0.86706134                0.96193427               83.06757666                0.01000000               -0.03823436               -0.03539558                0.07241809                0.03214741                0.00140698                0.00808575
               1.86658561                0.95786156               83.07086306                0.01050710               -0.10507406               -0.00666865                0.06998111                0.11497108                0.02500222                0.08236759
               2.86495986                0.95561311               83.07458172                0.01000000               -0.22600781                0.05965896                0.06016140                0.27861218                0.08033023                0.10345878
               3.86206546                0.95763397               83.07837533                0.01306600               -0.31484875                0.13957655                0.05353991                0.50787490                0.09807304                0.08377464
               4.85866288                0.96561105               83.08213411                0.01000000               -0.14291258               -0.11474053                0.06550899                0.64770998                0.06925217                0.05953720
               5.85920721                0.97184261               83.08555380                0.01000001                0.01847080               -0.17396675                0.07516309                0.43372106                0.03495068                0.08608456
               6.85903230                0.97454590               83.08870501                0.30615537               -0.01842633               -0.01945550                0.08553692                0.02469937                0.01940862                0.03935996
               7.85883868                0.97702763               83.09186339                1.00000000               -0.02388041               -0.02787549                0.09778670                0.00843953                0.00707380                0.01619184
               8.85855469                0.97927837               83.09478982                0.99999999               -0.03025288               -0.03223086                0.10559576               -0.00113449               -0.00389058                0.00423168
               9.85823362                0.98149590               83.09771811                0.99849572               -0.03210672               -0.03555650                0.11296888               -0.00168401               -0.00253957               -0.02943325
              -0.12770078                1.96664359               83.06686817                0.60096744               -0.02098457                0.01266911                0.08297701                0.03081725               -0.00012684                0.00625506
               0.87208937                1.96150717               83.07021558                0.01051144               -0.05088033               -0.06740085                0.07492567                0.11134470                0.06958593                0.02549491
               1.87128161                1.95789782               83.07497445                0.01000001               -0.13800176               -0.05430734                0.06527856                0.35773804                0.13478368                0.14050179
               2.86932934                1.95689881               83.07948572                0.01000000               -0.31077972                0.06815379                0.06359696                0.74428900                0.12495460                0.16977690
               3.86506602                1.96025258               83.08369161                0.01000000               -0.28632689                0.10568768                0.05719057                1.00570618                0.11583332                0.16500237
               4.86360280                1.96292570               83.08747806                0.01000001               -0.16682825               -0.24495524                0.07177994                1.20342385                0.09266569                0.18140898
               5.86172945                1.96858093               83.09146266                0.01074611               -0.33360776               -0.15946923                0.08123697                1.01451339                0.03022529                0.16218873
               6.85693064                1.97441256               83.09418881                0.01436599               -0.25433215               -0.01659813                0.10176098                0.56225166                0.01426539                0.11127674
               7.85664281                1.97674318               83.09711001                0.01039625               -0.02984812               -0.20125025                0.10003197                0.22615359                0.02955355                0.06943326
               8.85633368                1.97894754               83.10015999                1.00000000               -0.03139031               -0.03244013                0.10734401                0.00034375                0.02432893                0.03085799
               9.85601500                1.98112930               83.10296262                1.00000000               -0.03186790               -0.03653621                0.11315347               -0.00088132                0.01303347               -0.02339368
              -0.12176053                2.96693741               83.06959016                0.34158929               -0.02054733                0.07900484                0.09211626                0.12200045                0.00066090                0.02059315
               0.87803400                2.96058625               83.07309992                0.01000000                0.00546317               -0.17291505                0.07416280                0.26061941                0.11225974                0.07147643
               1.87834873                2.95677541               83.07889354                0.01000000               -0.02715592               -0.22764822                0.06693456                0.73043209                0.18348251                0.13726993
               2.87749088                2.95697618               83.08406069                0.01000000               -0.10980174               -0.01612420                0.05694547                1.08397860                0.14765974                0.15140382
               3.87615270                2.95974772               83.08910201                0.01312132               -0.15439379               -0.12100688                0.05800772                1.20639966                0.09337088                0.12975126
               4.87440300                2.96071195               83.09334078                0.01000000               -0.40710440               -0.09364814                0.07578526                1.38822912                0.01524385                0.17670083
               5.86801061                2.96865322               83.09711426                0.01000001               -0.61439600               -0.01723761                0.07740920                1.53990041                0.00943027                0.13279898
               6.86211508                2.97421394               83.10027332                0.01000000               -0.45919208               -0.00089240                0.08114564                1.12453484                0.01000292                0.21114784
               7.85882677                2.97300263               83.10324957                0.01000000               -0.39698186               -0.40908560                0.14465166                0.99719227                0.01504136                0.24737458
               8.85417545                2.97862957               83.10596279                0.98326202               -0.24871449               -0.03173047                0.10878175                0.17401390                0.01385541                0.04342103
               9.85385248                2.98076518               83.10835667                0.99999996               -0.03229658               -0.03507267                0.11028658               -0.00057399               -0.00084510               -0.01023540
              -0.11255846                3.96822368               83.07255208                0.22634211                0.00222141                0.08190017                0.10085935                0.20275476               -0.00303562                0.04985928
               0.88746376                3.95804887               83.07652185                0.01307009                0.10293903               -0.28328325                0.06589792                0.49865527                0.10739718                0.16344473
               1.88950032                3.95334486               83.08282495                0.01000000                0.02864233               -0.22047481                0.06133234                1.00033772                0.17931412                0.13464961
               2.88803660                3.95657633               83.08870562                0.01311969               -0.20210379               -0.07952973                0.06088833                1.19647813                0.12516394                0.10036501
               3.88545825                3.95783244               83.09354358                0.01000000               -0.27873610               -0.21468111                0.08364542                1.25495194                0.07427447                0.07917121
               4.88246188                3.96105273               83.09800943                0.01000001               -0.32163867               -0.01597798                0.07042166                1.56597536                0.06536728                0.10389768
               5.87902547                3.96823618               83.10261186                0.01000000               -0.36949714               -0.06808360                0.04804781                1.93521812                0.12586005                0.13762852
               6.87507194                3.97439471               83.10786868                0.01697251               -0.34272255               -0.03847292                0.02905543                1.41734810                0.14290515                0.22202005
               7.87217102                3.96856147               83.11173813                0.01000000               -1.15102635               -0.20511792                0.13633175                1.62485417               -0.10181479                0.27287064
               8.85205141                3.97831293               83.11156956                0.01000000               -1.02193582               -0.18830224                0.10826609                2.00098043               -0.11132963                0.16053164
               9.85173231                3.98042784               83.11382602                0.01561091               -0.03191046               -0.95327442                0.10894167                1.67669817                0.01094570                0.15722209
              -0.09735581                4.96857541               83.07619029                0.25646795                0.02417437               -0.12705458                0.09873122                0.11077258                0.00092164                0.05568590
               0.90288593                4.95492059               83.08078850                0.01000000               -0.14080777               -0.11077338                0.07027822                0.65367446                0.04537808                0.16641902
               1.89982803                4.95236592               83.08635806                0.01000001               -0.29765360               -0.12108410                0.07785206                1.20484007                0.15806422                0.12244452
               2.89693286                4.95538559               83.09263490                0.01000000               -0.15263480               -0.34253663                0.08008731                1.39561437                0.16922353                0.03125705
               3.89677533                4.95545410               83.09766226                0.01000001               -0.08070441               -0.24720778                0.06977602                1.57049525                0.09775656                0.06830161
               4.89531877                4.96039239               83.10283426                0.01000000               -0.17011691               -0.09183931                0.06211673                1.98667394                0.14875232                0.13986774
               5.89337300                4.96729155               83.10915761                0.01000000               -0.25910061               -0.21177508                0.06310178                2.04188582                0.04435546                0.11000114
               6.89013676                4.97344448               83.11388491                0.01000000               -0.29836818               -0.10683666               -0.00270544                1.45100721               -0.25896730                0.22200350
               7.88740563                4.96890027               83.11737151                0.01000000               -0.39040399                0.10661993                0.06498527                1.61667402               -0.17691163                0.09197546
               8.88232868                4.97486352               83.11970165                0.01000001               -0.21245085               -0.57817525                0.13839231                2.29481099               -0.16589718                0.37356347
               9.88315662                4.96169969               83.12253228                0.01299826                0.08279383               -1.15477926                0.20708710                1.33753963               -0.21702948                0.64283681
              -0.08303336                5.96568259               83.07925937                0.90167443               -0.02199048               -0.16442982                0.08176771                0.22109854                0.01005160               -0.00279336
               0.91674674                5.95583341               83.08443407                0.01000001               -0.19172611                0.03864109                0.07488804                0.44240467                0.04897154                0.06521971
               1.91313212                5.95092317               83.09039640                0.01076187               -0.19430155               -0.29393576                0.09239880                1.03830887                0.12506026                0.10426960
               2.91286071                5.94972560               83.09631284                0.01000001               -0.06353850               -0.54446492                0.07501822                1.56534073                0.11010925                0.02102728
               3.91186135                5.95288828               83.10193393                0.01000000               -0.12514007               -0.28378603                0.04823531                1.94234880                0.12157902                0.11255675
               4.91035791                5.95921595               83.10871923                0.01000000               -0.25251257               -0.20060889                0.06147439                2.04409620                0.11987263                0.01800603
               5.90681110                5.96400068               83.11505399                0.01000000               -0.39372715               -0.37917203                0.12427656                2.18056362                0.07751460                0.06020836
               6.90248336                5.97225798               83.11851881                0.01000000               -0.18628223               -0.12642552                0.07777733                1.98834716                0.12563137                0.06599082
               7.90308545                5.97069387               83.12198083                0.01000001                0.13324231                0.08498663                0.00505554                1.43739470                0.00229442                0.18013350
               8.90514821                5.96674943               83.12556366                0.01302431                0.08626560               -0.43607020                0.13353640                1.16697920               -0.06616202                0.29204671
               9.90481077                5.95733226               83.12968863                0.01000000               -0.03374423               -0.21128510                0.28346713                0.79090722                0.09829385                0.29183416
              -0.07323547                6.96528681               83.08158014                1.00000000               -0.02710885               -0.04067089                0.09387692                0.00560727               -0.00076050               -0.04198262
               0.92649344                6.95569341               83.08693226                0.09748156               -0.00312568               -0.01532756                0.08564755                0.02209172                0.08874936                0.00363296
               1.92670202                6.94648720               83.09406893                0.01436813               -0.01094392               -0.22619188                0.05445039                0.56942539                0.08322033               -0.00553534
               2.92627456                6.94449629               83.09927983                0.01000000               -0.02850273               -0.41371415                0.09126542                1.13645497                0.11100185                0.00958432
               3.92613196                6.94977838               83.10666325                0.01696427               -0.05931317               -0.29023379                0.02650506                1.42701254                0.18997708                0.12177415
               4.92508830                6.95638021               83.11298052                0.01000000               -0.10948612               -0.27499758               -0.00294802                1.44197108                0.21249826               -0.26357837
               5.92394224                6.95970811               83.11800786                0.01000000               -0.09388931               -0.19391549                0.07213823                1.98077979                0.07542207                0.09945432
               6.92321051                6.97091597               83.12274753                0.01000001               -0.11400799               -0.16005775                0.10347718                2.05913271                0.01974859                0.01487859
               7.92166208                6.97060000               83.12726724                0.01423703               -0.20903220               -0.03740617                0.14363499                1.23136598                0.05932750                0.19674414
               8.91902987                6.96614212               83.13133500                0.01000000               -0.19264928                0.10615250                0.12626984                0.75137766                0.13839674                0.28793386
               9.91780909                6.95747399               83.13533175                0.01000000               -0.12207755                0.19050616                0.11486032                0.47075440                0.00500716                0.28894483
              -0.06373440                7.96486917               83.08379173                0.99999999               -0.02774169               -0.04049043                0.10143249                0.00391796                0.00348360               -0.04432718
               0.93598819                7.95552685               83.08941029                0.99913606               -0.02739279               -0.02207727                0.09755813                0.01202786                0.00929388               -0.00239281
               1.93571775                7.94639934               83.09513702                0.01000000               -0.18447775               -0.01987138                0.09603791                0.20492157                0.07494103               -0.04945517
               2.93229863                7.94145131               83.10207400                0.01000000               -0.36000329               -0.37484272                0.13151583                0.94906229                0.20879937               -0.02676066
               3.92851768                7.94708361               83.11013851                0.01000000               -0.15155178               -1.09204311                0.13845830                1.51933590                0.20239813               -0.11594201
               4.92926759                7.95371600               83.11603843                0.01000000                0.16866287               -0.38716522                0.05902309                1.53821277                0.05573536               -0.17556911
               5.93189094                7.96012237               83.12072683                0.01000001                0.17532656                0.09721273               -0.00351492                1.44802681                0.12231546               -0.00100789
               6.93277413                7.96905682               83.12636665                0.01410767                0.02978413               -0.25281941                0.12646952                1.25245870                0.16887037                0.02336538
               7.93248662                7.96994574               83.13082261                0.01000000                0.02638253               -0.02668734                0.13413997                1.17575493                0.21447102                0.15739343
               8.93330178                7.96887248               83.13713770                0.01101717               -0.04622505                0.31394287                0.14180775                1.07954551                0.17247096                0.26679739
               9.93156212                7.96114238               83.14304563                0.01000002               -0.17396567                0.62369588                0.18659373                0.78287163                0.22418200                0.54218485
              -0.05447247                8.96447701               83.08603059                1.00000000               -0.03236923               -0.03755405                0.10893230                0.00056352                0.00029091               -0.03293260
               0.94520383                8.95525186               83.09181441                0.99999998               -0.03257707               -0.03012670                0.10729960               -0.00033142                0.00416899               -0.00494830
               1.94487599                8.94608977               83.09765323                1.00000000               -0.03161495               -0.03156528                0.10651103                0.00159425                0.02135513                0.01526803
               2.94457154                8.93699944               83.10376939                0.97625226               -0.03109942               -0.23899349                0.10886899                0.15951194                0.02809080               -0.02198280
               3.94425400                8.92793752               83.10974857                0.01000000               -0.08788713               -0.97326460                0.10805646                1.82139971                0.12346238               -0.11458486
               4.94281379                8.94863691               83.11778156                0.01000001               -0.33460249               -0.28602334                0.15118583                2.14770420                0.16581584               -0.08010646
               5.93756195                8.96165237               83.12358384                0.01277513               -0.21887406                0.01438712                0.12490608                1.14275464                0.14901390               -0.05919846
               6.93843631                8.96585958               83.12941065                0.01000000                0.38997881               -0.28185351                0.09938021                0.76812658                0.18859904                0.11636236
               7.94536152                8.97006626               83.13557526                0.01251413                0.54939136               -0.08439765                0.03473991                1.08889188               -0.05739734                0.03144109
               8.94942414                8.97242098               83.14340709                0.99999998                0.17825939                0.15216855                0.15688741                0.92770909                0.06515772                0.11015044
               9.94892671                8.96994791               83.14976963                0.99999999               -0.04974273                0.41154979                0.17772630                0.74419158               -0.00832073                0.11624524
              -0.04527284                9.96411809               83.08843555                1.00000000               -0.03583715               -0.03589133                0.11825439                0.00058603               -0.01643819               -0.02274853
               0.95436879                9.95492432               83.09423825                0.99983341               -0.03625509               -0.03275421                0.11666875               -0.00100774               -0.01595064               -0.00282790
               1.95400206                9.94576803               83.10001475                1.00000000               -0.03638306               -0.03217436                0.11400207               -0.00003652               -0.01157562                0.00820626
               2.95364113                9.93667144               83.10587856                1.00000000               -0.03469271               -0.03279904                0.11025174               -0.00052658               -0.00455617               -0.00082670
               3.95330820                9.92761832               83.11177636                0.01698917               -0.75671491               -0.03191999                0.10758847                1.47162486                0.09841935                0.00611138
               4.93850683                9.94799553               83.11969077                0.01282687               -0.78924230               -0.06413771                0.19427788                1.20889332                0.37000447               -0.14962229
               5.93752336                9.96041011               83.12698402                0.01000000                0.06079693               -0.12422545                0.28024225                0.76735220                0.18688538                0.08895420
               6.93972277                9.96341975               83.13242093                0.01000000                0.50898506               -0.24398267                0.14227490                0.52102949                0.02359432                0.06115761
               7.94770306                9.96825779               83.13958406                0.01548580                0.61257702               -0.18084655                0.04757928                0.65895824                0.10974290               -0.01743023
               8.95197431                9.97191585               83.14763842                0.99999999                0.18445182               -0.05051315                0.18234250                0.31079628                0.09226211                0.00773786
               9.95139210                9.96937338               83.15400096                0.99301815               -0.05822121               -0.05745278                0.20318140               -0.00770846                0.00781908               -0.00774419
              -0.14044614               -0.03578392               84.06243896                0.98066586               -0.01200567               -0.01286637                0.06765591                0.00000584                0.00759656               -0.00241305
               0.85943380               -0.04032512               84.06571437                0.91364653               -0.00442475               -0.02790530                0.06816774                0.00467517                0.01164264                0.00178180
               1.85946536               -0.04444784               84.06905063                0.51737103                0.03550144               -0.01865389                0.07165163                0.05421813                0.02448776                0.00381830
               2.86014383               -0.04698828               84.07257052                0.33494810                0.09842020               -0.01456050                0.08374258                0.11408048                0.00898103                0.00302710
               3.86143376               -0.04579352               84.07591695                0.22774829                0.06576841                0.01025622                0.09993172                0.19674845               -0.01512284               -0.00182588
               4.86145920               -0.03859907               84.07917581                0.26776603               -0.14036108                0.03262420                0.10957017                0.10875862               -0.05102602                0.00795866
               5.85862654               -0.03219535               84.08194943                0.99946553               -0.15976830               -0.02403103                0.08601085                0.19849354               -0.04961579                0.01553635
               6.85826383               -0.02983132               84.08496993                1.00000000               -0.03797861               -0.02646775                0.09176147                0.00225733               -0.04858103               -0.00054712
               7.85786697               -0.02768056               84.08776407                1.00000000               -0.03787146               -0.02733961                0.09642238                0.00198297               -0.06055425                0.00989008
               8.85750640               -0.02570751               84.09051936                0.99829778               -0.03413373               -0.03030824                0.09976156               -0.00035803               -0.04981585                0.00023344
               9.85718430               -0.02376736               84.09348924                1.00000000               -0.03221044               -0.03247833                0.10462989               -0.00061868               -0.03701039               -0.02999179
              -0.13590489                0.96408741               84.06505282                0.97494193               -0.02826009               -0.00812065                0.07375377                0.00278875               -0.00045514                0.00052934
               0.86381251                0.95939583               84.06830428                0.01000001               -0.03779919               -0.03539125                0.07308090                0.03102699                0.00117687                0.00598678
               1.86333912                0.95536562               84.07158063                0.01118102               -0.09275178               -0.01395357                0.07394079                0.10077523                0.01946654                0.07904868
               2.86195747                0.95286611               84.07522174                0.01000000               -0.20662415                0.04370282                0.06861170                0.25505802                0.06163578                0.11386960
               3.85920664                0.95430904               84.07895793                0.01000000               -0.31048872                0.10276164                0.06496790                0.50595456                0.08702114                0.11005224
               4.85574770                0.96172717               84.08284453                0.01000000               -0.14895185               -0.10155631                0.08118743                0.62996456                0.07591958                0.09409210
               5.85622760                0.96756434               84.08634627                0.01000000                0.01406552               -0.16326898                0.08305847                0.40773069                0.03533830                0.09080627
               6.85602901                0.96990400               84.08958146                0.34840903               -0.02013551               -0.02033221                0.08971858                0.02223178                0.02102320                0.04692307
               7.85582489                0.97204604               84.09283664                1.00000000               -0.02413945               -0.02803752                0.09717764                0.00741882                0.00813954                0.01958409
               8.85554622                0.97398941               84.09582892                0.99999998               -0.02934686               -0.03116595                0.10229401               -0.00098903               -0.00453737                0.00554348
               9.85523796                0.97590786               84.09881947                0.99999999               -0.03082621               -0.03356655                0.10720493               -0.00166005               -0.00329255               -0.03165893
              -0.13100720                1.96405366               84.06769476                0.61489449               -0.02166702                0.01104829                0.08199900                0.02817635               -0.00020401                0.01307289
               0.86877613                1.95896706               84.07098118                0.01118502               -0.04911078               -0.06519242                0.07805969                0.10054314                0.06823361                0.02028634
               1.86801058                1.95527309               84.07564284                0.01000001               -0.12372810               -0.05493136                0.07040155                0.31756262                0.13140691                0.13801730
               2.86630157                1.95388577               84.08017594                0.01000000               -0.26593945                0.04931039                0.06928256                0.64430389                0.13062162                0.18256799
               3.86269179                1.95626171               84.08434067                0.01000000               -0.27491877                0.07853631                0.07925365                0.92324840                0.20158260                0.15857191
               4.86080319                1.95936980               84.08839049                0.01000001               -0.20437325               -0.19673456                0.09320935                1.11868661                0.13759438                0.24288301
               5.85860433                1.96453927               84.09229151                0.01097188               -0.32882149               -0.15786476                0.08966722                0.92331818                0.02840309                0.18369545
               6.85422676                1.96976203               84.09515768                0.01465255               -0.23371945               -0.02818056                0.09649091                0.50310890                0.01886639                0.10693503
               7.85392994                1.97175869               84.09810161                0.01000000               -0.03009782               -0.17140123                0.09957846                0.20781008                0.03053372                0.08817205
               8.85362480                1.97366917               84.10122026                0.99999999               -0.03078736               -0.03187941                0.10512869                0.00045197                0.02620775                0.03153293
               9.85331419                1.97556131               84.10407314                1.00000000               -0.03106124               -0.03474022                0.10856697               -0.00104486                0.01364126               -0.02854194
              -0.12516815                2.96430838               84.07052807                0.35318196               -0.02279053                0.06829533                0.09461307                0.10988545                0.00114531                0.03238630
               0.87460394                2.95809198               84.07387749                0.01000000               -0.00300937               -0.16036508                0.08128707                0.23893610                0.11914238                0.05741047
               1.87477166                2.95426700               84.07962396                0.01000000               -0.03745091               -0.19504400                0.07380019                0.63275788                0.18980184                0.14425447
               2.87385493                2.95385232               84.08467850                0.01000000               -0.12920420               -0.04423601                0.07336082                0.95245637                0.14967744                0.15624465
               3.87218758                2.95587977               84.08972696                0.01000001               -0.20055257               -0.09619072                0.06444525                1.13985713                0.07673435                0.14638930
               4.86984387                2.95779248               84.09414644                0.01000000               -0.39429193               -0.08489279                0.07668338                1.31670985               -0.06163593                0.27900257
               5.86430174                2.96440704               84.09791647                0.01000001               -0.54860534               -0.05045170                0.08478911                1.40529337               -0.03702337                0.13404794
               6.85887177                2.96934039               84.10100195                0.01000000               -0.41138902               -0.04548777                0.09221006                1.07449441                0.00774007                0.14762319
               7.85607396                2.96861802               84.10455626                0.01059263               -0.35595651               -0.24682119                0.09282770                0.83714570                0.01645110                0.32313159
               8.85175264                2.97335182               84.10702835                0.97951461               -0.23205895               -0.03218483                0.10855694                0.14339810                0.00160022                0.04173778
               9.85143278                2.97521305               84.10942571                0.99999993               -0.03198574               -0.03386043                0.10726265               -0.00082324               -0.00241641               -0.01795403
              -0.11637670                3.96541957               84.07360923                0.22769009               -0.00270706                0.06804242                0.10910870                0.20450715               -0.00198619                0.05533901
               0.88359623                3.95575976               84.07724391                0.01000000                0.06410493               -0.27484352                0.07880467                0.48944201                0.12624979                0.14636277
               1.88490540                3.95137221               84.08351410                0.01000000                0.00708430               -0.21462652                0.08189864                0.90899880                0.16471404                0.22227960
               2.88373792                3.95300105               84.08936280                0.01000001               -0.16783141               -0.13068464                0.06627321                1.13363782                0.14303937                0.08337704
               3.88154877                3.95433790               84.09457883                0.01000000               -0.25639026               -0.19376284                0.08760606                1.27162215                0.11394642                0.12080153
               4.87861011                3.95767195               84.09883178                0.01000000               -0.31932427               -0.06119118                0.10179774                1.52887724                0.08298310                0.19533855
               5.87516229                3.96353024               84.10322320                0.01000000               -0.35522194               -0.11073237                0.08248993                1.73162299                0.07089423                0.13881767
               6.87150568                3.96885228               84.10785276                0.01000000               -0.42504324                0.01733633               -0.00384437                1.31129886                0.04528662                0.04261235
               7.86666142                3.96682227               84.11310398                0.01000000               -1.08039716               -0.03000361               -0.01124099                1.38192924               -0.54796602                0.54793432
               8.84989773                3.97302547               84.11261669                0.01121376               -0.85430829               -0.09941898                0.11046036                1.65914840               -0.12447472                0.17148932
               9.84957526                3.97488410               84.11486539                0.13084466               -0.03224742               -0.85149465                0.10752514                1.49566640                0.01092348                0.16091172
              -0.10175838                4.96566923               84.07724818                0.26744773                0.01985216               -0.12559811                0.11109854                0.10771082                0.00947110                0.02142152
               0.89844014                4.95259511               84.08157067                0.01000000               -0.12656405               -0.12033707                0.08791043                0.62074387                0.07741662                0.16207660
               1.89571034                4.94997447               84.08735246                0.01000001               -0.24390759               -0.15729714                0.09986085                1.11154989                0.21236503                0.17400031
               2.89356199                4.95123863               84.09347742                0.01000000               -0.13806083               -0.33277758                0.07902753                1.31903942                0.26435283               -0.04062851
               3.89294912                4.95200451               84.09847418                0.01000000               -0.11664545               -0.25186311                0.10079857                1.52936484                0.18177228                0.08691952
               4.89122908                4.95656866               84.10385356                0.01000000               -0.25976275               -0.20193386                0.11399252                1.83478633                0.18912590                0.17181588
               5.88775387                4.96219240               84.10932906                0.01000001               -0.47116835               -0.11275588                0.03515887                2.09400781                0.08284383                0.14423806
               6.88180572                4.96968712               84.11322468                0.01000000               -0.41072610               -0.08757041                0.01291548                1.85340754               -0.01878806                0.01445730
               7.87953935                4.96801795               84.11750752                0.01000000               -0.24659735                0.10313343                0.01866163                1.73435984               -0.18926986                0.37897667
               8.87687377                4.97136344               84.12104474                0.01000003               -0.09552479               -0.33644817                0.08767610                1.94948626               -0.16587457                0.26037229
               9.87762885                4.95818316               84.12379258                0.01275982                0.07550830               -1.09756818                0.12995723                1.19234041               -0.19997447                0.45492328
              -0.08807425                5.96290761               84.08007354                0.95425041               -0.02198820               -0.15631688                0.08061674                0.20461329                0.01014936               -0.01813097
               0.91170587                5.95335301               84.08519393                0.01000000               -0.17164349                0.02974699                0.07627977                0.40282900                0.05690935                0.05805267
               1.90849288                5.94822627               84.09125608                0.01097602               -0.18086064               -0.28348618                0.08761923                0.92372100                0.13778457                0.08817433
               2.90808866                5.94634550               84.09710252                0.01000001               -0.08434225               -0.48717701                0.08270192                1.41488162                0.09391394               -0.01754906
               3.90680604                5.94930064               84.10250812                0.01000000               -0.14853510               -0.28129121                0.07738409                1.72598740                0.11686052                0.05028436
               4.90511796                5.95363327               84.10885968                0.01000001               -0.14410262               -0.40976690                0.03126928                2.08267501                0.16579616                0.02983576
               5.90392399                5.96127512               84.11509878                0.01000000               -0.11848404               -0.09833664               -0.01045004                2.21072808                0.15169119                0.09647395
               6.90274828                5.96710087               84.11895837                0.01000000               -0.21258451               -0.21115590                0.04671946                2.14427023                0.12070991               -0.01070104
               7.89967230                5.96888493               84.12204450                0.01000001               -0.20130167                0.04512019                0.08918402                1.85532630                0.04445052                0.28414538
               8.89872224                5.96629651               84.12704048                0.01000001                0.00551630               -0.34541742                0.13926210                1.18821842               -0.05751320                0.34268400
               9.89978262                5.95293274               84.13153888                0.01000000                0.10603797               -0.22514828                0.13943039                0.48446777               -0.09341929                0.28120880
              -0.07855692                6.96254289               84.08250975                1.00000000               -0.02650124               -0.03846325                0.09144443                0.00398320               -0.00096849               -0.04336637
               0.92117806                6.95319005               84.08779296                0.14625170               -0.01254010               -0.01696092                0.08592238                0.02474516                0.06562061                0.00458629
               1.92119227                6.94430474               84.09439792                0.01464699               -0.01964052               -0.20713445                0.04668527                0.49889790                0.06793388                0.01795615
               2.92078525                6.94149509               84.10001720                0.01000000               -0.05055864               -0.36689211                0.08749722                1.06256203                0.06038012                0.00496665
               3.92018110                6.94637869               84.10667578                0.01000000                0.00614244               -0.37298198                0.00078706                1.30827786                0.01139474               -0.00534991
               4.92090810                6.94837332               84.11230354                0.01000000               -0.08401345               -0.36300908               -0.00848576                1.80834762                0.01892892               -0.07992264
               5.91850083                6.96022566               84.11833666                0.01000000               -0.19133986               -0.19903598                0.03760003                2.10634162                0.01718627                0.06057125
               6.91708131                6.96546400               84.12350186                0.01000001               -0.05252999               -0.09670574                0.08375044                1.79526226               -0.03080552               -0.07236963
               7.91745023                6.96892035               84.12857896                0.01000001               -0.02454862               -0.07122160                0.11506737                1.44644118               -0.06165113                0.17591079
               8.91659033                6.96445509               84.13243066                0.01000003               -0.17022406                0.03381789                0.15240320                0.80034900                0.00648573                0.36653417
               9.91404575                6.95368020               84.13655746                0.01000000               -0.25445815                0.36769837                0.23323157                0.39178119                0.03784203                0.38927683
              -0.06928890                7.96213834               84.08479121                1.00000000               -0.02721744               -0.03914155                0.09835480                0.00330910                0.00555635               -0.04917822
               0.93043892                7.95301380               84.09038216                1.00000000               -0.02726453               -0.02246802                0.09671570                0.01068894                0.01272190               -0.00128643
               1.93016581                7.94408358               84.09610408                0.01000001               -0.15864852               -0.02652275                0.09730362                0.19636644                0.09104691               -0.01775639
               2.92726595                7.93900766               84.10326742                0.01061069               -0.20362219               -0.33125824                0.08749605                0.78961025                0.31061139               -0.04325027
               3.92609336                7.94184100               84.11145296                0.01000000                0.00859914               -1.01956058                0.00633724                1.28383005                0.46045345               -0.54471585
               4.92743794                7.94637309               84.11610074                0.01000000                0.14333894               -0.22167626               -0.00358836                1.63884537                0.30354747               -0.21577152
               5.92896014                7.95729440               84.12076074                0.01000001                0.12604501               -0.22455333                0.07058526                1.78932215                0.22926302               -0.02001790
               6.92995884                7.96516675               84.12751322                0.01000001                0.03249427               -0.07377283                0.11904448                1.41526602                0.14775119               -0.09977713
               7.92961003                7.96746050               84.13223678                0.01000003                0.00052715               -0.14973599                0.19683679                1.07461158                0.15573915                0.09272737
               8.92996938                7.96697287               84.13832874                0.01557937               -0.02209946                0.18451001                0.15072599                0.95553259                0.26351816                0.36016010
               9.92916804                7.96028671               84.14567095                0.01000002               -0.08013408                0.59128736                0.12097346                0.74791554                0.31816104                0.37307032
              -0.06024165                8.96176006               84.08709609                0.99781426               -0.03117467               -0.03594112                0.10395806                0.00016500                0.00093520               -0.03769946
               0.93944661                8.95274069               84.09287304                0.99999998               -0.03163068               -0.02948084                0.10431856               -0.00057588                0.00533773               -0.00510935
               1.93912574                8.94377429               84.09871186                1.00000000               -0.03132842               -0.03124954                0.10534848                0.00125615                0.02447208                0.01811589
               2.93882004                8.93486992               84.10485865                0.98574151               -0.03167344               -0.22335122                0.11005504                0.13289664                0.03155562               -0.02762965
               3.93849227                8.92598748               84.11084246                0.01088037               -0.02942148               -0.80928410                0.11233488                1.51766225                0.13218823               -0.12272391
               4.93823161                8.94393979               84.11902334                0.01000003               -0.14993306               -0.14162540                0.09146265                1.81122821                0.16736569               -0.19410263
               5.93549361                8.95573460               84.12491908                0.01000001               -0.15055432               -0.06974364                0.13455749                1.14583692                0.21056498               -0.11001991
               6.93522052                8.96398854               84.13049930                0.01000003                0.08213703               -0.20657899                0.16967929                0.70661761                0.22649685                0.00241525
               7.93713635                8.96592563               84.13632272                0.01000000                0.38271291               -0.21721615                0.23500741                0.72094025                0.18205181                0.11704584
               8.94287478                8.96814529               84.14498540                0.99999999                0.26200181                0.03306871                0.15879664                0.75978828                0.09717577                0.11693216
               9.94237639                8.96550594               84.15153917                0.99996064               -0.04983939                0.23250734                0.17621626                0.52781731               -0.00835190                0.06088949
              -0.05124687                9.96141952               84.08958273                1.00000000               -0.03399581               -0.03405376                0.11114223               -0.00005614               -0.01951129               -0.02666109
               0.94841318                9.95242418               84.09537875                0.99914091               -0.03457182               -0.03165110                0.11144648               -0.00138970               -0.01941539               -0.00316458
               1.94806170                9.94345859               84.10113684                0.99999999               -0.03512412               -0.03156990                0.11048050               -0.00058145               -0.01609865                0.00956880
               2.94771069                9.93454063               84.10697165                0.99999998               -0.03424820               -0.03292870                0.10900335               -0.00109803               -0.00916997               -0.00169645
               3.94737673                9.92565532               84.11285430                0.09072038               -0.68976571               -0.03321614                0.10914351                1.33844366                0.13542325                0.00722744
               4.93391538                9.94354058               84.12158319                0.01349422               -0.77743004               -0.03992128                0.15538590                1.08058756                0.31220465               -0.16909347
               5.93182813                9.95589953               84.12867454                0.01000000               -0.00076128                0.01649291                0.15812547                0.50818199                0.11773204               -0.13372913
               6.93390015                9.96103517               84.13425200                0.01000000                0.40219741               -0.29533658                0.24585564                0.22879577                0.15809218                0.05817868
               7.93987208                9.96311618               84.14096838                0.01018269                0.58423389               -0.28094517                0.28022894                0.60352643                0.14150212                0.13243420
               8.94558483                9.96763424               84.14946899                0.99999995                0.25654995               -0.05110486                0.18380473                0.36203878                0.10505464                0.00770197
               9.94500308                9.96493685               84.15602277                0.99995665               -0.05817516               -0.05690900                0.20122428               -0.00706964                0.00777390               -0.00778549
              -0.14364852               -0.03845199               85.06309092                0.97555961               -0.01063415               -0.01092008                0.06299915                0.00096804                0.00759081               -0.00243608
               0.85624514               -0.04292910               85.06639091                0.90032910               -0.00284264               -0.02837094                0.06709745                0.00616866                0.01396532                0.00040559
               1.85629463               -0.04695245               85.06978471                0.54852041                0.02988265               -0.01972289                0.07453281                0.04592796                0.03447336                0.00323681
               2.85684280               -0.04953626               85.07343653                0.34604278                0.08520416               -0.01786621                0.08738727                0.11200032                0.03099056                0.00208660
               3.85799871               -0.04865741               85.07697343                0.23246074                0.04807276                0.00687060                0.10685305                0.19736221                0.00204969               -0.00033052
               4.85780425               -0.04195775               85.08034398                0.29364860               -0.13976358                0.02359772                0.11736369                0.11060325               -0.08642552                0.02208042
               5.85520344               -0.03642270               85.08282789                1.00000000               -0.14844142               -0.02606529                0.09032270                0.17363194               -0.06623032                0.01513771
               6.85483542               -0.03443232               85.08588918                1.00000000               -0.03787307               -0.02710607                0.09196405                0.00149827               -0.05026383                0.00072748
               7.85444598               -0.03264667               85.08871622                0.99999998               -0.03661340               -0.02715667                0.09351537                0.00130387               -0.06413298                0.01170158
               8.85410315               -0.03102229               85.09149284                0.99999999               -0.03210976               -0.02893613                0.09413910               -0.00086377               -0.05347044                0.00079181
               9.85380379               -0.02941987               85.09449934                1.00000000               -0.02993680               -0.03013105                0.09623271               -0.00146851               -0.03957233               -0.03217512
              -0.13916172                0.96143881               85.06577351                0.96675746               -0.02812179               -0.00591091                0.07027380                0.00337864               -0.00127578                0.00225648
               0.86055706                0.95678719               85.06903827                0.01000001               -0.03903951               -0.03656016                0.07353204                0.03361677                0.00038980                0.00423152
               1.86005749                0.95285032               85.07234188                0.01000000               -0.08708897               -0.02163533                0.07828351                0.09591303                0.01375344                0.07671500
               2.85881528                0.95028508               85.07595395                0.01027618               -0.19372006                0.03148315                0.07792792                0.24810583                0.04452607                0.11966447
               3.85618308                0.95141129               85.07967469                0.01000000               -0.30111766                0.06561976                0.07989161                0.54387743                0.07773995                0.14359038
               4.85279293                0.95827822               85.08375786                0.01000000               -0.15030198               -0.07803975                0.10425694                0.62524776                0.08076284                0.12038075
               5.85317705                0.96331665               85.08721497                0.01000000                0.00847314               -0.14463291                0.09143273                0.36726385                0.02974148                0.09564504
               6.85296239                0.96529662               85.09049939                0.39283483               -0.02115194               -0.02184555                0.09409557                0.02137829                0.02115983                0.05061245
               7.85275401                0.96708177               85.09380695                1.00000000               -0.02406353               -0.02831623                0.09696333                0.00683233                0.00840884                0.02222185
               8.85248112                0.96868834               85.09683570                0.99999998               -0.02836647               -0.02994707                0.09891256               -0.00098957               -0.00496662                0.00647603
               9.85218668                0.97027882               85.09986221                1.00000000               -0.02944410               -0.03139582                0.10093468               -0.00203876               -0.00361980               -0.03440764
              -0.13427770                1.96142979               85.06850815                0.63284141               -0.02163331                0.01159298                0.08030489                0.02725377               -0.00047041                0.02016103
               0.86550597                1.95633969               85.07177677                0.01000001               -0.05036513               -0.06577280                0.08062653                0.09744760                0.06645409                0.01599218
               1.86471500                1.95261484               85.07638248                0.01000001               -0.11310134               -0.05305401                0.08004499                0.30199907                0.13514881                0.14597692
               2.86324394                1.95109341               85.08087138                0.01000000               -0.19159373                0.03145674                0.07777281                0.58031435                0.13185339                0.21985203
               3.86088312                1.95265498               85.08527668                0.01024503               -0.24200439                0.05130284                0.09396781                0.87122060                0.18080246                0.21948628
               4.85840385                1.95648145               85.08934225                0.01000001               -0.26763983               -0.12137611                0.09712142                1.01087536                0.14213197                0.24035223
               5.85553032                1.96068464               85.09325600                0.01139669               -0.34529905               -0.14570769                0.09823221                0.79434517                0.04336214                0.20064045
               6.85149787                1.96513077               85.09611863                0.01535091               -0.21697113               -0.04126501                0.09948799                0.43850377                0.01958328                0.11782852
               7.85119090                1.96678701               85.09910158                0.01000000               -0.03057797               -0.13094389                0.10110670                0.18116870                0.03340820                0.06707530
               8.85088631                1.96837876               85.10226256                1.00000000               -0.03044200               -0.03102239                0.10407686                0.00110394                0.02786885                0.03381573
               9.85058206                1.96995221               85.10513396                0.99999998               -0.03042483               -0.03324848                0.10430557               -0.00151722                0.01405527               -0.03277326
              -0.12843645                2.96167067               85.07148242                0.37035499               -0.02425882                0.05902822                0.09565834                0.10061393                0.00154980                0.04527265
               0.87132096                2.95547173               85.07472566                0.01025013               -0.01098968               -0.15283733                0.08847045                0.23482406                0.12055821                0.04651492
               1.87134375                2.95178924               85.08036955                0.01000000               -0.04697663               -0.12764477                0.08282828                0.57016045                0.21667015                0.15001911
               2.87038143                2.95091422               85.08552791                0.01000000               -0.15621502               -0.08242287                0.09097720                0.86184178                0.16969130                0.18130233
               3.86821945                2.95243735               85.09039091                0.01000001               -0.27003268               -0.05768652                0.08181657                1.11607751                0.11118121                0.19565072
               4.86498077                2.95585070               85.09487444                0.01000000               -0.39024105               -0.06145342                0.08339013                1.25192341                0.03377365                0.26830025
               5.86041463                2.96040249               85.09881004                0.01000000               -0.46753370               -0.05423517                0.09630015                1.22563380                0.00406529                0.17304246
               6.85563010                2.96447132               85.10211752                0.01146737               -0.36426235               -0.10532740                0.10216283                0.93297039                0.02079122                0.12853827
               7.85312938                2.96446289               85.10510613                0.01510357               -0.31460528               -0.01090620                0.05648026                0.44267241                0.08823387                0.11956427
               8.84933799                2.96806790               85.10813392                0.99488901               -0.20599748               -0.03262153                0.11194549                0.10325805                0.03030084                0.04504325
               9.84900944                2.96961385               85.11050192                0.99999997               -0.03285576               -0.03364993                0.10667636               -0.00183945               -0.00318294               -0.02224537
              -0.11986755                3.96261035               85.07473425                0.23605018               -0.00485762                0.04344318                0.11314344                0.19851336               -0.00029865                0.06376611
               0.88008387                3.95328295               85.07809794                0.01000000                0.02716341               -0.26298162                0.09233651                0.52303084                0.14937392                0.13247361
               1.88067572                3.95006195               85.08446292                0.01024101               -0.01256053               -0.18426455                0.09507719                0.84934123                0.21796255                0.20657250
               2.87983266                3.94944495               85.09003109                0.01000001               -0.12037659               -0.20404634                0.08173478                1.10780374                0.18461884                0.12381148
               3.87826819                3.95150125               85.09529570                0.01000000               -0.21777447               -0.15870755                0.08250998                1.38113137                0.17620717                0.18502596
               4.87547717                3.95525238               85.10004539                0.01000000               -0.34229016               -0.10249459                0.11563270                1.56821575                0.12942869                0.23707777
               5.87142238                3.95959994               85.10426165                0.01052748               -0.46901455               -0.10508833                0.13481108                1.65079757                0.07549492                0.18301567
               6.86609688                3.96302422               85.10779179                0.01000000               -0.74873057               -0.09216562                0.05841448                1.64606907               -0.04027020                0.08587986
               7.85644777                3.96656888               85.11151331                0.01120077               -0.91481862                0.15381985               -0.03350224                1.36864556               -0.25704985                0.28626727
               8.84780051                3.96772633               85.11377877                0.01000000               -0.44972023               -0.12103615                0.11860118                1.30492355                0.01726518                0.13390991
               9.84745337                3.96927921               85.11597653                0.11901068               -0.03471433               -0.77445907                0.11095573                1.38788873                0.01237327                0.16691458
              -0.10581137                4.96253953               85.07841226                0.29860563                0.01413524               -0.12759781                0.11695137                0.10707648                0.01993601               -0.01777115
               0.89432998                4.95021210               85.08254671                0.01000000               -0.10100283               -0.12553884                0.10737519                0.60914638                0.09711206                0.15209955
               1.89216857                4.94810395               85.08835527                0.01000001               -0.16158939               -0.22103753                0.09817461                0.99623466                0.20249030                0.17651931
               2.89109820                4.94683329               85.09421545                0.01000000               -0.10669638               -0.33050524                0.08239592                1.24067657                0.24368211                0.05189851
               3.89003465                4.94926320               85.09967823                0.01000000               -0.14258979               -0.29044436                0.11528678                1.55703691                0.22293618                0.12516119
               4.88824640                4.95380081               85.10511411                0.01175277               -0.21879506               -0.19448522                0.09725251                1.73217610                0.24882686                0.22747796
               5.88565875                4.95830073               85.10986079                0.01000000               -0.33319326               -0.13386913                0.07113026                1.85755205                0.24474921                0.09042180
               6.88158253                4.96262801               85.11414322                0.01000001               -0.49292814               -0.06287183                0.11309486                2.05467584                0.28913743                0.00885945
               7.87580018                4.96753929               85.11774474                0.01000000               -0.44282003               -0.06317735                0.09144061                2.12318760                0.24242831                0.12267367
               8.87272613                4.96564717               85.12145517                0.01000001               -0.10693673               -0.27545730                0.07944476                1.66442207                0.13303382                0.16711062
               9.87366145                4.95412467               85.12513143                0.01000001                0.09353141               -0.95438316                0.07710112                1.17236065                0.12930457                0.28517967
              -0.09307115                5.96005840               85.08087170                0.98160375               -0.02264611               -0.14188562                0.08179695                0.17088309                0.01059509               -0.03799259
               0.90670238                5.95077217               85.08595966                0.01000000               -0.14748126                0.01924010                0.07953138                0.35852488                0.06418937                0.04326159
               1.90397922                5.94564120               85.09214879                0.01139916               -0.16077198               -0.30528116                0.09064676                0.78652774                0.15562345                0.08606496
               2.90348694                5.94283485               85.09796688                0.01000000               -0.07689073               -0.42012829                0.09277092                1.20786384                0.12873270                0.02016969
               3.90244141                5.94569236               85.10348161                0.01053821               -0.12018888               -0.42683275                0.12937201                1.62833486                0.15076093                0.04484027
               4.90108317                5.95136268               85.10934461                0.01000000               -0.13475886               -0.31300556                0.07370938                1.83948939                0.10752564                0.16651075
               5.89974623                5.95692256               85.11484499                0.01138114               -0.15656624               -0.15215723                0.00430729                1.89165037                0.10037180                0.02406578
               6.89795184                5.96176678               85.11945319                0.01000000               -0.19269357               -0.08571375                0.08565913                1.95761759                0.04644653               -0.07330410
               7.89589236                5.96530534               85.12376451                0.01000000               -0.17241361               -0.18066720                0.15572823                1.80752396                0.00943300                0.02567941
               8.89450357                5.96221719               85.12834890                0.01000000               -0.09733825               -0.17313154                0.12816939                1.16705816                0.00441022                0.21883128
               9.89394559                5.95019155               85.13247724                0.01000000               -0.05579784               -0.14986059                0.11033527                0.62998017               -0.06978071                0.34138560
              -0.08382125                6.95970182               85.08340903                0.99932417               -0.02610675               -0.03795630                0.08932071                0.00280668               -0.00047271               -0.04388321
               0.91591768                6.95059690               85.08865071                0.18260464               -0.01711485               -0.01755620                0.08675721                0.02619369                0.05503746                0.00638834
               1.91583645                6.94199833               85.09500264                0.01535176               -0.03566896               -0.19554617                0.07597499                0.42540154                0.08883684                0.01410279
               2.91520430                6.93843072               85.10102977                0.01147791               -0.08814717               -0.35449971                0.09398346                0.92016269                0.06808222                0.02763058
               3.91407351                6.94072654               85.10667900                0.01000000               -0.06991543               -0.68348781                0.06296318                1.57810010                0.02959501               -0.07731287
               4.91380600                6.94754070               85.11281080                0.01000001               -0.04929314               -0.43409576                0.08794453                1.97393191                0.02504425                0.11773350
               5.91308765                6.95525758               85.11875986                0.01000000               -0.07269449               -0.18914800                0.08450470                1.93452619                0.02842314               -0.09608457
               6.91235211                6.96091373               85.12442254                0.01000000               -0.07936947               -0.08514738                0.09229903                1.74848118               -0.05317418               -0.11781812
               7.91150026                6.96392594               85.12956859                0.01000001               -0.05855109               -0.06244049                0.08861280                1.50821661               -0.09666004                0.04612429
               8.91118108                6.96218454               85.13438306                0.01523096               -0.05939670                0.06518728                0.13812084                0.89179580               -0.05061074                0.20570640
               9.91031232                6.95112746               85.13999638                0.01000000               -0.08687595                0.17152613                0.22359467                0.35905860                0.09793108                0.23463664
              -0.07480518                7.95929927               85.08575883                0.99999998               -0.02650641               -0.03851634                0.09478235                0.00285658                0.00757225               -0.05329075
               0.92492975                7.95042105               85.09134461                0.99879127               -0.02706942               -0.02219044                0.09588327                0.01040692                0.01599704                0.00032532
               1.92465343                7.94173027               85.09708309                0.01321508               -0.08838856               -0.02894974                0.09925238                0.14335806                0.07341809                0.00190743
               2.92316198                7.93574485               85.10382393                0.01513204                0.01200031               -0.28440563                0.05407314                0.40800364                0.15784871                0.02944751
               3.92489343                7.93202261               85.11026525                0.01119474                0.14343929               -0.83224234               -0.03603254                1.27977379                0.30992055               -0.29914946
               4.92603077                7.94268076               85.11596666                0.01000000                0.00851431               -0.41341512                0.06601640                1.96977434                0.25831374               -0.05637434
               5.92506372                7.95313960               85.12213853                0.01000000               -0.08888292               -0.18597110                0.13997144                1.72963575                0.08469225               -0.08899416
               6.92425311                7.96006384               85.12874754                0.01000001               -0.01389209               -0.08723163                0.10558580                1.50637149                0.06997464               -0.10414526
               7.92478588                7.96405653               85.13475935                0.01258780                0.04424323               -0.01251866                0.19270501                1.32366502                0.11325545                0.21124109
               8.92513797                7.96352093               85.14015222                0.01000001               -0.07724703                0.07174143                0.19425058                0.72678326                0.00382706                0.10739730
               9.92324094                7.95362207               85.14546510                0.01169332               -0.18970351                0.48432091                0.06630677                0.27710404               -0.08013979               -0.00463590
              -0.06600766                8.95893149               85.08810975                0.99999999               -0.02975151               -0.03438431                0.09798499               -0.00033563                0.00133112               -0.04219754
               0.93369482                8.95015309               85.09390078                0.99999998               -0.03062633               -0.02857189                0.10108107               -0.00077701                0.00625511               -0.00527780
               1.93337981                8.94141933               85.09976019                0.99999995               -0.03113901               -0.03104158                0.10482845                0.00116370                0.02779986                0.02080673
               2.93307204                8.93274261               85.10597049                0.99807101               -0.03233681               -0.16666648                0.11251208                0.06203285                0.03589960                0.00075794
               3.93273307                8.92408170               85.11199526                0.01000000               -0.04937736               -0.41417048                0.11788834                1.15207384                0.10483184               -0.00154170
               4.93208449                8.93927240               85.11961081                0.01000001               -0.12178919               -0.15934042                0.04903490                1.51781884                0.05267020               -0.03808519
               5.93029729                8.95153816               85.12627499                0.01000000               -0.02609448               -0.14574978                0.13494521                1.10210873                0.12492487               -0.05239625
               6.93156260                8.95916910               85.13280423                0.01218777                0.21095860               -0.14929574                0.17908397                0.92375357                0.21367571               -0.07095448
               7.93451646                8.96367557               85.14027541                0.01816726                0.22942994               -0.12206856                0.25352677                0.74902531                0.23421464                0.22656304
               8.93615120                8.96361937               85.14658302                0.99999999                0.05678310               -0.02091182                0.16071405                0.55106741               -0.02843721                0.09323513
               9.93565212                8.96081387               85.15329396                1.00000000               -0.04990793                0.33142043                0.17473720                0.47940479               -0.00834002                0.14652823
              -0.05725510                9.95861159               85.09065839                1.00000000               -0.03185310               -0.03199054                0.10278420               -0.00094118               -0.02288180               -0.03004625
               0.94242637                9.94984961               85.09646718                1.00000000               -0.03288612               -0.03034837                0.10572736               -0.00195218               -0.02328718               -0.00334075
               1.94208718                9.94110944               85.10222436                0.99933696               -0.03430508               -0.03098893                0.10727933               -0.00116724               -0.02109875                0.01076225
               2.94174027                9.93241152               85.10805862                0.99999997               -0.03410275               -0.03310907                0.10804277               -0.00168918               -0.01389678               -0.00243352
               3.94140513                9.92373920               85.11395923                0.10000769               -0.64047961               -0.03424981                0.11072539                1.22132690                0.13616480                0.00902699
               4.92893068                9.93949396               85.12279849                0.01000000               -0.70979671                0.02215589                0.07506276                1.00888855                0.21543801                0.01294429
               5.92720919                9.95022460               85.13014653                0.01000000                0.08300465               -0.13135600                0.11848959                0.57038850                0.15481665               -0.10460463
               6.93059077                9.95707792               85.13733804                0.01000000                0.40534597               -0.20911768                0.23092112                0.47234447                0.19805712                0.01002671
               7.93531611                9.96161516               85.14518864                0.01000001                0.42151218               -0.20604121                0.22190988                0.38120367                0.18326601                0.23577558
               8.93902101                9.96310270               85.15131451                1.00000000                0.15619580               -0.05166743                0.18529124                0.21874747               -0.02154957                0.00770665
               9.93844003                9.96025048               85.15802545                0.99837821               -0.05809879               -0.05633916                0.19931497               -0.00643112                0.00777645               -0.00777432
              -0.14689431               -0.04119783               86.06369894                0.97150711               -0.00863672               -0.00868586                0.05875713                0.00204860                0.00758221               -0.00345056
               0.85301932               -0.04561172               86.06705631                0.88597049                0.00017589               -0.02936728                0.06573840                0.00828041                0.01606964               -0.00114439
               1.85310921               -0.04949745               86.07054128                0.58405724                0.02777948               -0.02004023                0.07603829                0.04044706                0.04189186                0.00268902
               2.85357491               -0.05198139               86.07431827                0.36563218                0.07290500               -0.01940500                0.08739326                0.10876707                0.04741111                0.00252696
               3.85456731               -0.05120265               86.07805402                0.24774527                0.01506562                0.00802467                0.10459860                0.18883144                0.01449017                0.00148020
               4.85387623               -0.04498522               86.08152309                0.35519664               -0.14052835                0.01217343                0.11145124                0.12143882               -0.11352138                0.03550065
               5.85175674               -0.04066676               86.08375588                0.99999999               -0.12529983               -0.02841078                0.09510256                0.12981808               -0.07966676                0.01390368
               6.85137023               -0.03903719               86.08680921                1.00000000               -0.03880440               -0.02760118                0.09135000                0.00093904               -0.05240426                0.00250199
               7.85098065               -0.03762799               86.08963437                0.99999999               -0.03581826               -0.02668985                0.08950232                0.00059978               -0.06712298                0.01328242
               8.85065386               -0.03637740               86.09240214                0.99999999               -0.03004096               -0.02734005                0.08742368               -0.00165491               -0.05645840                0.00125986
               9.85037983               -0.03513660               86.09541389                1.00000000               -0.02740294               -0.02783089                0.08680035               -0.00264988               -0.04186928               -0.03402409
              -0.14245993                0.95871532               86.06645829                0.93927353               -0.02881359               -0.00270999                0.06772618                0.00495176               -0.00175273                0.00285331
               0.85725194                0.95409460               86.06977492                0.01238246               -0.04207809               -0.03943821                0.07423129                0.03991955               -0.00011930                0.00272160
               1.85669851                0.95030215               86.07314630                0.01000000               -0.08683783               -0.01687961                0.08239745                0.11198500                0.00924211                0.07728065
               2.85551518                0.94782456               86.07678029                0.01116949               -0.18704895                0.03451265                0.08722608                0.25224850                0.03313154                0.12608135
               3.85295753                0.94887760               86.08055576                0.01000000               -0.28462557                0.05689325                0.09641098                0.52908105                0.07641940                0.16257122
               4.84982267                0.95513652               86.08492967                0.01000000               -0.14383128               -0.09772602                0.12403948                0.59809090                0.08455831                0.12412129
               5.85008091                0.95904913               86.08817493                0.01023690                0.00187810               -0.11881144                0.10023463                0.32443679                0.01616191                0.09492779
               6.84986023                0.96068680               86.09146337                0.44140279               -0.02120754               -0.02311710                0.09845798                0.02292986                0.01979679                0.05385063
               7.84965676                0.96210511               86.09477591                1.00000000               -0.02343067               -0.02854998                0.09672300                0.00679553                0.00785765                0.02425361
               8.84939162                0.96334920               86.09780717                0.99999999               -0.02721120               -0.02876702                0.09539289               -0.00120379               -0.00543617                0.00744699
               9.84911253                0.96458509               86.10083816                0.99987234               -0.02790859               -0.02986328                0.09455541               -0.00277668               -0.00398129               -0.03705867
              -0.13755385                1.95874797               86.06930086                0.65383185               -0.02152695                0.01362059                0.07961391                0.02696845               -0.00060144                0.02684614
               0.86223088                1.95359951               86.07259371                0.01000001               -0.04135985               -0.06967475                0.08400415                0.11465145                0.06732954                0.01306723
               1.86161895                1.95016496               86.07724374                0.01034787               -0.10932249               -0.05576072                0.08088545                0.33568283                0.14636669                0.14743721
               2.86004443                1.94870886               86.08173139                0.01000000               -0.18909930                0.02470482                0.08974843                0.57412328                0.13878703                0.23234202
               3.85783697                1.94993522               86.08622003                0.01085056               -0.21889594                0.04480814                0.09912205                0.82292667                0.14017507                0.27092087
               4.85566651                1.95306026               86.09033291                0.01000001               -0.25708859               -0.13405847                0.10080955                0.96496681                0.14322597                0.20134805
               5.85269520                1.95695701               86.09425615                0.01219837               -0.34468341               -0.10934456                0.10190149                0.72496334                0.06219663                0.19629481
               6.84877284                1.96050047               86.09714743                0.01663257               -0.21205151               -0.02244062                0.10789850                0.39876371                0.02231869                0.11471913
               7.84845417                1.96180101               86.10012375                0.01000001               -0.03115181               -0.17537699                0.10356530                0.23561304                0.03538712                0.04419682
               8.84814981                1.96304726               86.10330179                0.99999996               -0.03008259               -0.03063580                0.10398429                0.00181822                0.02979232                0.03652070
               9.84785251                1.96426614               86.10615925                0.99999999               -0.02972943               -0.03297574                0.10096486               -0.00208277                0.01455356               -0.03792170
              -0.13162363                2.95898773               86.07244124                0.39345080               -0.02483859                0.05085403                0.09506067                0.09352839                0.00200798                0.05592792
               0.86812798                2.95270111               86.07564689                0.01117199               -0.00367743               -0.15056658                0.09564745                0.24116843                0.12334305                0.04024785
               1.86830282                2.94918693               86.08128052                0.01000000               -0.04502975               -0.13235120                0.09303951                0.56650500                0.22112363                0.15132169
               2.86722739                2.94831865               86.08649805                0.01032071               -0.16190786               -0.09595601                0.10154252                0.85699563                0.19257187                0.20954147
               3.86506466                2.94977376               86.09136329                0.01000001               -0.25635864               -0.05920597                0.09496956                1.06791724                0.16789129                0.22831596
               4.86210022                2.95245535               86.09581424                0.01000000               -0.39623469               -0.04432120                0.10069128                1.18273509                0.15622061                0.21048400
               5.85713997                2.95686224               86.09984247                0.01000000               -0.45543550               -0.04086035                0.11250243                1.20066117                0.09887079                0.21457462
               6.85299151                2.96023799               86.10304520                0.01458142               -0.26588699               -0.09781461                0.09280914                0.82055494                0.09208238                0.08566091
               7.85182223                2.95859757               86.10568586                0.01000000               -0.30143228               -0.09460064                0.08602051                0.47888912                0.16439441                0.02918753
               8.84696286                2.96273648               86.10926726                1.00000000               -0.25945522               -0.03324159                0.11557853                0.14790103                0.06093634                0.04851903
               9.84663313                2.96392558               86.11155924                0.99999999               -0.03297347               -0.03366243                0.10512879               -0.00235610               -0.00403235               -0.02848343
              -0.12311004                3.95976505               86.07587210                0.25437001               -0.00349146                0.00943140                0.11093528                0.18206640                0.00168691                0.06821781
               0.87685504                3.95058818               86.07909064                0.01000000                0.02207751               -0.24628636                0.10597436                0.50321346                0.16011299                0.12433183
               1.87733151                3.94751794               86.08541565                0.01084899               -0.01287639               -0.16839740                0.09981622                0.79950746                0.25932376                0.16049032
               2.87659752                3.94678974               86.09099749                0.01000001               -0.11364454               -0.19889253                0.09459160                1.05592256                0.20873571                0.18287393
               3.87505862                3.94875110               86.09622903                0.01005164               -0.21823888               -0.17259674                0.10225141                1.34143120                0.18840945                0.20068037
               4.87223274                3.95217384               86.10114444                0.01000000               -0.30664178               -0.03181785                0.09462945                1.56557750                0.21006490                0.16433921
               5.86892578                3.95613980               86.10591942                0.01329464               -0.43920635               -0.17223712                0.13399936                1.64250560                0.20930909                0.19084381
               6.86344861                3.95854418               86.10902105                0.01000000               -0.66961639               -0.10175427                0.14991858                1.52411013                0.24854444                0.02583541
               7.85553345                3.95990900               86.11243394                0.01000001               -0.88343931               -0.01886720                0.09661190                1.45459891                0.29213878                0.02051298
               8.84577982                3.96238243               86.11498871                0.01000002               -0.50531252               -0.13004832                0.12504693                1.44343923                0.03878467                0.13108121
               9.84542720                3.96359289               86.11708450                0.15160523               -0.03526213               -0.82697696                0.11111115                1.43251087                0.01473489                0.11385620
              -0.10962855                4.95917636               86.07958721                0.36154995                0.00679256               -0.13070329                0.11198063                0.11349158                0.03010984               -0.05110438
               0.89043937                4.94777538               86.08371817                0.01000000               -0.11400187               -0.12369659                0.12149001                0.57500807                0.09606701                0.13819240
               1.88809141                4.94581899               86.08931595                0.01000001               -0.16633484               -0.21088673                0.09667257                0.94160252                0.16061247                0.16757751
               2.88711268                4.94434080               86.09512534                0.01000000               -0.07911110               -0.34275862                0.09767140                1.16179079                0.18217851                0.16980133
               3.88650919                4.94632183               86.10077991                0.01000000               -0.05448069               -0.27772095                0.09418557                1.54315492                0.14723383                0.20465713
               4.88602306                4.95181899               86.10579861                0.01485719               -0.14447215               -0.14535253                0.07682473                1.53840124                0.12579300                0.11941132
               5.88361974                4.95341750               86.11075167                0.01000001               -0.31592745               -0.16412177                0.11408277                1.66404837                0.10653319                0.12152863
               6.87970451                4.95820290               86.11548658                0.01515724               -0.32718927               -0.15943561                0.12866459                1.80559055                0.19395107               -0.02832613
               7.87707596                4.95822023               86.11933634                0.01000002               -0.37783781               -0.11671618                0.14705020                1.86822051                0.30564595               -0.09254902
               8.87214776                4.96013552               86.12263363                0.01348754               -0.21067677               -0.23185918                0.13458323                1.67418480                0.24673677                0.08864069
               9.87286242                4.94738604               86.12533460                0.01198745                0.07146671               -0.93486948                0.11027903                0.96020831                0.18358918                0.17355090
              -0.09803826                5.95715099               86.08170948                0.99159892               -0.02491650               -0.11991277                0.08706636                0.12526690                0.01065345               -0.05691296
               0.90171257                5.94811425               86.08678456                0.01017336               -0.11818017                0.00787439                0.08711597                0.31975203                0.06891976                0.02257711
               1.89959814                5.94330020               86.09306901                0.01221216               -0.11910424               -0.30832444                0.09224311                0.71594276                0.15749478                0.09756827
               2.89933049                5.93993457               86.09895794                0.01000000               -0.05773046               -0.40750763                0.10575731                1.16271731                0.16943267                0.11116613
               3.89844353                5.94319668               86.10509556                0.01331190               -0.17126978               -0.41365173                0.13573610                1.59075030                0.16153955                0.18733361
               4.89590509                5.94926679               86.11033387                0.01000001               -0.13103435               -0.38565261                0.12376944                1.64828757                0.12192493                0.04894251
               5.89582284                5.95285737               86.11518493                0.01685141               -0.05737014               -0.12035337                0.06994910                1.49632458                0.09457478                0.05870835
               6.89475769                5.95535547               86.12067156                0.01000002               -0.24287945               -0.21948064                0.13447958                1.51109421                0.06159272               -0.10483271
               7.89096525                5.95757467               86.12515907                0.01000003               -0.23299898                0.03138831                0.11993102                1.54351627                0.01030836               -0.05694639
               8.89009771                5.95774524               86.12960387                0.01406352               -0.04174621               -0.16848068                0.10644550                1.01616946                0.05028163                0.00255696
               9.89013033                5.94489550               86.13374558                0.01000000                0.00326150               -0.10004847                0.09615044                0.31079077                0.02434805                0.26294768
              -0.08904973                6.95677810               86.08429617                0.99967446               -0.02650648               -0.03895912                0.08834938                0.00193880                0.00034909               -0.04572169
               0.91068520                6.94793287               86.08952810                0.22251052               -0.01801607               -0.01720108                0.08946569                0.02982130                0.05791966                0.00776552
               1.91058994                6.93965250               86.09591742                0.01662330               -0.01073296               -0.19680145                0.10242584                0.39072495                0.09593678                0.01660399
               2.91047054                6.93619065               86.10189686                0.01458512               -0.07989867               -0.26393384                0.08446565                0.81532855                0.04815090                0.10707804
               3.90899197                6.93804879               86.10793505                0.01000000               -0.05712081               -0.63274700                0.13740598                1.48104017               -0.03595964                0.20329943
               4.90932813                6.94410594               86.11406243                0.01511787               -0.07672055               -0.54105980                0.15790932                1.88937360               -0.03679172                0.07900711
               5.90745756                6.95101043               86.12002676                0.01000002               -0.20595182               -0.24289905                0.14693319                1.58788079               -0.03248033               -0.04201215
               6.90520909                6.95381329               86.12534784                0.01000003               -0.09505268               -0.03266559                0.08214245                1.59086933               -0.05933724               -0.09214110
               7.90555651                6.95884799               86.13035122                0.01000000               -0.00293830                0.17019152                0.06536531                1.62289105               -0.11223466               -0.00384657
               8.90515032                6.95676590               86.13519307                0.01205993               -0.03893873               -0.04121936                0.10708155                0.78897638               -0.11531853               -0.02802844
               9.90477773                6.94538507               86.14102935                0.01000000               -0.03725916                0.10004581                0.09510007                0.20237389               -0.02871156                0.10312814
              -0.08030902                7.95637181               86.08668685                0.99999999               -0.02563757               -0.03807804                0.09030383                0.00247436                0.00971488               -0.05742709
               0.91943460                7.94777023               86.09229983                1.00000000               -0.02680631               -0.02101513                0.09503337                0.01142134                0.01948681                0.00198778
               1.91915485                7.93936417               86.09808913                0.01000001               -0.10969194               -0.03016729                0.10193885                0.19538741                0.05125665                0.00828728
               2.91724076                7.93465589               86.10434888                0.01000000                0.04970938               -0.27701350                0.04947739                0.40049937                0.01186424                0.16743176
               3.92014904                7.93054174               86.11073231                0.01731001                0.17450826               -0.78930657                0.10958726                1.08731589                0.07146574                0.18632487
               4.92073093                7.93844559               86.11742107                0.01000002               -0.11379668               -0.38798412                0.17408288                1.65674059                0.06951272               -0.01148518
               5.91787311                7.94799939               86.12356016                0.01000003               -0.09967081               -0.21658801                0.15383334                1.67988426               -0.01600555               -0.04565675
               6.91873751                7.95470215               86.12962493                0.01000000                0.12986761                0.00828299                0.07429953                1.66318225                0.00065499               -0.11101240
               7.92047046                7.96097851               86.13609088                0.01808097                0.03013261                0.05898034                0.08676912                1.23520257                0.03174179                0.06249774
               8.91934016                7.95692086               86.14221376                0.01000001               -0.17654930                0.10408983                0.12500428                0.50275352               -0.06302827                0.04610893
               9.91693947                7.94689641               86.14699708                0.01000000               -0.24006927                0.52455462                0.18622568                0.19805469               -0.18314415                0.16305539
              -0.07179709                8.95601654               86.08905579                0.99999999               -0.02816500               -0.03252514                0.09099633               -0.00104947                0.00201632               -0.04673656
               0.92792126                8.94751257               86.09489466                0.99999998               -0.02954423               -0.02728274                0.09760083               -0.00102600                0.00746443               -0.00563006
               1.92761203                8.93904915               86.10080843                0.99999995               -0.03091510               -0.03093318                0.10490410                0.00156191                0.03139656                0.02320670
               2.92730296                8.93065038               86.10710890                1.00000000               -0.03317211               -0.21700985                0.11631691                0.08353151                0.04073892                0.03399531
               3.92694859                8.92226266               86.11320023                0.01000002               -0.11488348               -0.43169099                0.12509759                1.04535003                0.06428101                0.04281220
               4.92500529                8.93634626               86.12000404                0.01347075               -0.10749504               -0.05107437                0.09887098                1.28609585                0.00023379                0.09655813
               5.92479869                8.94667867               86.12761798                0.01366505                0.02441622               -0.09675246                0.10122221                1.00722509               -0.01097983                0.00219848
               6.92549362                8.95397895               86.13408098                0.01000000                0.16215852               -0.12670308                0.12115795                0.87153063               -0.07203517               -0.10553861
               7.92804186                8.96002760               86.14139326                0.01556042                0.18969351               -0.14866374                0.07512812                0.69796117                0.03233601                0.01107260
               8.92928749                8.95884770               86.14819968                0.99999999                0.03729282                0.07022686                0.16260829                0.44127122               -0.00966160                0.05880628
               9.92878771                8.95587616               86.15503392                0.99896731               -0.04997738                0.42109859                0.17325641                0.44270934               -0.00833665                0.14474934
              -0.06332206                9.95572130               86.09163841                1.00000000               -0.02964655               -0.02952356                0.09319781               -0.00217096               -0.02582227               -0.03361194
               0.93638147                9.94722457               86.09749329                0.99893267               -0.03148301               -0.02879940                0.09959971               -0.00276911               -0.02699108               -0.00391356
               1.93604828                9.93874551               86.10328243                0.99999996               -0.03417933               -0.03036438                0.10437674               -0.00181922               -0.02695572                0.01164533
               2.93569788                9.93031569               86.10913251                0.99999999               -0.03440564               -0.03346866                0.10717561               -0.00238717               -0.02046747               -0.00347822
               3.93536016                9.92190792               86.11506880                0.16597062               -0.68305226               -0.03547419                0.11204142                1.19657824                0.08730338                0.01130385
               4.92203684                9.93742411               86.12308445                0.01032478               -0.74876231                0.10778484                0.06253139                0.91097550                0.09388335                0.16527882
               5.92038492                9.94606434               86.13104433                0.01000000                0.03911777               -0.06143327                0.06299936                0.29582236                0.12880808               -0.03157166
               6.92281919                9.95216809               86.13887042                0.01000000                0.45880076               -0.18108571                0.09826452                0.32960242               -0.00921315               -0.03447865
               7.92956093                9.95800523               86.14540658                0.01253634                0.47489181               -0.20223713                0.12877654                0.45977261                0.09118553               -0.04325188
               8.93231703                9.95832539               86.15317482                0.99897861                0.10879021               -0.05223059                0.18677281                0.16861208                0.05440883                0.00770794
               9.93173674                9.95531838               86.16000907                0.99652605               -0.05802939               -0.05577761                0.19741859               -0.00579853                0.00777402               -0.00777713
              -0.15021162               -0.04403971               87.06426607                0.96509673               -0.00641886               -0.00663366                0.05550006                0.00320991                0.00791516               -0.00372655
               0.84972419               -0.04838920               87.06770568                0.86838565                0.00410686               -0.03065790                0.06429768                0.01079710                0.01795177               -0.00169304
               1.84987052               -0.05210871               87.07130547                0.62143189                0.02770470               -0.01978155                0.07615933                0.03561478                0.04595061                0.00196358
               2.85027829               -0.05440978               87.07518440                0.39307979                0.06065884               -0.01966430                0.08521773                0.10288782                0.05456717                0.00374966
               3.85108369               -0.05363129               87.07906540                0.27517298               -0.02231631                0.01279961                0.09568632                0.16528393                0.01647077                0.00317152
               4.84983196               -0.04806090               87.08257301                0.46003970               -0.13798567                0.00117283                0.09666877                0.13572506               -0.11320408                0.03973928
               5.84832398               -0.04498272               87.08472994                1.00000000               -0.09615579               -0.03023517                0.09849510                0.08277621               -0.08407041                0.01128203
               6.84790884               -0.04369059               87.08771618                1.00000000               -0.04066933               -0.02740004                0.08888857                0.00078095               -0.05564334                0.00482279
               7.84751059               -0.04266409               87.09050626                0.99821585               -0.03571874               -0.02584420                0.08439598               -0.00015207               -0.06955726                0.01461406
               8.84719447               -0.04180716               87.09324131                0.99999999               -0.02838445               -0.02552126                0.08039818               -0.00267234               -0.05863238                0.00143881
               9.84694290               -0.04094889               87.09623535                1.00000000               -0.02515637               -0.02588234                0.07774086               -0.00395697               -0.04365363               -0.03599140
              -0.14583003                0.95589396               87.06712804                0.90697669               -0.03033082                0.00117386                0.06656949                0.00783574               -0.00211993                0.00364607
               0.85386666                0.95130422               87.07052290                0.03537968               -0.04665092               -0.04408689                0.07538896                0.04925015                0.00001103                0.00285318
               1.85323695                0.94769348               87.07398983                0.01000000               -0.08991037               -0.02309619                0.08634931                0.13617466                0.00753190                0.06860590
               2.85206846                0.94539358               87.07769847                0.01000001               -0.18374275                0.02161353                0.09549399                0.27841668                0.03073705                0.12651123
               3.84956210                0.94649670               87.08160291                0.01000000               -0.26017660                0.04485801                0.10961641                0.52793251                0.08568957                0.16359320
               4.84686492                0.95195082               87.08623865                0.01000000               -0.12977564               -0.11576261                0.12555651                0.58092555                0.08555669                0.10357538
               5.84696658                0.95471493               87.08921967                0.01000000               -0.00537915               -0.10371439                0.10673465                0.28601710                0.00096818                0.08954844
               6.84675734                0.95603541               87.09246855                0.50600185               -0.01996140               -0.02330481                0.10196484                0.02651709                0.01751140                0.05845499
               7.84656736                0.95707746               87.09574141                1.00000000               -0.02235977               -0.02874556                0.09609150                0.00679557                0.00650704                0.02566540
               8.84631014                0.95793763               87.09874356                0.99999999               -0.02611417               -0.02718796                0.09171228               -0.00164987               -0.00595988                0.00843155
               9.84604507                0.95879228               87.10175332                0.99999999               -0.02650716               -0.02892034                0.08875497               -0.00376925               -0.00428554               -0.04008963
              -0.14087544                1.95598377               87.07010043                0.67786098               -0.02148895                0.01620169                0.07999538                0.02565038               -0.00103925                0.03087512
               0.85890967                1.95072906               87.07345685                0.01000000               -0.03099571               -0.07622308                0.08851627                0.12637352                0.05857593                0.01243602
               1.85850465                1.94742937               87.07800019                0.01090841               -0.09331416               -0.05248545                0.07621925                0.34857771                0.13187465                0.13339855
               2.85704339                1.94602250               87.08266634                0.01000001               -0.17097738                0.02226834                0.09344245                0.59590709                0.16758431                0.21851072
               3.85508510                1.94726587               87.08725912                0.01172287               -0.19055728                0.02489826                0.10318417                0.81501689                0.16049619                0.28054110
               4.85323224                1.94962384               87.09135844                0.01000001               -0.25626830               -0.13509830                0.10161001                0.92191015                0.17019902                0.16207406
               5.84995974                1.95294299               87.09529403                0.01364784               -0.35777973               -0.08421036                0.11129033                0.72069841                0.05529898                0.19329211
               6.84607665                1.95584332               87.09827660                0.01000001               -0.21077256               -0.08622429                0.11566249                0.43445098                0.02572369                0.10629878
               7.84574428                1.95676099               87.10117289                0.01000001               -0.03149992               -0.21705083                0.10556191                0.27168132                0.03445896                0.04543588
               8.84544665                1.95764909               87.10434225                1.00000000               -0.02930335               -0.02931348                0.10385336                0.00424504                0.03166651                0.04060015
               9.84515822                1.95847270               87.10715325                0.99999999               -0.02884343               -0.03366772                0.09810502               -0.00265037                0.01478187               -0.04403959
              -0.13480761                2.95621799               87.07338364                0.42218261               -0.02438577                0.04224868                0.09294885                0.08640378                0.00245918                0.05981028
               0.86494853                2.94977976               87.07663861                0.01000001               -0.01386597               -0.15153777                0.10214419                0.26293428                0.12003353                0.03997219
               1.86491507                2.94664377               87.08223034                0.01000001               -0.03992193               -0.10965206                0.09323097                0.57549422                0.20167130                0.17494845
               2.86415010                2.94583895               87.08755876                0.01139602               -0.13269933               -0.07736813                0.09374405                0.82507541                0.18784028                0.20723983
               3.86226109                2.94699467               87.09229030                0.01000001               -0.22620476               -0.05838152                0.09123260                1.01071189                0.18353151                0.20237456
               4.85962600                2.94924886               87.09688827                0.01162346               -0.35500026               -0.05345227                0.10791026                1.13959449                0.18864522                0.19825572
               5.85516108                2.95303072               87.10106009                0.01127676               -0.39988215               -0.02176864                0.11546523                1.14171438                0.20751416                0.17215383
               6.85162836                2.95431093               87.10397370                0.01000000               -0.24829343               -0.23718821                0.10714180                0.90911636                0.30703948               -0.07070235
               7.85019521                2.95273645               87.10682654                0.01304213               -0.34725087               -0.17161631                0.15750946                0.68095184                0.07945250                0.09788773
               8.84468334                2.95735136               87.11044550                0.99999999               -0.29251878               -0.03337480                0.12074510                0.19307347                0.06852677                0.05534004
               9.84434484                2.95811893               87.11260450                0.99999999               -0.03385033               -0.03458602                0.10420820               -0.00333045               -0.00552093               -0.03658097
              -0.12627090                3.95682874               87.07695296                0.28447962                0.00134831               -0.02689629                0.10327177                0.15378167                0.00320942                0.06334533
               0.87374258                3.94769831               87.08021743                0.01000000                0.01131227               -0.22488646                0.11655336                0.49908145                0.15719105                0.12367608
               1.87395534                3.94523633               87.08645925                0.01170228               -0.02742929               -0.14208167                0.10386595                0.79177027                0.26120725                0.17656496
               2.87319400                3.94447513               87.09192292                0.01000001               -0.10329573               -0.17850410                0.09075537                0.99948097                0.18184707                0.19444276
               3.87188943                3.94609824               87.09734073                0.01235906               -0.16029570               -0.12524293                0.10546560                1.20623189                0.16303049                0.17845787
               4.86998808                3.94855480               87.10193798                0.01221902               -0.20787368               -0.11246258                0.10295136                1.37869420                0.22177708                0.11632426
               5.86773196                3.95250762               87.10694164                0.01729692               -0.27174150               -0.07824649                0.08461166                1.27425529                0.25106790                0.06737215
               6.86455325                3.95109955               87.11079016                0.01200144               -0.57045358               -0.19499761                0.13575023                1.30347891                0.27707608               -0.03474384
               7.85632288                3.95332867               87.11344555                0.01000000               -1.03138062                0.01133658                0.17622669                1.52264381                0.17415984                0.14716686
               8.84392564                3.95698159               87.11627970                0.01000000               -0.63832043               -0.22732681                0.13423092                1.57157888                0.06558145                0.14220885
               9.84355648                3.95778098               87.11819875                0.05147630               -0.03691639               -0.85921608                0.11197856                1.45926211                0.01803438                0.14708281
              -0.11347110                4.95568006               87.08065187                0.46642235               -0.00063178               -0.13087814                0.09801228                0.12332931                0.03381942               -0.06158819
               0.88652258                4.94528203               87.08497651                0.01000000               -0.12776229               -0.11422618                0.12061107                0.55503649                0.07699505                0.12278459
               1.88397365                4.94380213               87.09028872                0.01000001               -0.16223881               -0.21226178                0.09693191                0.89936124                0.12393885                0.18460135
               2.88327780                4.94226887               87.09616887                0.01161019               -0.08337969               -0.30942436                0.10502247                1.11713662                0.17067249                0.19942508
               3.88230606                4.94448981               87.10156194                0.01221874               -0.12436508               -0.19071673                0.10254871                1.35687909                0.09319517                0.22986502
               4.88079050                4.94699961               87.10665060                0.01000000               -0.21023120               -0.22385469                0.10483914                1.52100986               -0.01002565                0.00887790
               5.87810143                4.95146579               87.11214244                0.01554030               -0.19568073               -0.18429926                0.11354674                1.34897221               -0.04885951                0.11444675
               6.87687689                4.95041097               87.11671651                0.01000000               -0.16676919               -0.06453386                0.10348799                1.30768468                0.02634954               -0.11292454
               7.87476605                4.95296318               87.12068575                0.01385582               -0.26071403               -0.00885690                0.11075759                1.66185892               -0.05251553                0.24675473
               8.87166261                4.95280483               87.12414683                0.01405144               -0.14173757               -0.36363509                0.16021187                1.54842375                0.12657364                0.02690096
               9.87193130                4.94093461               87.12733701                0.01000000                0.02686922               -0.90126145                0.20431560                0.94261070                0.09940967                0.29554690
              -0.10300825                5.95421118               87.08261303                1.00000000               -0.02705100               -0.09350272                0.09197537                0.07990863                0.00955711               -0.06749549
               0.89672124                5.94541378               87.08770198                0.01000000               -0.10180097               -0.00225447                0.09497737                0.28560760                0.06832884                0.00327881
               1.89495573                5.94099109               87.09399365                0.01363854               -0.09360953               -0.32459197                0.10247079                0.71428178                0.15207685                0.08935139
               2.89484905                5.93828665               87.10008202                0.01126761               -0.03297306               -0.35437620                0.10649546                1.10823531                0.13606914                0.21015609
               3.89429627                5.94228390               87.10619633                0.01730782               -0.07083766               -0.26670115                0.08616185                1.23368756                0.04680503                0.24296746
               4.89343230                5.94407770               87.11182000                0.01556414               -0.14981189               -0.24829827                0.11980730                1.33628392                0.09801319               -0.03709474
               5.89130003                5.94882164               87.11624397                0.01000000               -0.21113697               -0.27118434                0.14136461                1.43911847                0.01361156                0.03908374
               6.88920956                5.94980887               87.12214279                0.01240534               -0.20669118               -0.01467206                0.09753652                1.41469547               -0.07656790               -0.02290611
               7.88716621                5.95315153               87.12616313                0.01787156               -0.11434362               -0.00229900                0.07505610                1.22721467               -0.00417605                0.10626116
               8.88692269                5.94970889               87.13047781                0.01000001               -0.05085412               -0.18953688                0.09422501                0.65690946                0.01975406               -0.10652324
               9.88614913                5.93975575               87.13440025                0.01061862               -0.07735586               -0.04980435                0.12204094                0.31139784               -0.05668535                0.25581396
              -0.09427814                6.95381001               87.08517602                0.99888397               -0.02670429               -0.04100353                0.08668219                0.00126367                0.00133665               -0.04952522
               0.90545482                6.94523694               87.09044002                0.28461381               -0.01677196               -0.01597692                0.09305873                0.03481287                0.06894710                0.00819500
               1.90538643                6.93731029               87.09705116                0.01000001               -0.06525619               -0.19930381                0.11680542                0.43090871                0.09270738                0.02234457
               2.90414970                6.93518134               87.10271909                0.01000000               -0.20988373               -0.22025950                0.09171360                0.88762636               -0.12740689                0.27043936
               3.90118875                6.93915579               87.10942711                0.01201761               -0.15856244               -0.58999911                0.12928032                1.29032968               -0.05426169                0.28844260
               4.90097845                6.94203364               87.11596899                0.01000000               -0.00180579               -0.37841269                0.13901560                1.40235909               -0.13733811                0.08951164
               5.90115263                6.94604211               87.12169852                0.01239889               -0.00687735               -0.20931984                0.11004573                1.46617991               -0.10497632               -0.01796324
               6.90084090                6.95011753               87.12606539                0.01538538               -0.08711521               -0.03492140                0.08659291                1.47005141                0.01058866                0.04165089
               7.89941033                6.95291720               87.13087589                0.01000003               -0.13221628                0.05564554                0.08037448                1.22811187               -0.04294800               -0.04880107
               8.89819658                6.94901409               87.13652469                0.01000001               -0.06724001                0.08638081                0.11407374                0.65349192               -0.06636536               -0.05915690
               9.89806553                6.93993852               87.14189838                0.01000003               -0.01310458                0.15614331                0.12852876                0.28555691               -0.09903531                0.29780574
              -0.08583684                7.95339111               87.08756490                1.00000000               -0.02459476               -0.03824049                0.08505430                0.00196653                0.01164295               -0.06136108
               0.91391721                7.94509424               87.09324528                1.00000000               -0.02668287               -0.01949575                0.09430820                0.01252780                0.02270034                0.00330740
               1.91362950                7.93700501               87.09912186                0.01000002               -0.15805649               -0.03100646                0.10477842                0.25971445                0.02204417                0.00549103
               2.91075608                7.93388146               87.10481347                0.01306446               -0.01894693               -0.32712236                0.11966236                0.54121117                0.06479106                0.08727428
               3.91325057                7.93048392               87.11245700                0.01000000                0.19185387               -0.92771725                0.16014631                1.12813968                0.02499379                0.20223765
               4.91459316                7.93650945               87.11944832                0.01386883               -0.03554126               -0.32467335                0.14637361                1.54221437               -0.01767719                0.14463051
               5.91253974                7.94463524               87.12521520                0.01766684               -0.14288345               -0.09720715                0.11207524                1.37245569                0.01792640               -0.02220322
               6.91173549                7.94911045               87.13023353                0.01000003                0.01460751               -0.11523487                0.08575841                1.25674629               -0.09480089               -0.03972736
               7.91283189                7.95426444               87.13649473                0.01217484                0.06178550                0.08320605                0.05693471                1.19801044               -0.16544769               -0.15472153
               8.91297120                7.95143650               87.14265230                0.01000001               -0.14102443                0.24101726                0.09208738                0.63674549               -0.08033298                0.12508265
               9.91001140                7.94287862               87.14918962                0.01000001               -0.29598008                0.53791776                0.19164353                0.33178048               -0.05611521                0.34308488
              -0.07764508                8.95304520               87.08992968                0.99999999               -0.02634519               -0.03085071                0.08347557               -0.00204044                0.00236890               -0.05056218
               0.92209147                8.94484703               87.09585280                0.99999999               -0.02807106               -0.02600897                0.09390639               -0.00148547                0.00863096               -0.00586194
               1.92179350                8.93669016               87.10185828                0.99999996               -0.02982290               -0.03053331                0.10509969                0.00356094                0.03621749                0.02539650
               2.92149501                8.92863890               87.10829683                0.99999998               -0.03349772               -0.27933604                0.12175952                0.13498678                0.04852075                0.07505969
               3.92112355                8.92060144               87.11449722                0.01000000               -0.19117977               -0.51278960                0.13488077                1.14249814                0.07968079                0.03370200
               4.91767142                8.93554017               87.12158823                0.01424949               -0.25613975                0.00646307                0.15717959                1.18680875                0.02147825                0.14275128
               5.91600075                8.94409796               87.12829943                0.01000001               -0.06623972               -0.09473860                0.08905424                0.68661491               -0.11313049               -0.00063555
               6.91634662                8.94781283               87.13522739                0.01000001                0.25218641               -0.11504936                0.08097797                0.73960636               -0.11754537               -0.07547612
               7.92104448                8.95458132               87.14177797                0.01619376                0.29853431               -0.07704817                0.05494573                0.80125679                0.03347469               -0.04672840
               8.92231731                8.95383443               87.14983519                0.99999999                0.03862162                0.09350377                0.16449229                0.43255280                0.04840195                0.10668448
               9.92181691                8.95069688               87.15675909                0.99367619               -0.05003965                0.36330134                0.17177278                0.43202460               -0.00833758                0.10939546
              -0.06948130                9.95277409               87.09252235                1.00000000               -0.02761611               -0.02711040                0.08354560               -0.00362540               -0.02881246               -0.03690380
               0.93024254                9.94457406               87.09845917                0.99999999               -0.03049235               -0.02729604                0.09358184               -0.00388067               -0.03104166               -0.00448072
               1.92990885                9.93639435               87.10431189                1.00000000               -0.03489984               -0.02958166                0.10159638               -0.00243149               -0.03394587                0.01224630
               2.92954454                9.92829473               87.11020214                0.99999997               -0.03548018               -0.03441607                0.10674892               -0.00335816               -0.02893440               -0.00490728
               3.92919925                9.92022813               87.11620006                0.23741476               -0.73558625               -0.03733137                0.11392225                1.22476900                0.06817482                0.01491459
               4.91483282                9.93663871               87.12404912                0.01000000               -0.75999356                0.10985381                0.13924688                0.84175670                0.15613002                0.10094349
               5.91399938                9.94274047               87.13140652                0.01000000                0.06057225               -0.13574961                0.10242047                0.30839981                0.17799008               -0.03807645
               6.91604426                9.94680946               87.13930333                0.01000000                0.44180246               -0.10033758                0.07979305                0.46891437                0.22397214               -0.10286094
               7.92283543                9.95272348               87.14776417                0.01000002                0.47312206               -0.18578421                0.14864869                0.50395059                0.07022048                0.01946741
               8.92550670                9.95330658               87.15504997                0.99366362                0.10457917               -0.05278548                0.18825174                0.18999756                0.02580548                0.00771076
               9.92492701                9.95014464               87.16197382                1.00000000               -0.05796925               -0.05522320                0.19553852               -0.00518388                0.00778557               -0.00777006
              -0.15361524               -0.04699630               88.06480894                0.95237690               -0.00458082               -0.00498258                0.05408728                0.00394734                0.00863318               -0.00327018
               0.84633895               -0.05128002               88.06834227                0.84520784                0.00823710               -0.03194862                0.06344831                0.01361199                0.01941387               -0.00100534
               1.84654950               -0.05482689               88.07206447                0.66067676                0.02836851               -0.01935598                0.07551332                0.02968037                0.04709168                0.00132084
               2.84690632               -0.05693455               88.07602262                0.42944278                0.04793051               -0.01926112                0.08262288                0.09168483                0.05393100                0.00442906
               3.84750811               -0.05621423               88.07996774                0.31080042               -0.04793599                0.01699730                0.08629098                0.13294564                0.01084602                0.00358616
               4.84594760               -0.05152171               88.08345646                0.59923027               -0.12879758               -0.00556950                0.08195144                0.13662735               -0.08940252                0.03235723
               5.84493216               -0.04942057               88.08572578                1.00000000               -0.07332811               -0.03034195                0.09798180                0.04763364               -0.08094426                0.00717080
               6.84448104               -0.04844547               88.08858699                1.00000000               -0.04338930               -0.02590524                0.08446672                0.00149664               -0.06102643                0.00817212
               7.84406438               -0.04780600               88.09132229                1.00000000               -0.03644576               -0.02422118                0.07844892               -0.00063170               -0.07161022                0.01534976
               8.84375213               -0.04735312               88.09401011                1.00000000               -0.02728489               -0.02299918                0.07340665               -0.00348069               -0.06044830                0.00070188
               9.84351868               -0.04689237               88.09696871                0.99995020               -0.02334479               -0.02422364                0.06987312               -0.00506325               -0.04554232               -0.03816572
              -0.14929205                0.95295387               88.06778968                0.87150464               -0.03175847                0.00530885                0.06601205                0.01104982               -0.00164817                0.00436745
               0.85039037                0.94840050               88.07128270                0.13857549               -0.05171897               -0.04937309                0.07627159                0.05946804                0.00195963                0.00490781
               1.84967357                0.94497955               88.07487329                0.01000000               -0.09367639               -0.02903450                0.08992690                0.14848963                0.01068272                0.05546766
               2.84851684                0.94287284               88.07869017                0.01000000               -0.17712119                0.00766729                0.10036279                0.31035263                0.03641170                0.11720014
               3.84613115                0.94395574               88.08274809                0.01113522               -0.22998969                0.05364381                0.11337920                0.51982175                0.09886523                0.14336263
               4.84391705                0.94842259               88.08744080                0.01000000               -0.11303874               -0.14130810                0.11047136                0.57041246                0.08314280                0.07428487
               5.84387038                0.95027601               88.09030962                0.01048719               -0.01141631               -0.07985022                0.10740687                0.24118733               -0.00417418                0.08774439
               6.84368872                0.95129548               88.09350267                0.61008348               -0.01792448               -0.02166223                0.10320699                0.03015991                0.01515208                0.06251853
               7.84351189                0.95195179               88.09669774                1.00000000               -0.02141076               -0.02847048                0.09399137                0.00673606                0.00367297                0.02547854
               8.84326051                0.95241689               88.09964142                0.99999996               -0.02522959               -0.02447786                0.08724307               -0.00178754               -0.00724491                0.00894434
               9.84300729                0.95286540               88.10261326                1.00000000               -0.02532116               -0.02867332                0.08355598               -0.00477601               -0.00497983               -0.04363890
              -0.14428748                1.95310988               88.07090077                0.70397606               -0.02098768                0.01887636                0.07981062                0.02264683               -0.00140365                0.03199461
               0.85550264                1.94773252               88.07436404                0.01000000               -0.03327806               -0.08302593                0.09213501                0.13870623                0.04569651                0.01593267
               1.85504696                1.94459242               88.07876813                0.01164730               -0.06827287               -0.03763526                0.07394330                0.36144002                0.10694513                0.12202071
               2.85413718                1.94321879               88.08360024                0.01086049               -0.13460811                0.01670197                0.08921847                0.63368080                0.16823516                0.19355253
               3.85235479                1.94485865               88.08828371                0.01300781               -0.15507983               -0.01080492                0.09590587                0.78539805                0.15135194                0.19765217
               4.85103559                1.94565213               88.09236511                0.01000000               -0.27358863               -0.12908314                0.10989117                0.86550314                0.12516056                0.14444464
               5.84688302                1.94898243               88.09648196                0.01604768               -0.38135634               -0.08091531                0.13300521                0.79018039                0.06992045                0.14180942
               6.84340846                1.95112129               88.09946068                0.01000000               -0.19026648               -0.24925541                0.11247974                0.61596472                0.02126265                0.10452066
               7.84307769                1.95162459               88.10223499                0.01000000               -0.03028428               -0.18345647                0.10461385                0.22318165                0.03124766                0.08614159
               8.84280277                1.95215732               88.10537886                0.99999996               -0.02757734               -0.02555295                0.10248431                0.01022502                0.03318281                0.04716554
               9.84252614                1.95253417               88.10812135                1.00000000               -0.02766292               -0.03584666                0.09555826               -0.00244540                0.01478815               -0.05135990
              -0.13808439                2.95333140               88.07430021                0.45807711               -0.02336532                0.03269237                0.09058258                0.07649214                0.00237379                0.05734879
               0.86168195                2.94673998               88.07768978                0.01000000               -0.02497521               -0.15043583                0.10605311                0.29426893                0.10696611                0.04556640
               1.86141610                2.94422684               88.08314514                0.01086328               -0.03788613               -0.08007857                0.08896718                0.61350528                0.17660092                0.17998329
               2.86092423                2.94320688               88.08837293                0.01299206               -0.10051606               -0.05751583                0.07317886                0.73642954                0.14283558                0.15495205
               3.85940578                2.94373965               88.09318794                0.01000000               -0.19104493               -0.09050156                0.09092141                0.92917145                0.14655367                0.14987436
               4.85710333                2.94584093               88.09797244                0.01494842               -0.26004798               -0.04570659                0.11322750                1.04749218                0.15532965                0.15433650
               5.85420482                2.94865771               88.10215178                0.01591824               -0.18687418               -0.12887672                0.12115715                0.93406867                0.16738973                0.05305100
               6.85336585                2.94631037               88.10518804                0.01000000               -0.36326674               -0.30073970                0.16325888                0.93513598                0.21553747                0.04434166
               7.84693949                2.94828266               88.10883605                0.01000000               -0.54052057               -0.13157328                0.14750649                0.80224376                0.09396647                0.24557530
               8.84255544                2.95190583               88.11168217                1.00000000               -0.23673923               -0.03160288                0.12600939                0.17006413                0.03827684                0.06751011
               9.84220470                2.95214846               88.11364340                0.99999998               -0.03507349               -0.03660673                0.10412938               -0.00455383               -0.00783572               -0.04699350
              -0.12957479                3.95376373               88.07793753                0.32300892                0.00673670               -0.05234400                0.09426501                0.12015579                0.00338343                0.05068085
               0.87049258                3.94472380               88.08142171                0.01116623                0.02124763               -0.19967284                0.11896661                0.49437963                0.13641087                0.12648414
               1.87085016                3.94299085               88.08749297                0.01302670               -0.05698022               -0.11251169                0.09677204                0.76531968                0.18212013                0.16150031
               2.86935297                3.94206848               88.09281260                0.01000000               -0.12729965               -0.15183389                0.09014266                0.91932227                0.13526934                0.15191724
               3.86830417                3.94304862               88.09833834                0.01580251               -0.11428011               -0.08380597                0.09639525                1.05775502                0.12178775                0.13480629
               4.86706737                3.94473799               88.10320346                0.01685894               -0.16046090               -0.18632013                0.13298315                1.07474961                0.10042423                0.07978944
               5.86509495                3.94640489               88.10761165                0.01000000               -0.22905746               -0.11268015                0.08897590                0.93701643                0.08387355               -0.01774376
               6.86248622                3.94510650               88.11173605                0.01000000               -0.57839204               -0.08592916                0.10097287                1.04552964                0.11236656                0.09311716
               7.85352711                3.94899313               88.11595847                0.01000001               -1.00739818                0.10775430                0.18591688                1.40373028                0.07854673                0.16928509
               8.84233826                3.95152527               88.11767333                0.01000002               -0.57886544               -0.27152003                0.14445409                1.41407150                0.02897921                0.16163516
               9.84194980                3.95180203               88.11932408                0.37296672               -0.03884556               -0.75264944                0.11335363                1.34095479                0.02397922                0.18016517
              -0.11760144                4.95228452               88.08154745                0.60589043               -0.00561425               -0.12433938                0.08205722                0.12368831                0.02852753               -0.04987889
               0.88234242                4.94274652               88.08613039                0.01000000               -0.15103717               -0.10037448                0.10626585                0.54490208                0.05168754                0.10804045
               1.87937782                4.94197661               88.09125459                0.01000000               -0.15447574               -0.23330254                0.10737554                0.84165718                0.11334963                0.13364957
               2.87925291                4.94017020               88.09722579                0.01495240               -0.07432286               -0.22404992                0.11054829                1.02915656                0.13455060                0.16060063
               3.87789136                4.94206353               88.10283089                0.01685300               -0.20054301               -0.14288790                0.13232714                1.06409060                0.06547194                0.10774458
               4.87524205                4.94211453               88.10789539                0.01000000               -0.26573579               -0.27657433                0.14547293                1.25454632                0.00799579                0.03271761
               5.87257665                4.94640410               88.11302260                0.01000000               -0.17769218               -0.11609626                0.08584568                1.15772978                0.02982131               -0.01688369
               6.87168820                4.94459179               88.11755634                0.01000001               -0.19906632                0.02209846                0.05890479                1.24273022               -0.00928126                0.01798252
               7.86859532                4.95043775               88.12155149                0.01265324               -0.18301194                0.02583096                0.07508793                1.54516163               -0.10161174                0.16247717
               8.86802796                4.94647543               88.12583787                0.01000001               -0.00625278               -0.41441728                0.14335513                1.32875672               -0.02987280                0.18023210
               9.86847027                4.93709547               88.12942091                0.01149382                0.04423013               -0.81758144                0.24378492                1.02210134               -0.10371002                0.52677605
              -0.10802502                5.95127694               88.08354898                0.99999999               -0.02764494               -0.07244001                0.09277915                0.04645897                0.00706047               -0.06869161
               0.89169853                5.94271631               88.08868411                0.01000000               -0.08576759               -0.00965240                0.09892716                0.24472201                0.07248380               -0.00510116
               1.89025963                5.93832480               88.09511843                0.01603635               -0.09246711               -0.35027181                0.12744344                0.78291853                0.11057021                0.09626886
               2.88984919                5.93758748               88.10108785                0.01591310               -0.13089876               -0.16511042                0.11445556                0.90797998                0.03006170                0.15959521
               3.88764165                5.94019086               88.10681880                0.01000000               -0.10157336               -0.22532710                0.08582111                0.91922492               -0.03382920                0.09392101
               4.88781772                5.93920651               88.11273001                0.01000000               -0.09346841               -0.19233356                0.08354032                1.14800101               -0.04846113                0.07548910
               5.88577228                5.94408297               88.11801222                0.01000001               -0.22552713               -0.23620820                0.11890562                1.45134727               -0.09947537               -0.02973115
               6.88330718                5.94554846               88.12262229                0.01000000               -0.16127899                0.09818866                0.06535118                1.49910335               -0.17592308               -0.01075118
               7.88254670                5.94950975               88.12666019                0.01000001               -0.05257551               -0.14486898                0.07280207                1.16656869               -0.18374123                0.11168663
               8.88225567                5.94323692               88.13148837                0.01000001               -0.06974827               -0.15335778                0.10848583                0.53566080               -0.16149224                0.14553258
               9.88115174                5.93545040               88.13618640                0.01000001               -0.11039287               -0.02718273                0.19244217                0.40031717               -0.10986203                0.34048261
              -0.09955101                6.95083572               88.08602981                0.99929044               -0.02599883               -0.04430062                0.08302948                0.00118067                0.00315100               -0.05509051
               0.90018900                6.94255347               88.09138928                0.39460114               -0.01419821               -0.01463584                0.09716536                0.03842852                0.07998400                0.00878953
               1.90016503                6.93497117               88.09825353                0.01000000               -0.23212783               -0.18289629                0.11254107                0.60412144                0.08840180                0.01897111
               2.89554645                6.93686799               88.10373114                0.01000000               -0.27540964               -0.33819222                0.14984592                0.89690382               -0.01792044                0.17277037
               3.89465683                6.93755698               88.11052065                0.01000000               -0.06182439               -0.53372332                0.10560880                0.98861427                0.05473011                0.11298148
               4.89430996                6.93826786               88.11684274                0.01000001                0.03024013               -0.17437725                0.05164165                1.19622081               -0.04981884                0.07816296
               5.89526164                6.94167994               88.12222767                0.01000000                0.09667652               -0.15642774                0.06595661                1.49809218               -0.12030103               -0.07868213
               6.89624349                6.94655556               88.12707970                0.01000001               -0.05116982               -0.04014315                0.11647521                1.40576089               -0.10903573               -0.05012284
               7.89423824                6.94754037               88.13195871                0.01000001               -0.17214808               -0.12638744                0.14332294                0.95243689               -0.02216925                0.03597843
               8.89280053                6.94340827               88.13747455                0.01000000               -0.10942979                0.14375484                0.12004726                0.58972006                0.06581956                0.22072622
               9.89204964                6.93655182               88.14359993                0.01000000               -0.07508827                0.17235035                0.13615575                0.39389478                0.02119269                0.34770356
              -0.09143691                7.95039092               88.08838794                1.00000000               -0.02314439               -0.03939368                0.07914631                0.00102008                0.01292238               -0.06504903
               0.90833165                7.94242360               88.09418599                1.00000000               -0.02677765               -0.01860197                0.09361395                0.01261124                0.02471829                0.00334022
               1.90802754                7.93466687               88.10018469                0.01000002               -0.15650968               -0.03020599                0.10670091                0.20636792                0.06074113               -0.00022030
               2.90520145                7.93082363               88.10674213                0.01000000               -0.10067335               -0.50525392                0.15465703                0.74687556                0.18112545                0.04675233
               3.90601407                7.92951639               88.11393523                0.01000001                0.12088643               -0.91816735                0.14358569                1.27446466                0.03093472                0.16174703
               4.90761918                7.93571896               88.12034854                0.01262792                0.07161745               -0.18336873                0.06436510                1.43803526               -0.05424703                0.11923028
               5.90744642                7.94095441               88.12580167                0.01000001               -0.10286094               -0.06026511                0.07092417                1.13309587               -0.02312153               -0.15532450
               6.90556196                7.94474560               88.13134010                0.01000001               -0.13518443               -0.15779687                0.13808308                0.97241342               -0.03753690               -0.03824968
               7.90474273                7.94698200               88.13722957                0.01000001               -0.02616721                0.01416127                0.12785838                1.06158652               -0.02256923               -0.05403788
               8.90503862                7.94611202               88.14405550                0.01000000               -0.10000946                0.25877257                0.17787670                0.71946457                0.00935956                0.25797823
               9.90274254                7.93889741               88.15082995                0.01247132               -0.22960769                0.43640234                0.21002477                0.41471514                0.09526989                0.41449797
              -0.08359595                8.95004785               88.09072530                0.99999999               -0.02387672               -0.02965240                0.07587151               -0.00339374                0.00204705               -0.05375494
               0.91616528                8.94218143               88.09677279                1.00000000               -0.02558501               -0.02506933                0.08959836               -0.00206729                0.00938128               -0.00676337
               1.91589235                8.93436705               88.10291042                0.99999996               -0.02654219               -0.02918340                0.10430835                0.00901664                0.04292141                0.02662335
               2.91563444                8.92676291               88.10954409                1.00000000               -0.03207744               -0.22083513                0.12714970                0.14280779                0.06072088                0.04865938
               3.91525080                8.91919364               88.11589785                0.01000002               -0.20008972               -0.53579343                0.14523019                1.23500871                0.09234445                0.04839150
               4.91163264                8.93460048               88.12314763                0.01000001               -0.31769421               -0.05988815                0.16351532                1.18073971                0.12185427                0.06704870
               5.90889691                8.94047464               88.12939907                0.01000000               -0.09842367               -0.09328934                0.13269631                0.50216148                0.10509782               -0.14729343
               6.90966417                8.94339963               88.13570054                0.01000001                0.26033204               -0.13933037                0.09445132                0.63639927                0.11153624               -0.00617942
               7.91410356                8.94782360               88.14249217                0.01244216                0.28051199               -0.02799093                0.11707926                0.78300362                0.05404920               -0.06936101
               8.91527441                8.94858372               88.15148953                0.99999999                0.03348031                0.09690148                0.16635234                0.55205694                0.09257420                0.10742727
               9.91477316                8.94527987               88.15846937                1.00000000               -0.05012474                0.29180531                0.17029195                0.43472413               -0.00832521                0.10113619
              -0.07577195                9.94979788               88.09330933                0.99983132               -0.02569519               -0.02499713                0.07445673               -0.00516670               -0.03200097               -0.03965060
               0.92397110                9.94192221               88.09936493                1.00000000               -0.03008274               -0.02592223                0.08765037               -0.00515222               -0.03567011               -0.00538259
               1.92362639                9.93408320               88.10531435                1.00000000               -0.03700343               -0.02838511                0.09874443               -0.00235949               -0.04220366                0.01231264
               2.92323103                9.92640693               88.11126748                0.99999998               -0.03748584               -0.03559798                0.10674747               -0.00447504               -0.03970488               -0.00709152
               3.92287668                9.91880052               88.11734725                0.43994883               -0.66390245               -0.03931143                0.11571454                1.16830104                0.08721276                0.02089262
               4.90995298                9.93452120               88.12586939                0.01346389               -0.70930850               -0.00792820                0.27498829                0.84643864                0.33579587               -0.02093151
               5.90869051                9.93908863               88.13309274                0.01000001                0.04940060               -0.13860106                0.21864354                0.35124883                0.25184723               -0.06868793
               6.91094099                9.94195899               88.14046629                0.01142352                0.32640999               -0.14406315                0.13766367                0.49435984                0.17696188               -0.00459817
               7.91521871                9.94642218               88.14837955                0.01581964                0.38412489               -0.14014140                0.08559999                0.41606758                0.05336397               -0.04176804
               8.91862349                9.94805005               88.15693985                1.00000000                0.14130185               -0.05336784                0.18973108                0.25047456                0.08675758                0.00773227
               9.91804474                9.94473352               88.16391984                0.99839992               -0.05787453               -0.05463505                0.19369999               -0.00449501                0.00773729               -0.00782223
              -0.15710561               -0.05006659               89.06534781                0.91648736               -0.00374508               -0.00439264                0.05655258                0.00330150                0.01008646               -0.00186173
               0.84285694               -0.05429017               89.06897465                0.81358191                0.01188042               -0.03292258                0.06419856                0.01486417                0.02085061                0.00101683
               1.84313200               -0.05769993               89.07281574                0.70595399                0.02983470               -0.02008974                0.07515711                0.02280632                0.04721150                0.00135985
               2.84345363               -0.05965630               89.07683686                0.47701999                0.03673856               -0.01837339                0.08018928                0.07580955                0.05059841                0.00338564
               3.84386677               -0.05912026               89.08079122                0.34801927               -0.05838822                0.01682419                0.08076297                0.10589416                0.00350383                0.00269636
               4.84228587               -0.05538243               89.08421204                0.74784900               -0.11460988               -0.00896957                0.07161489                0.12370144               -0.06520158                0.02395569
               5.84157457               -0.05400698               89.08668958                1.00000000               -0.05970328               -0.02793834                0.09207299                0.02586273               -0.07622929                0.00239936
               6.84109180               -0.05335850               89.08940551                0.99997638               -0.04596514               -0.02294121                0.07956333                0.00299487               -0.06891924                0.01235608
               7.84065527               -0.05310800               89.09207524                1.00000000               -0.03763581               -0.02176632                0.07304364               -0.00018230               -0.07474021                0.01526386
               8.84033909               -0.05305574               89.09470944                1.00000000               -0.02702069               -0.01964972                0.06728476               -0.00360192               -0.06272923               -0.00122611
               9.84011486               -0.05300131               89.09763281                0.99881316               -0.02242316               -0.02318269                0.06400265               -0.00586390               -0.04775487               -0.04110884
              -0.15284902                0.94988948               89.06844828                0.82966001               -0.03287287                0.00898622                0.06686044                0.01289079                0.00034814                0.00537911
               0.84682225                0.94538061               89.07204833                0.28019831               -0.05539235               -0.05345991                0.07658850                0.06544997                0.00670151                0.00940580
               1.84604313                0.94209917               89.07578837                0.01000000               -0.09501781               -0.03510707                0.09101754                0.15273521                0.01927874                0.03464605
               2.84492189                0.94015996               89.07970573                0.01000000               -0.16271771               -0.00664520                0.09954096                0.31938428                0.04475013                0.09878779
               3.84278878                0.94104799               89.08387049                0.01000000               -0.19778236               -0.00503440                0.10802382                0.49242036                0.10671120                0.11145391
               4.84096625                0.94452787               89.08844808                0.01000000               -0.09837702               -0.13182371                0.09393721                0.49584950                0.07889423                0.06480768
               5.84082124                0.94571364               89.09136780                0.01000000               -0.01469924               -0.10279986                0.10114191                0.22861064                0.00122391                0.10084787
               6.84067226                0.94641208               89.09453268                0.75466715               -0.01595856               -0.01965711                0.09935310                0.03088894                0.01263940                0.05876558
               7.84050206                0.94667434               89.09762123                1.00000000               -0.02112667               -0.02732436                0.08907370                0.00657351               -0.00175077                0.02261891
               8.84024973                0.94674776               89.10048842                1.00000000               -0.02501370               -0.01963067                0.08206769               -0.00113138               -0.00993169                0.00834174
               9.84000179                0.94676686               89.10342444                0.99960150               -0.02479367               -0.02916644                0.07900313               -0.00538319               -0.00597849               -0.04812871
              -0.14783005                1.95011313               89.07169664                0.73630051               -0.02137043                0.02193607                0.07964648                0.01823872               -0.00094096                0.03227914
               0.85195624                1.94464063               89.07529955                0.01000000               -0.03813005               -0.08735955                0.09286159                0.14527402                0.02574115                0.02428879
               1.85140735                1.94159793               89.07947905                0.01254937               -0.05318689               -0.02902908                0.07078376                0.36454845                0.08871817                0.10492268
               2.85089251                1.94021079               89.08445071                0.01222262               -0.10300399               -0.02171648                0.08078425                0.56116211                0.12350431                0.15211512
               3.84934727                1.94077906               89.08917724                0.01000001               -0.16776494               -0.05552289                0.08973623                0.72870844                0.11360909                0.13037708
               4.84753721                1.94198109               89.09355627                0.01000000               -0.25423473               -0.15153169                0.12300237                0.79802401                0.07612003                0.19858680
               5.84426257                1.94393702               89.09795413                0.01000001               -0.33941648               -0.13757934                0.11413047                0.73696519                0.10147930                0.10832906
               6.84074888                1.94624835               89.10052619                0.01448018               -0.19057565               -0.17448454                0.09637956                0.54955340               -0.00019382                0.13825093
               7.84045106                1.94634552               89.10326517                0.01000001               -0.02624686               -0.13749378                0.09865866                0.26908226                0.03181778                0.07146321
               8.84022394                1.94655165               89.10639194                1.00000000               -0.02410308               -0.01703321                0.09767190                0.02308186                0.03397240                0.05546168
               9.83996900                1.94641536               89.10906442                1.00000000               -0.02549425               -0.03952617                0.09197628               -0.00043602                0.01329434               -0.06008056
              -0.14153926                2.95032820               89.07519529                0.50355647               -0.02178111                0.02409964                0.08825418                0.06344488                0.00102465                0.05226760
               0.85824293                2.94363342               89.07875967                0.01000000               -0.03483995               -0.14266300                0.10478243                0.30747550                0.08760928                0.05321024
               1.85776394                2.94151859               89.08400968                0.01223976               -0.06394609               -0.06205213                0.08271086                0.54458628                0.14062788                0.13592823
               2.85696401                2.93972563               89.08902233                0.01000001               -0.10856489               -0.07750895                0.07254518                0.62902189                0.10696590                0.11233127
               3.85559264                2.93993753               89.09410873                0.01000000               -0.15976250               -0.08138182                0.08946902                0.81793278                0.12483794                0.14729278
               4.85376876                2.94149724               89.09915282                0.01000001               -0.21496825               -0.08767261                0.11135995                0.91052849                0.12245695                0.15820073
               5.85129328                2.94296205               89.10348323                0.01000000               -0.22569616               -0.13275521                0.13365130                0.90197106                0.12563954                0.00715136
               6.84925483                2.94292239               89.10723888                0.01000000               -0.28564315               -0.28273802                0.16529574                0.93336497               -0.00522573                0.23343313
               7.84558042                2.94392447               89.10977667                0.01067667               -0.43066556               -0.11732926                0.12347345                0.74950938                0.20573771                0.14574613
               8.84064152                2.94640710               89.11296568                1.00000000               -0.26573842               -0.02465290                0.12716788                0.14837758                0.06419426                0.08950712
               9.84026565                2.94597634               89.11468709                1.00000000               -0.03758756               -0.04042911                0.10526571               -0.00479795               -0.00991666               -0.05926997
              -0.13317159                3.95059512               89.07883826                0.36292829                0.00869495               -0.06285836                0.08787686                0.09286658                0.00247992                0.03519557
               0.86691536                3.94178737               89.08259676                0.01000000               -0.03107785               -0.17264871                0.11304598                0.46840146                0.10397596                0.12615081
               1.86620686                3.94035689               89.08839469                0.01000001               -0.09306776               -0.13344647                0.09136343                0.71272709                0.11900475                0.11863516
               2.86505401                3.93866061               89.09372577                0.01000000               -0.11362692               -0.12600031                0.08838462                0.81115217                0.13584309                0.12777487
               3.86393432                3.93915142               89.09926864                0.01000000               -0.11653764               -0.08866407                0.09826821                0.94601411                0.14070907                0.15140518
               4.86272326                3.94022764               89.10459764                0.01000000               -0.15287393               -0.16849137                0.10702468                0.95602211                0.06989232                0.12406928
               5.86087684                3.94128192               89.10872116                0.01437003               -0.21347465               -0.11172499                0.09685400                0.90547911               -0.00962922                0.03549451
               6.85845376                3.94059359               89.11280962                0.01128215               -0.44601491               -0.15190025                0.12349072                1.08122776               -0.02609526                0.12477341
               7.85195654                3.94399893               89.11716389                0.01000001               -0.86570702                0.07932711                0.11921915                1.21684334                0.13146724                0.06464480
               8.84113962                3.94605859               89.11916879                0.01000000               -0.56109885               -0.19063367                0.15721939                1.20810245                0.07453843                0.15452600
               9.84073456                3.94560678               89.12046582                0.78645400               -0.04050572               -0.56842671                0.12059675                1.07608717                0.03156187                0.24426743
              -0.12206643                4.94907103               89.08229302                0.75401860               -0.00843721               -0.11200666                0.07004715                0.11265617                0.02169487               -0.03531212
               0.87784920                4.94018044               89.08710183                0.01000000               -0.13941608               -0.08672489                0.09079444                0.47323687                0.04555668                0.09570512
               1.87514525                4.93884966               89.09243624                0.01000000               -0.17283383               -0.22196802                0.12158202                0.77908594                0.17166615                0.07998722
               2.87439252                4.93720563               89.09837984                0.01000001               -0.10996732               -0.18437041                0.11021909                0.90052466                0.14060866                0.12457310
               3.87294590                4.93816425               89.10420849                0.01000000               -0.18169090               -0.13394312                0.10523160                0.94824952                0.10900332                0.07983101
               4.87075870                4.93812741               89.10956006                0.01000001               -0.19544948               -0.17937538                0.11359906                1.05548505                0.08354255                0.10640933
               5.86903691                4.94072755               89.11385936                0.01670106               -0.12981615               -0.11299880                0.09056367                1.01491943                0.07259976               -0.02893480
               6.86816238                4.93988439               89.11789460                0.01000001               -0.22923110               -0.02615483                0.06998683                1.16864120                0.06776437                0.01931597
               7.86445229                4.94551101               89.12218750                0.01401949               -0.24833242                0.04895569                0.08611515                1.26893987                0.00190448               -0.01609992
               8.86319573                4.94259443               89.12701394                0.01207156               -0.08806349               -0.25378631                0.10056230                1.10619003               -0.10588564                0.32425722
               9.86269102                4.93460780               89.13221271                0.01000000               -0.05047112               -0.66101954                0.20576062                0.89240067               -0.16802816                0.63879137
              -0.11313728                5.94835499               89.08446861                0.99999999               -0.02612470               -0.06008945                0.08804692                0.02640818                0.00332719               -0.06609418
               0.88660147                5.94005288               89.08968052                0.01000000               -0.10496638               -0.01347992                0.09647998                0.22720618                0.08802688               -0.00124536
               1.88476339                5.93591753               89.09654252                0.01000001               -0.14257774               -0.31131051                0.11269463                0.72938409                0.08214231                0.12130326
               2.88374992                5.93497321               89.10237114                0.01000000               -0.13929330               -0.21115788                0.13032642                0.88433395               -0.01748863                0.12142684
               3.88197753                5.93647256               89.10791276                0.01437026               -0.12401324               -0.19326317                0.09718718                0.89463874                0.00857134                0.00048242
               4.88126965                5.93664013               89.11349081                0.01674146               -0.12796368               -0.10745179                0.08505044                1.00328689               -0.06523379                0.10719343
               5.87941825                5.93902194               89.11862208                0.01000001               -0.21132614               -0.20242679                0.09148245                1.14515579               -0.09461229               -0.03969973
               6.87704313                5.94007050               89.12344981                0.01000000               -0.23964750                0.02564365                0.09715848                1.33614393               -0.13142712               -0.02258544
               7.87462530                5.94497805               89.12761917                0.01000000               -0.14382506               -0.12218120                0.11684450                1.25160867               -0.20679683                0.09506619
               8.87416663                5.94098286               89.13264753                0.01000000               -0.00347384               -0.08664725                0.12920504                0.60421776               -0.16511031                0.29024061
               9.87455582                5.93238639               89.13824909                0.01000000                0.03891967               -0.11793804                0.17499603                0.31773238               -0.08113400                0.29837425
              -0.10493405                6.94786924               89.08683660                0.99920178               -0.02351727               -0.04801750                0.07797572                0.00229915                0.00723703               -0.06297198
               0.89483078                6.93991084               89.09238333                0.57368188               -0.01266776               -0.01376693                0.09918103                0.03837804                0.07894235                0.00910220
               1.89481260                6.93262345               89.09930198                0.01448572               -0.16533078               -0.17869038                0.09088737                0.52982114                0.11881776                0.00103654
               2.89152417                6.93298247               89.10571600                0.01000000               -0.28204269               -0.29848260                0.16648660                0.92768347                0.16352108               -0.01373666
               3.88917175                6.93429898               89.11153929                0.01128788               -0.16245573               -0.40654449                0.12701455                1.06406168                0.07671296               -0.01761998
               4.88827505                6.93597837               89.11700182                0.01000001               -0.03310418               -0.20254827                0.05871929                1.13760819               -0.03424404                0.10256668
               5.88850966                6.93667901               89.12301765                0.01000000                0.03270507               -0.23322946                0.09486000                1.30431903               -0.07981673               -0.08191437
               6.88892915                6.94039726               89.12839489                0.01000000                0.00312163               -0.01729438                0.12185936                1.44510457               -0.13176052               -0.08486433
               7.88857209                6.94306738               89.13374235                0.01000000               -0.05287042               -0.11639143                0.15898384                1.27520114               -0.06808819                0.10351563
               8.88787174                6.94086148               89.13892564                0.01000001               -0.11667370                0.07991133                0.15791815                0.72865219               -0.00772861                0.31223274
               9.88623862                6.93224904               89.14462150                0.01000000               -0.16331242                0.19563729                0.15721005                0.32935997               -0.00072206                0.32644701
              -0.09717450                7.94739464               89.08914783                1.00000000               -0.02106775               -0.04102657                0.07339335                0.00003692                0.01342584               -0.06878638
               0.90261482                7.93977754               89.09511756                1.00000000               -0.02686569               -0.01890117                0.09128487                0.01061374                0.02399026               -0.00041454
               1.90228819                7.93234372               89.10125588                0.01309999               -0.09933847               -0.02652399                0.10418049                0.21470229                0.05672190                0.00059094
               2.90062806                7.92900355               89.10790661                0.01069200               -0.10126676               -0.39478702                0.13730404                0.70978937                0.11215826                0.16504816
               3.90026285                7.92834167               89.11532871                0.01000001                0.05068645               -0.80708641                0.14096273                1.18903800                0.01763189                0.13833529
               4.90164178                7.93258917               89.12073562                0.01405916                0.04114465               -0.23090382                0.07406525                1.21739597               -0.05988031                0.02504481
               5.90108575                7.93435735               89.12663368                0.01000000               -0.10424664               -0.14089972                0.11266363                1.20877910               -0.00548658               -0.16008777
               6.89955685                7.93972461               89.13299519                0.01000000               -0.07103209               -0.09170992                0.16162441                1.24239765                0.01739434               -0.07473972
               7.89966510                7.94265022               89.13905190                0.01138614                0.00005814               -0.05116321                0.18264153                1.03104324                0.08166577                0.04191855
               8.89955801                7.94258109               89.14620984                0.01568899               -0.06486011                0.11185744                0.15004068                0.69843810                0.11688540                0.25970202
               9.89836790                7.93629913               89.15339011                0.01000001               -0.11901121                0.36903364                0.12183862                0.44440880                0.18367480                0.35372336
              -0.08969911                8.94704871               89.09144711                0.99987684               -0.02069162               -0.02908052                0.06929300               -0.00449066                0.00009183               -0.05645902
               0.91009398                8.93953282               89.09764476                0.99999998               -0.02101316               -0.02477078                0.08442617               -0.00232277                0.00844010               -0.00937689
               1.90988063                8.93209297               89.10394444                1.00000000               -0.01859863               -0.02554926                0.09982264                0.02139728                0.05048121                0.02600633
               2.90972200                8.92508673               89.11083982                1.00000000               -0.02568699               -0.21487237                0.12848679                0.10768879                0.08172111                0.06346337
               3.90936689                8.91815725               89.11740182                0.01000000               -0.15573603               -0.52972462                0.15806482                1.11761592                0.11105845                0.08375451
               4.90660728                8.93136030               89.12485854                0.01501927               -0.19085440               -0.09062981                0.13869882                0.99326116                0.20789446               -0.02769818
               5.90554980                8.93386102               89.13095336                0.01335332               -0.05615206               -0.01889989                0.13227375                0.52782211                0.19232265               -0.11916568
               6.90548424                8.93856306               89.13711642                0.01000001                0.03933382               -0.12693030                0.16703654                0.64614687                0.14321659               -0.04003784
               7.90633648                8.94204412               89.14411955                0.01000000                0.13536750               -0.12684297                0.18793075                0.61498009                0.07725293               -0.03915140
               8.90819159                8.94309863               89.15316223                0.99999999                0.06771172               -0.00102596                0.16808489                0.48645752                0.09385474                0.07192157
               9.90769071                8.93962971               89.16016492                0.99457015               -0.05008796                0.13940711                0.16894833                0.29080282               -0.00839197                0.04614063
              -0.08223253                9.94681303               89.09401149                1.00000000               -0.02433637               -0.02356836                0.06723267               -0.00643261               -0.03574607               -0.04223007
               0.91752411                9.93928212               89.10021218                1.00000000               -0.03026241               -0.02506971                0.08225337               -0.00600158               -0.04112998               -0.00658869
               1.91716223                9.93183273               89.10628678                1.00000000               -0.04032807               -0.02602390                0.09465585               -0.00064140               -0.05173408                0.01080843
               2.91671755                9.92470611               89.11233709                1.00000000               -0.04103117               -0.03806232                0.10767917               -0.00472358               -0.05203035               -0.00900157
               3.91634160                9.91774717               89.11851435                0.84201168               -0.54571531               -0.04100801                0.12310349                1.00099442                0.19468028                0.02816604
               4.90580324                9.93077657               89.12954888                0.01317832               -0.59510886               -0.05837269                0.27706528                0.73120487                0.45089002               -0.03829819
               5.90443942                9.93397936               89.13577939                0.01000003               -0.07532763                0.01183360                0.18232038                0.20943378                0.15426325               -0.02013005
               6.90429669                9.93718600               89.14205660                0.01392926                0.14948573               -0.13770592                0.16097627                0.18794474                0.06477286                0.01840021
               7.90742914                9.94011336               89.14947617                0.01000000                0.37024404               -0.19307617                0.16510188                0.37799438                0.11135733               -0.04728384
               8.91170157                9.94256057               89.15884459                0.99458621                0.18463248               -0.05380592                0.19135333                0.29969348                0.12586029                0.00763692
               9.91112179                9.93908727               89.16584782                1.00000000               -0.05797813               -0.05424412                0.19157768               -0.00422216                0.00802608               -0.00753919
              -0.16066718               -0.05323447               90.06593999                0.88131537               -0.00447778               -0.00529045                0.06238958                0.00094160                0.01002021               -0.00147424
               0.83928804               -0.05740705               90.06962624                0.76553386                0.01493539               -0.03292472                0.06640643                0.01410306                0.02139879                0.00358970
               1.83963153               -0.06074495               90.07356761                0.75602147                0.03273834               -0.02458960                0.07569595                0.01714521                0.04730279                0.00238838
               2.83994281               -0.06260459               90.07762641                0.53053938                0.02857421               -0.01606762                0.07671522                0.05999627                0.04650573                0.00237976
               3.84020301               -0.06231884               90.08158300                0.38513261               -0.05987951                0.01176475                0.07889562                0.08649742               -0.00454177                0.00322475
               4.83874522               -0.05951468               90.08488876                0.88260019               -0.09944545               -0.01108043                0.06526500                0.10473107               -0.05122049                0.02004178
               5.83821410               -0.05872903               90.08756724                0.99999999               -0.05141110               -0.02425550                0.08245517                0.01271387               -0.07258760               -0.00090535
               6.83771700               -0.05845269               90.09017825                0.99976164               -0.04742293               -0.01971963                0.07611049                0.00392496               -0.07751607                0.01503923
               7.83726564               -0.05859270               90.09278317                0.99945533               -0.03885128               -0.01930516                0.06938503                0.00140429               -0.08058285                0.01358951
               8.83693997               -0.05893559               90.09535580                0.99835509               -0.02744011               -0.01631776                0.06299038               -0.00338530               -0.06697642               -0.00354677
               9.83671684               -0.05929780               90.09824876                0.99387035               -0.02231290               -0.02309850                0.06005914               -0.00633664               -0.05081662               -0.04385786
              -0.15648519                0.94671263               90.06912689                0.77393889               -0.03305006                0.01214589                0.06917812                0.01286058                0.00306951                0.00596135
               0.84318431                0.94226371               90.07281447                0.41792945               -0.05565319               -0.05430000                0.07589731                0.06217674                0.01272132                0.01473209
               1.84240175                0.93900915               90.07669364                0.01028098               -0.09272979               -0.03927467                0.08809074                0.15048308                0.02861953                0.01535899
               2.84132972                0.93723474               90.08068099                0.01000000               -0.14393600               -0.02254588                0.09481787                0.28779626                0.05204505                0.07846838
               3.83952303                0.93779880               90.08490856                0.01117658               -0.16660472               -0.02266026                0.10298563                0.42290975                0.10409916                0.08851515
               4.83799762                0.94037452               90.08931954                0.01000001               -0.08563917               -0.07831015                0.08397625                0.41327420                0.07318207                0.07154025
               5.83781025                0.94102841               90.09233246                0.01000001               -0.01547710               -0.11186954                0.09194737                0.23520878                0.00769432                0.08585650
               6.83768808                0.94135011               90.09548973                0.89719764               -0.01445541               -0.01835984                0.09023403                0.02811941                0.00848910                0.04675590
               7.83752114                0.94121424               90.09847921                0.99999999               -0.02147077               -0.02544367                0.08197197                0.00668865               -0.00907006                0.01741214
               8.83725866                0.94090123               90.10128277                0.99999999               -0.02527287               -0.01375575                0.07693953               -0.00000157               -0.01380959                0.00534420
               9.83701568                0.94047121               90.10419332                1.00000000               -0.02429845               -0.03161455                0.07457776               -0.00649008               -0.00746950               -0.05328890
              -0.15151213                1.94700845               90.07249370                0.77418691               -0.02528231                0.02612535                0.08014942                0.01447620                0.00071773                0.03269825
               0.84823505                1.94150695               90.07622127                0.01014143               -0.04088568               -0.08783658                0.08956732                0.14482690                0.00775619                0.03326259
               1.84767016                1.93846956               90.08018380                0.01000001               -0.06629836               -0.04896893                0.07024255                0.35008949                0.07417075                0.08875206
               2.84690908                1.93694449               90.08521593                0.01000001               -0.10743679               -0.05281460                0.06935286                0.51965886                0.10104937                0.11784419
               3.84552142                1.93722795               90.09007844                0.01000001               -0.15639948               -0.06023496                0.09231588                0.71118242                0.07990120                0.16542872
               4.84378109                1.93891912               90.09482516                0.01164312               -0.17893713               -0.12054735                0.10018995                0.69929848                0.07078570                0.17134881
               5.84194268                1.93903358               90.09876457                0.01184907               -0.28437708               -0.14973524                0.10665316                0.65411500                0.05976139                0.12873045
               6.83809355                1.94118011               90.10138828                0.01131065               -0.20471897               -0.13272544                0.08022215                0.55723324                0.00663934                0.13434168
               7.83784830                1.94089842               90.10420816                0.01000000               -0.02052914               -0.19576916                0.08946129                0.37077378                0.03600295                0.08857670
               8.83768297                1.94078929               90.10733230                1.00000000               -0.02006176                0.00089468                0.09058043                0.04208625                0.03277764                0.05986916
               9.83744707                1.94006991               90.10996088                0.99999999               -0.02359022               -0.04547771                0.08841230                0.00545590                0.01157408               -0.06839711
              -0.14519267                2.94723513               90.07606530                0.55357058               -0.01875857                0.01807284                0.08460418                0.05068076                0.00005524                0.04632876
               0.85461974                2.94050698               90.07978543                0.01000000               -0.04206657               -0.13011435                0.09943753                0.27876289                0.06750322                0.06009054
               1.85396600                2.93802978               90.08479936                0.01000001               -0.08276226               -0.07662794                0.07422011                0.50512774                0.11614104                0.10745581
               2.85296450                2.93617844               90.08982383                0.01000000               -0.10969729               -0.08390131                0.09885873                0.64255661                0.12924186                0.13509505
               3.85177205                2.93659410               90.09497732                0.01000001               -0.13932663               -0.06254934                0.09583144                0.82550934                0.14479456                0.16890688
               4.85017797                2.93796357               90.10019964                0.01218354               -0.15702507               -0.10534899                0.09957482                0.83356020                0.12145837                0.13287564
               5.84863155                2.93803371               90.10482480                0.01728198               -0.16050339               -0.11474592                0.11963769                0.77398688                0.11578983                0.06561891
               6.84696790                2.93869561               90.10849396                0.01733024               -0.16520579               -0.21169371                0.11553878                0.73465936                0.14670956                0.07243296
               7.84532744                2.93729886               90.11130552                0.01000001               -0.40194972               -0.15116164                0.14321898                0.70862530                0.15933313                0.11196990
               8.83892890                2.94091912               90.11422552                1.00000000               -0.33819364               -0.01108797                0.10859685                0.25534624                0.04913117                0.11429742
               9.83856356                2.93956166               90.11574872                1.00000000               -0.03653411               -0.04540758                0.10535836               -0.00875105               -0.02104277               -0.07406027
              -0.13704219                3.94736991               90.07969507                0.40164991                0.00578598               -0.06436038                0.08525375                0.07385176                0.00268230                0.01896663
               0.86301567                3.93890467               90.08368263                0.01115983               -0.04282810               -0.14650578                0.10743382                0.40288421                0.08014843                0.11867292
               1.86210125                3.93693700               90.08932024                0.01000001               -0.09098911               -0.13006255                0.09194939                0.69644664                0.15364862                0.08320681
               2.86119588                3.93526647               90.09458029                0.01000001               -0.09273813               -0.10810738                0.09570868                0.81841489                0.15614903                0.14965635
               3.86024648                3.93597696               90.10030371                0.01291388               -0.10915955               -0.07890391                0.09254504                0.93324145                0.14476263                0.15169639
               4.85901269                3.93681214               90.10534396                0.01741878               -0.17780495               -0.13070118                0.09752788                0.89228765                0.06341330                0.12451274
               5.85669038                3.93673866               90.10954873                0.01000000               -0.27455549               -0.10546131                0.12175081                0.85983241                0.01799381                0.01190384
               6.85352158                3.93694624               90.11420587                0.01000000               -0.34465466               -0.21788418                0.12667260                0.94419894               -0.04851282                0.09766806
               7.84979729                3.93787519               90.11834286                0.01000000               -0.64972449                0.11808059                0.10347686                0.89039670                0.06548599               -0.01084005
               8.84052709                3.94056753               90.12081772                0.01498284               -0.49051612               -0.07186452                0.17229869                0.91213550                0.13389549                0.16293332
               9.83998697                3.93916176               90.12173601                1.00000000               -0.05401263               -0.37368164                0.15003669                0.66685238                0.05138125                0.21061964
              -0.12678515                4.94594793               90.08294839                0.88702820               -0.01045082               -0.09792201                0.06345293                0.09588788                0.01831720               -0.02923046
               0.87311034                4.93757686               90.08794628                0.01000001               -0.08408580               -0.07473804                0.08135737                0.39250450                0.05307806                0.08438088
               1.87153313                4.93542852               90.09368623                0.01164268               -0.14087539               -0.15259386                0.10494373                0.67750259                0.14164473                0.07377652
               2.87029283                4.93401630               90.09943017                0.01221868               -0.13209598               -0.12933079                0.09923733                0.82603974                0.12143913                0.11990916
               3.86889121                4.93501603               90.10493552                0.01743387               -0.15154024               -0.15536314                0.09682215                0.88900888                0.10680512                0.07411297
               4.86726203                4.93534955               90.11016737                0.01366125               -0.15985555               -0.14517626                0.07623675                0.88497391                0.10277231                0.11991879
               5.86569410                4.93592448               90.11483388                0.01386178               -0.12733399               -0.13039900                0.10044791                0.81095126                0.09449766               -0.02534077
               6.86471535                4.93433792               90.11895608                0.01000000               -0.30900111               -0.11748854                0.14820870                1.09479795                0.04958178                0.01869115
               7.85951408                4.93966047               90.12327379                0.01000001               -0.44151491                0.09905163                0.12914119                1.22798344               -0.10762593               -0.05554934
               8.85588505                4.93948183               90.12784912                0.01000001               -0.24009588               -0.17187507                0.21142197                1.01119970               -0.40155391                0.35459708
               9.85471216                4.93208803               90.13353612                0.01115161               -0.11728875               -0.50763305               -0.02547668                0.67756746               -0.32396333                0.75552362
              -0.11838230                5.94541147               90.08530992                1.00000000               -0.02325402               -0.05254311                0.07944929                0.01411599               -0.00037248               -0.06474210
               0.88138516                5.93740991               90.09061370                0.01000001               -0.12029200               -0.01391876                0.08918956                0.23328961                0.07508063                0.00639148
               1.87921186                5.93388512               90.09737232                0.01185716               -0.16279916               -0.25749916                0.10652106                0.64727606                0.12556964                0.05233038
               2.87812918                5.93267985               90.10369438                0.01726308               -0.12592257               -0.14792582                0.12033983                0.76356528                0.03783871                0.12197058
               3.87669341                5.93286970               90.10876254                0.01000000               -0.11627300               -0.26136975                0.12434761                0.86214130               -0.01172096                0.02909912
               4.87580372                5.93390861               90.11443102                0.01387047               -0.13861874               -0.11375852                0.09806942                0.80728335               -0.04659704                0.10022718
               5.87392103                5.93413068               90.11984187                0.01000000               -0.20610830               -0.19472145                0.09483332                0.86329939               -0.04773141               -0.02860295
               6.87168155                5.93459647               90.12456546                0.01000000               -0.23539925                0.04874864                0.10907510                1.19468883               -0.06854499                0.01647880
               7.86921305                5.93985622               90.12899708                0.01000000               -0.16790086               -0.07412604                0.15507271                1.26826064               -0.01397911                0.05414143
               8.86832353                5.93713003               90.13407247                0.01000001               -0.04435622               -0.16956064                0.18407929                0.75173175                0.00776027                0.30073935
               9.86832592                5.92900910               90.13968632                0.01056556                0.00023907               -0.20741424                0.22861979                0.48447269                0.00592272                0.28880107
              -0.11049971                6.94489706               90.08758932                1.00000000               -0.01978112               -0.05033851                0.07404906                0.00386474                0.01259487               -0.07159794
               0.88930248                6.93729848               90.09337290                0.77832133               -0.01457914               -0.01280184                0.09393865                0.03498573                0.06144473                0.00786213
               1.88920871                6.93027854               90.10007128                0.01130624               -0.13614611               -0.19244482                0.07067019                0.54601764                0.11521519                0.00934171
               2.88657955                6.93105778               90.10706087                0.01735042               -0.21517152               -0.18395361                0.11961169                0.73763531                0.02439723                0.15076665
               3.88490527                6.92978863               90.11306094                0.01000000               -0.22164195               -0.32245668                0.13504844                0.94304459                0.06298475               -0.04518645
               4.88214672                6.93307438               90.11801713                0.01000000               -0.13165208               -0.27727352                0.14903228                1.07771539               -0.00939105                0.04906685
               5.88227223                6.93203005               90.12412487                0.01000000                0.03684310               -0.21568627                0.10923419                1.16972996               -0.00781632               -0.04951200
               6.88288358                6.93531289               90.12951688                0.01000001                0.00367477               -0.00335943                0.11104991                1.39789920               -0.03882728               -0.00297627
               7.88234573                6.93817795               90.13513838                0.01000001               -0.05583842               -0.12065266                0.13537495                1.23630387               -0.06815307                0.08893996
               8.88176681                6.93609062               90.14063291                0.01000001               -0.08511232               -0.00302840                0.19486546                0.72381851               -0.05590411                0.24451460
               9.88064348                6.92793974               90.14674413                0.01228313               -0.11233272                0.07096774                0.19801256                0.37139071                0.00897517                0.29661296
              -0.10310784                7.94440470               90.08985581                1.00000000               -0.01887577               -0.04210264                0.06945737                0.00043122                0.01280564               -0.07342655
               0.89670340                7.93715387               90.09601169                0.99999999               -0.02596193               -0.01996058                0.08537969                0.00828976                0.01961613               -0.00842883
               1.89637292                7.93003622               90.10226830                0.01000000               -0.16658033               -0.02111287                0.09431757                0.31725602                0.07390310                0.01071534
               2.89337179                7.92900078               90.10948821                0.01000001               -0.14176072               -0.37280361                0.14222757                0.68081363                0.04827358                0.19160377
               3.89353770                7.92642057               90.11675449                0.01000000                0.08724058               -0.60527730                0.12060720                0.89551708               -0.05172364                0.05867332
               4.89511660                7.92836314               90.12182984                0.01000001                0.07697060               -0.39205624                0.13619699                1.17443326               -0.08899435               -0.10383254
               5.89507712                7.92981695               90.12805494                0.01000000               -0.08124846               -0.15422201                0.15914349                1.21896949                0.02519359               -0.01884597
               6.89349163                7.93452928               90.13457259                0.01000001               -0.09578568               -0.08877192                0.14961486                1.20524712                0.04147706               -0.03636658
               7.89316140                7.93744317               90.14088240                0.01000001               -0.02267605               -0.07808278                0.18953245                0.98986268                0.02379965                0.08536034
               8.89303811                7.93706946               90.14705632                0.01000001               -0.05529558                0.06483925                0.16784835                0.61623030               -0.00477026                0.11734044
               9.89205549                7.93042845               90.15326672                0.02854449               -0.09826235                0.29026133                0.12041847                0.33372174               -0.04337066                0.18818792
              -0.09598943                8.94405501               90.09211116                0.99987682               -0.01738230               -0.02900904                0.06469740               -0.00459472               -0.00288414               -0.05969573
               0.90383674                8.93689927               90.09846131                0.99948539               -0.01518264               -0.02491298                0.07880363               -0.00144635                0.00471836               -0.01378401
               1.90370691                8.92985628               90.10490687                1.00000000               -0.00126307               -0.02107629                0.09261866                0.03981600                0.05395520                0.02270247
               2.90381148                8.92360171               90.11211382                1.00000000               -0.01268311               -0.28842036                0.11037866                0.22089294                0.10509981                0.04666412
               3.90345325                8.91768309               90.11905914                0.01438971               -0.07862438               -0.46408936                0.17338309                0.88261613                0.12765425                0.12940884
               4.90223900                8.92523325               90.12592161                0.01000001               -0.14838829               -0.19943019                0.25024967                0.89258301                0.25976855               -0.36783888
               5.90048549                8.92894561               90.13204454                0.01000003               -0.14383463               -0.03915002                0.18448821                0.62475696                0.19001087               -0.01538032
               6.89936230                8.93353746               90.13904127                0.01000000               -0.04413436               -0.10413274                0.23505076                0.63593608                0.15713848               -0.03367964
               7.89960280                8.93661630               90.14625079                0.01000001                0.08719154               -0.13399459                0.24839624                0.56732067                0.12343401                0.06416313
               8.90110613                8.93738740               90.15485122                0.99999999                0.04985699               -0.01156949                0.17112552                0.44298002                0.07134304                0.10158084
               9.90059994                8.93374497               90.16184834                0.99964555               -0.05061946                0.13942453                0.16625319                0.24292222               -0.00802549                0.12621516
              -0.08888826                9.94382452               90.09465398                0.99518463               -0.02385407               -0.02304962                0.06250630               -0.00677328               -0.03886968               -0.04496402
               0.91087320                9.93665561               90.10101000                1.00000000               -0.03224688               -0.02436632                0.07740976               -0.00684529               -0.04714985               -0.00791318
               1.91046680                9.92961470               90.10720747                0.99999999               -0.04551757               -0.02415853                0.09095319                0.00482703               -0.06080704                0.00915076
               2.90996285                9.92323237               90.11342107                0.99666002               -0.04541609               -0.03693346                0.10705958               -0.00865929               -0.06664519               -0.01941364
               3.90955848                9.91713878               90.11980932                1.00000000               -0.41285557               -0.05443051                0.15174651                0.66763128                0.18839417                0.04724932
               4.90170574                9.92437454               90.13141069                0.01000000               -0.51452155               -0.08587121                0.03074256                0.54143281                0.65045857               -0.27177654
               5.89926805                9.92903395               90.13673915                0.01000002               -0.15830330                0.00883404                0.22344119                0.28186067                0.16472221               -0.01671105
               6.89853967                9.93244663               90.14368581                0.01000000                0.06949086               -0.10908310                0.23917626                0.20420313                0.25769701               -0.01357165
               7.90065787                9.93476328               90.15168159                0.01000002                0.31146851               -0.18530191                0.24145579                0.32507923                0.23612942                0.04381236
               8.90476904                9.93683807               90.16076692                0.99962234                0.17704675               -0.05493311                0.19158906                0.28897397                0.11337712                0.00815826
               9.90419880                9.93321694               90.16775139                0.99569206               -0.05702389               -0.05280281                0.19173561               -0.00222675                0.00638837               -0.00913595
              -0.16427770               -0.05646988               91.06659560                0.84361394               -0.00650066               -0.00751205                0.06990472               -0.00100402                0.00915992               -0.00119229
               0.83565730               -0.06059483               91.07030278                0.69886373                0.01777932               -0.03249506                0.06968996                0.01354616                0.02213312                0.00632456
               1.83607789               -0.06390422               91.07432966                0.78519164                0.03555320               -0.03056195                0.07480078                0.01095792                0.04553394                0.00411944
               2.83636836               -0.06571789               91.07837116                0.57184600                0.02178448               -0.01423059                0.07281767                0.04781782                0.04058271                0.00487170
               3.83651358               -0.06570688               91.08236913                0.42813997               -0.05455698                0.00297353                0.07985586                0.06559913               -0.01431137                0.00709343
               4.83527722               -0.06384316               91.08551734                0.96398086               -0.08401246               -0.01345601                0.06303054                0.08044532               -0.04447670                0.01739366
               5.83483333               -0.06355552               91.08833868                1.00000000               -0.04758308               -0.02110429                0.07358200                0.00528568               -0.06805139                0.00010522
               6.83432556               -0.06368067               91.09092772                1.00000000               -0.04836324               -0.01821523                0.07251314                0.00333346               -0.08359868                0.01330825
               7.83386606               -0.06422830               91.09346294                1.00000000               -0.03957972               -0.01741056                0.06613543                0.00115826               -0.08818743                0.01009831
               8.83353396               -0.06498061               91.09596925                0.99161433               -0.02767296               -0.01412372                0.06023748               -0.00441818               -0.07203170               -0.00523910
               9.83331261               -0.06576760               91.09883400                0.98919953               -0.02213587               -0.02434410                0.05629203               -0.00682890               -0.05336290               -0.04491029
              -0.16016278                0.94345500               91.06983184                0.70139036               -0.03272883                0.01492827                0.07269900                0.01286446                0.00592896                0.00720915
               0.83950993                0.93908022               91.07356628                0.48065876               -0.05441100               -0.05351208                0.07526740                0.05495649                0.01864546                0.01970249
               1.83874900                0.93579016               91.07755018                0.03269203               -0.08810279               -0.04142662                0.08474096                0.14389034                0.03575966                0.00616895
               2.83774787                0.93413981               91.08160209                0.01128186               -0.12583934               -0.04286382                0.09362560                0.25915932                0.06080961                0.05478979
               3.83623221                0.93432285               91.08593021                0.01000000               -0.13709398               -0.01371233                0.10842801                0.33524738                0.09623145                0.07228342
               4.83500599                0.93602228               91.09012760                0.01000000               -0.07136346               -0.08144330                0.08283468                0.34500772                0.06392732                0.05569263
               5.83480494                0.93623344               91.09320675                0.01000001               -0.01553530               -0.12125971                0.08761320                0.20881294                0.00919727                0.10149306
               6.83469529                0.93613718               91.09633737                0.94846153               -0.01386596               -0.01941858                0.08402215                0.02383351                0.00192659                0.03371388
               7.83452762                0.93559759               91.09926067                1.00000000               -0.02179290               -0.02404743                0.07631370                0.00510002               -0.01635475                0.01151733
               8.83425943                0.93487815               91.10202721                0.99308576               -0.02481615               -0.01065542                0.07205615               -0.00079075               -0.01793661                0.00210204
               9.83403130                0.93398896               91.10491600                1.00000000               -0.02281306               -0.03701922                0.07003739               -0.00738252               -0.00961973               -0.05411793
              -0.15527084                1.94382869               91.07329963                0.79368777               -0.03078943                0.02992005                0.07923721                0.00984263                0.00331468                0.03146840
               0.84442126                1.93833493               91.07709090                0.03318274               -0.04165262               -0.08531752                0.08590527                0.13937848                0.00008523                0.03978392
               1.84389611                1.93526725               91.08088391                0.01000001               -0.07012029               -0.06294455                0.07851151                0.31946366                0.05950119                0.07515595
               2.84301886                1.93342484               91.08583777                0.01000001               -0.12800240               -0.05383193                0.10268194                0.51873152                0.13094216                0.11989330
               3.84133606                1.93401887               91.09102356                0.01000000               -0.13760343               -0.06162276                0.09507703                0.64918243                0.10874338                0.13676594
               4.84026679                1.93452797               91.09556006                0.01000000               -0.12206855               -0.11931615                0.09032611                0.56724339                0.07290594                0.10229963
               5.83889469                1.93401929               91.10008720                0.01000000               -0.24143564               -0.13715858                0.14796021                0.59564062               -0.12598949                0.27055390
               6.83543808                1.93593096               91.10213063                0.01000000               -0.18337956               -0.22918580                0.08056344                0.61422427               -0.01740161                0.12946170
               7.83522710                1.93529075               91.10505439                0.01000000               -0.01556507               -0.17842118                0.08408381                0.36916038                0.03969530                0.10164539
               8.83512678                1.93480628               91.10820355                0.99999999               -0.01418858                0.01647417                0.08400062                0.05613968                0.03133841                0.04754385
               9.83494332                1.93349202               91.11083267                0.99925955               -0.01834512               -0.06344824                0.08775501                0.00692970                0.01106239               -0.07170402
              -0.14897841                2.94405340               91.07688737                0.59094104               -0.01626549                0.01313350                0.08025227                0.04093574                0.00253887                0.03894411
               0.85085893                2.93737387               91.08074842                0.01130926               -0.04866150               -0.11674745                0.09717501                0.24748856                0.04710176                0.06869697
               1.85004836                2.93453127               91.08549408                0.01000001               -0.07440256               -0.10665489                0.10551998                0.50876814                0.11382077                0.13605821
               2.84937088                2.93306317               91.09099951                0.01000000               -0.09678171               -0.06887201                0.10559562                0.63668923                0.13864656                0.14840899
               3.84811272                2.93309040               91.09602536                0.01000000               -0.15102193               -0.08958596                0.10684465                0.76513152                0.12345312                0.13310743
               4.84635044                2.93363595               91.10114432                0.01000000               -0.13989804               -0.08889022                0.09037328                0.74397869                0.11993383                0.11548870
               5.84531476                2.93349027               91.10587599                0.01682950               -0.03210666               -0.12541818                0.09244405                0.56988151                0.07233036                0.10036365
               6.84570831                2.93155346               91.10954965                0.01000000               -0.11396267               -0.19230642                0.09019643                0.58951031                0.01426785                0.10266906
               7.84303551                2.93202917               91.11264105                0.01000000               -0.42636814               -0.17384442                0.12590473                0.75407424               -0.08291183                0.25128778
               8.83718095                2.93520763               91.11513762                0.99936122               -0.31185529                0.04436931                0.08591110                0.29942179                0.02222418                0.11915840
               9.83679840                2.93272000               91.11679425                0.99643443               -0.03825434               -0.07301285                0.11492311                0.00035055               -0.01542921               -0.06241182
              -0.14109306                3.94409136               91.08054333                0.44657376               -0.00137769               -0.05909166                0.08624195                0.05498954                0.00570504                0.00210820
               0.85889316                3.93599998               91.08474544                0.01000000               -0.02623875               -0.12184429                0.11188320                0.31783921                0.06015157                0.10770135
               1.85838217                3.93313415               91.09023368                0.01000000               -0.08498231               -0.11290837                0.09322789                0.62466542                0.12129881                0.10648617
               2.85719352                3.93204740               91.09563995                0.01000000               -0.11581314               -0.12867242                0.10887200                0.76470636                0.12922259                0.12342188
               3.85606590                3.93222715               91.10111954                0.01000000               -0.12235122               -0.09513634                0.10283322                0.84674241                0.10569215                0.10785868
               4.85474649                3.93275017               91.10654820                0.01510662               -0.18455478               -0.10986157                0.10986223                0.79245574                0.04815872                0.07905113
               5.85237481                3.93151092               91.11115618                0.01000000               -0.30285559               -0.17813338                0.14810385                0.80790282                0.02619124                0.05812050
               6.84868938                3.93208483               91.11534307                0.01169513               -0.28601986               -0.08274215                0.11577285                0.76543618                0.09519140                0.00619688
               7.84665441                3.93181386               91.11923343                0.01166211               -0.41325022                0.08583166                0.10499581                0.69900264                0.06217726                0.08262891
               8.84042438                3.93569366               91.12261476                1.00000000               -0.33644056                0.06119899                0.12237102                0.39696379                0.14515738                0.23711618
               9.83992560                3.93203176               91.12346656                1.00000000               -0.04987779               -0.04760180                0.14763172                0.03577663                0.03611972                0.01001608
              -0.13169586                4.94287157               91.08356208                0.96108016               -0.01312151               -0.08360704                0.06256787                0.07357943                0.01575920               -0.02929489
               0.86817292                4.93493698               91.08872897                0.01000000               -0.09049452               -0.06229432                0.08073065                0.32745275                0.04475931                0.07066953
               1.86649425                4.93227311               91.09453511                0.01000000               -0.13004556               -0.12775344                0.09826314                0.56823409                0.11323386                0.04550920
               2.86557201                4.93048972               91.10036459                0.01000000               -0.10747221               -0.11327381                0.09226265                0.74187591                0.10501855                0.12192118
               3.86434480                4.93118767               91.10614493                0.01512634               -0.13281122               -0.16490188                0.11153746                0.79447804                0.07404953                0.05125526
               4.86291579                4.93143872               91.11108479                0.01354511               -0.11033239               -0.09776240                0.09871435                0.66259084                0.01895930                0.02243577
               5.86213816                4.92992760               91.11586832                0.01761240               -0.11008444               -0.11760169                0.10242156                0.72071380                0.02006563                0.01125677
               6.86071410                4.92989862               91.12085878                0.01000000               -0.43657123               -0.11227817                0.16437812                1.08229198               -0.04130903                0.04708905
               7.85340673                4.93374580               91.12477033                0.01000001               -0.79058897                0.11912123                0.19573799                1.23586424                0.01393773                0.01767656
               8.84490232                4.93643161               91.13124238                0.01000001               -0.42844971               -0.07399035                0.15520052                1.06151875               -0.21106961                0.19188285
               9.84483774                4.93176796               91.13170317                0.53024504               -0.00645822               -0.35386815               -0.07733231                0.70968402               -0.45535991                0.53774202
              -0.12375230                5.94241922               91.08605760                1.00000000               -0.02070206               -0.04900842                0.07238172                0.00581610               -0.00043288               -0.06309025
               0.87604068                5.93475409               91.09146431                0.01301444               -0.10267975               -0.01334409                0.08508147                0.17823340                0.08987785                0.00986425
               1.87419411                5.93057908               91.09867294                0.01000000               -0.14621060               -0.21794006                0.15143553                0.59812558                0.25626763               -0.10712013
               2.87311647                5.92978192               91.10477793                0.01685599               -0.15938231               -0.01428762                0.09522876                0.59002312                0.08474854                0.07509479
               3.87100646                5.92892911               91.11039971                0.01000000               -0.19290446               -0.28921808                0.15067529                0.80716866                0.04451166                0.03087789
               4.86925838                5.93079492               91.11545219                0.01760885               -0.13386379               -0.09389165                0.10274274                0.71686448               -0.00254165                0.02301219
               5.86832919                5.92915889               91.12051875                0.01000002               -0.13706810               -0.12259477                0.08627369                0.68798875               -0.00213939                0.00985661
               6.86651702                5.92983927               91.12563131                0.01000000               -0.17452417                0.02159912                0.10730255                1.07311966                0.00919363                0.02477325
               7.86483870                5.93419628               91.13072062                0.01000001               -0.14422158               -0.03924705                0.16710323                1.35304319                0.03962112                0.01976541
               8.86363259                5.93421386               91.13632911                0.01507123               -0.06960635               -0.18318422                0.22215766                1.05018569               -0.02874804                0.30680927
               9.86344658                5.92495440               91.14282149                0.08615460               -0.01860121               -0.35835324                0.06888740                0.54195178                0.02597339                0.43774503
              -0.11624929                6.94189140               91.08831759                1.00000000               -0.01729859               -0.05074721                0.07217118                0.00397706                0.01441187               -0.07796450
               0.88357772                6.93467010               91.09426210                0.93835594               -0.01608899               -0.01167717                0.08415615                0.02884339                0.04109862                0.00292259
               1.88342893                6.92791430               91.10071538                0.01000000               -0.22776395               -0.14283274                0.06495509                0.58147434                0.10642280               -0.01380906
               2.87902244                6.93020397               91.10810824                0.01000000               -0.19768751               -0.09996232                0.08997798                0.57399380                0.06827356                0.01640021
               3.87947518                6.92540331               91.11424026                0.01167206               -0.09995716               -0.27060901                0.11845845                0.76186031               -0.02440747                0.09862276
               4.87702330                6.92956089               91.11998247                0.01000000               -0.13107990               -0.40934406                0.17025940                1.06877269                0.02220046               -0.04103669
               5.87685358                6.92747570               91.12520234                0.01000000                0.00578977               -0.15490618                0.10759407                1.06436975                0.01022865                0.01947577
               6.87713910                6.93033060               91.13061589                0.01000002               -0.03802877               -0.01831887                0.11875364                1.32635330               -0.00399760                0.01904568
               7.87609301                6.93296086               91.13644985                0.01000000               -0.09955907               -0.04756320                0.14174081                1.26279957                0.01314956                0.07615874
               8.87514792                6.93276793               91.14282295                0.01000003               -0.09486611               -0.17521360                0.22247982                0.75428689                0.04133341                0.33739381
               9.87419568                6.92460090               91.14858175                0.01000002               -0.09522314                0.00021391                0.24813957                0.26495195                0.08091129                0.23779811
              -0.10923015                7.94140427               91.09053698                0.99962515               -0.01751979               -0.04173891                0.06733838                0.00123779                0.01068633               -0.07980778
               0.89059465                7.93452055               91.09682515                0.99590237               -0.02400593               -0.02056346                0.07728579                0.00665323                0.01328267               -0.01753363
               1.89028973                7.92772243               91.10314223                0.01000000               -0.17436525               -0.01532249                0.08226839                0.35702090                0.08105090                0.01941160
               2.88710734                7.92778268               91.11075116                0.01000000               -0.17014896               -0.40584074                0.12989697                0.72218949                0.19222140               -0.04473527
               3.88688675                7.92351693               91.11774085                0.01169164                0.07270492               -0.38563551                0.10925788                0.67311853                0.05029572                0.06207330
               4.88856144                7.92260804               91.12345956                0.01000001                0.09800609               -0.75691098                0.20887773                1.21688933               -0.00790387                0.02079124
               5.88884687                7.92606077               91.12981655                0.01000001               -0.05012555               -0.13032488                0.17106269                1.31208147                0.00679806                0.03552065
               6.88755893                7.92947289               91.13598749                0.01000000               -0.05947502               -0.07771769                0.14564948                1.22329617                0.05298163                0.05505031
               7.88765737                7.93324502               91.14284255                0.01428997               -0.02403220               -0.02163318                0.12456261                0.90694467                0.04523814                0.09061638
               8.88707829                7.93070958               91.14956680                0.01000000               -0.12888483               -0.06741421                0.25311719                0.52933221                0.00167500                0.23202952
               9.88507967                7.92495868               91.15579848                0.11360441               -0.19986135                0.15342263                0.31497262                0.39192368                0.03809192                0.22520701
              -0.10245709                8.94105662               91.09274105                0.99172073               -0.01502812               -0.02880827                0.06204500               -0.00436928               -0.00510281               -0.06436159
               0.89739263                8.93425883               91.09922084                0.99987973               -0.01178458               -0.02470339                0.07351384               -0.00078979                0.00140435               -0.01880080
               1.89730722                8.92760785               91.10579682                0.99999999                0.01395493               -0.01539389                0.08556654                0.05368039                0.04201499                0.02068435
               2.89767173                8.92208715               91.11304739                0.99950878                0.04024834               -0.30396680                0.08818332                0.28790975                0.11061947                0.02458963
               3.89811219                8.91769060               91.12086948                1.00000000                0.05727630               -0.31625629                0.12438642                0.37843135                0.22878845                0.13902980
               4.89881726                8.91442267               91.12986353                0.01052059               -0.09409148               -0.41225829                0.18344392                1.02498738                0.15391053               -0.20691289
               5.89623036                8.92486921               91.13464312                0.01292938               -0.21982450               -0.09024232                0.27208111                1.04827289                0.25571812               -0.03638563
               6.89442077                8.92877625               91.14181743                0.01000001               -0.16175764               -0.09237009                0.26897308                0.73041237                0.31862764                0.10089463
               7.89299521                8.93252819               91.14908748                0.01000005               -0.01999329               -0.15585094                0.27670018                0.50283216                0.24458183                0.05801427
               8.89402090                8.93141964               91.15658474                1.00000000                0.02703820                0.00913794                0.16807520                0.29810902                0.02391397                0.05772901
               9.89353597                8.92766935               91.16348999                0.99926114               -0.04849310                0.10698878                0.16925642                0.23501783               -0.00948161                0.06302876
              -0.09572196                9.94082811               91.09526161                0.99016718               -0.02504223               -0.02285159                0.05894157               -0.00664949               -0.03953799               -0.04781767
               0.90402762                9.93402648               91.10176037                1.00000000               -0.03715153               -0.02323507                0.07252897               -0.00717876               -0.04795525               -0.00970956
               1.90353501                9.92741455               91.10810584                0.99999997               -0.06224134               -0.01933029                0.08994320                0.00662214               -0.06499232                0.00886514
               2.90278280                9.92170334               91.11447828                0.99798254               -0.07075767               -0.03838151                0.11580718               -0.00003071               -0.05637959               -0.01430196
               3.90211986                9.91719181               91.12154928                1.00000000               -0.04501061               -0.04987906                0.14768769                0.03374382                0.01642647                0.03412641
               4.90188258                9.91436287               91.13016374                0.51016899               -0.33305546               -0.00597985               -0.04959448                0.65973823                0.51355041               -0.47118489
               5.89545875                9.92425592               91.14024822                0.12531385               -0.36871969               -0.06132865                0.15958054                0.58597007                0.39337719                0.01143455
               6.89450819                9.92762549               91.14684013                0.01000000               -0.01940661               -0.11507596                0.35788657                0.30234638                0.24697478                0.12850390
               7.89507062                9.93012800               91.15430528                0.05349495                0.16955612               -0.24001943                0.36342979                0.37088404                0.24443634                0.11083144
               8.89789931                9.93089234               91.16267637                0.99921507                0.11049978               -0.05272999                0.19769137                0.23636379                0.07234107                0.00583028
               9.89728061                9.92709845               91.16968253                0.99521322               -0.06186973               -0.05708969                0.18088005               -0.00492441                0.01527662               -0.00048651
              -0.16789833               -0.05973079               92.06733809                0.80666459               -0.01050201               -0.01164265                0.07910170               -0.00139160                0.00689363               -0.00184514
               0.83199665               -0.06380755               92.07102004                0.61668039                0.01860756               -0.03228115                0.07599181                0.01558216                0.02026999                0.00895008
               1.83247382               -0.06710361               92.07506363                0.74949734                0.03591666               -0.03181066                0.06865009                0.00265826                0.03773576                0.00888957
               2.83271498               -0.06896901               92.07908276                0.60735705                0.01483927               -0.01670692                0.07387834                0.03531468                0.03770214                0.00933036
               3.83277061               -0.06929912               92.08318012                0.50208660               -0.04144233               -0.01108343                0.07901264                0.04423761               -0.01544158                0.00500669
               4.83188614               -0.06838733               92.08614937                0.96475930               -0.06639592               -0.01670230                0.07040713                0.05315122               -0.04147759                0.01351476
               5.83144269               -0.06846307               92.08903888                0.99999999               -0.04826870               -0.02271758                0.06590172                0.00325007               -0.06392684                0.00230834
               6.83092076               -0.06900581               92.09162852                0.99955019               -0.04911609               -0.01727093                0.06582316               -0.00096384               -0.08597243                0.01196751
               7.83046037               -0.06998620               92.09410587                0.99999999               -0.03962410               -0.01606596                0.06238416               -0.00314082               -0.09154353                0.00758683
               8.83012828               -0.07115629               92.09656055                0.98100001               -0.02701378               -0.01347325                0.05746286               -0.00705740               -0.07311907               -0.00580172
               9.82992009               -0.07236001               92.09937460                0.96794597               -0.02081896               -0.02498075                0.04944032               -0.00780907               -0.05306102               -0.03915902
              -0.16383548                0.94015279               92.07058087                0.61636215               -0.03256384                0.01565377                0.07933422                0.01518260                0.00843010                0.00618190
               0.83583888                0.93586963               92.07431982                0.41508135               -0.05416948               -0.05359798                0.07647037                0.05406635                0.02426525                0.02433207
               1.83508113                0.93257828               92.07838846                0.17170378               -0.08364993               -0.04338094                0.08660908                0.13168891                0.04922326                0.01423690
               2.83416588                0.93086392               92.08255351                0.01000000               -0.10794930               -0.05430248                0.10592219                0.23425272                0.08344332                0.06118758
               3.83292215                0.93059005               92.08707712                0.01000000               -0.10831299               -0.04163834                0.12046706                0.28925561                0.08824741                0.05017357
               4.83199962                0.93144564               92.09097624                0.01000001               -0.05688588               -0.08321343                0.08828982                0.25045721                0.04832178                0.04970556
               5.83178443                0.93130976               92.09408472                0.32778922               -0.01634665                0.01192420                0.09614394                0.03927345                0.00926917                0.13665763
               6.83167269                0.93082148               92.09717017                0.96941465               -0.01401140               -0.02185653                0.08526533                0.02004724               -0.00579698                0.02753706
               7.83150420                0.92985314               92.10000549                0.99452429               -0.02140408               -0.02314227                0.07312693               -0.00017879               -0.02415843                0.00810415
               8.83124461                0.92870897               92.10272389                0.96689712               -0.02292437               -0.01069750                0.06782555               -0.00298852               -0.02173164                0.00047178
               9.83104571                0.92739019               92.10559407                0.98965041               -0.01988971               -0.04412118                0.06396448               -0.00737953               -0.01101473               -0.04488378
              -0.15902837                1.94058229               92.07407844                0.75224404               -0.03191469                0.03087632                0.07327085                0.00239408                0.00895898                0.02418451
               0.84065248                1.93512049               92.07793937                0.17320937               -0.04291567               -0.08216279                0.08760487                0.12813350                0.00986966                0.05190056
               1.84011331                1.93202877               92.08175403                0.01000000               -0.06321028               -0.05885576                0.13266845                0.28673270                0.09582452                0.10974181
               2.83938827                1.92994494               92.08726957                0.01000000               -0.10696573               -0.07597362                0.13400593                0.44398082                0.15005059                0.11448661
               3.83797400                1.92986812               92.09197998                0.01000001               -0.16063502               -0.07148876                0.10362569                0.55888095                0.11644379                0.08946372
               4.83617557                1.92994840               92.09663168                0.01000000               -0.25608383               -0.10802153                0.13299685                0.63168457                0.11647780                0.12918845
               5.83285232                1.93177542               92.10172377                0.01000000               -0.16986238               -0.11688772                0.09400756                0.52485265               -0.12228618                0.25533267
               6.83277832                1.93055706               92.10299954                0.01319535               -0.01415122               -0.16424663                0.09432473                0.32955209               -0.06207583                0.11215506
               7.83256930                1.92955095               92.10588984                0.01046644               -0.01234306               -0.08537792                0.08273305                0.23248660                0.03435192                0.11014214
               8.83253146                1.92862976               92.10901231                0.99807721               -0.00796111                0.00910507                0.08006667                0.05910951                0.02778766                0.03645096
               9.83241007                1.92675757               92.11171598                0.99999999               -0.01213892               -0.08553265                0.09133680                0.00758149                0.01106812               -0.05059473
              -0.15286399                2.94077031               92.07767034                0.62228249               -0.01809375                0.00775400                0.08064091                0.03041062                0.00717256                0.03489118
               0.84695507                2.93422638               92.08172893                0.01000000               -0.05723376               -0.10211708                0.10778178                0.22533684                0.05367377                0.09045648
               1.84599133                2.93140117               92.08690976                0.01000000               -0.08744562               -0.10015383                0.13194296                0.43187360                0.09937409                0.15929189
               2.84520616                2.92934445               92.09193574                0.01000000               -0.09475113               -0.07875571                0.09986685                0.56326537                0.10110480                0.11181128
               3.84409631                2.92916027               92.09711421                0.01000001               -0.12400704               -0.09267740                0.10485903                0.67094205                0.08192853                0.11842074
               4.84272601                2.92928521               92.10200711                0.01039949               -0.12117438               -0.07478573                0.10051724                0.67876939                0.01071683                0.16366360
               5.84167282                2.92897200               92.10667368                0.01000000               -0.11189094               -0.19333386                0.08653483                0.69091725               -0.01686460                0.12962486
               6.84048820                2.92753655               92.11029788                0.01000001               -0.17957931               -0.23980021                0.08628899                0.68717071               -0.12778914                0.25741593
               7.83808123                2.92814558               92.11382361                0.01000000               -0.26340061               -0.10762324                0.11011773                0.62771907               -0.11978523                0.25242807
               8.83522018                2.92889108               92.11594375                0.97454647               -0.15697600                0.02876715                0.08281237                0.20998012               -0.00283369                0.07460083
               9.83494171                2.92567953               92.11804718                0.99924814               -0.02784699               -0.11522068                0.12890958                0.00863072                0.00260676               -0.04174162
              -0.14533229                3.94073737               92.08141991                0.52381921               -0.01393474               -0.04612725                0.08574088                0.03708929                0.00296762               -0.00439878
               0.85452836                3.93307814               92.08592029                0.01000000               -0.05174961               -0.09775029                0.12178410                0.26828755                0.03725552                0.09740987
               1.85363271                3.93002570               92.09118479                0.01000001               -0.08169414               -0.17508625                0.10884172                0.57312734                0.07618416                0.12068467
               2.85289447                3.92836983               92.09675773                0.01000001               -0.10903192               -0.10138584                0.10588979                0.67830504                0.11426236                0.08556873
               3.85145207                3.92801457               92.10236037                0.01000000               -0.14776221               -0.11996565                0.14032878                0.78192710                0.12253115                0.13023714
               4.84993923                3.92845268               92.10754120                0.01000000               -0.15163716               -0.11954738                0.11108323                0.75429904                0.11920814                0.02483591
               5.84841933                3.92790874               92.11251081                0.01509701               -0.12955355               -0.10924805                0.10059668                0.59784906                0.07487734                0.12121416
               6.84734816                3.92576105               92.11652132                0.01000001               -0.23250909               -0.12725410                0.11575356                0.69943540                0.13112552                0.08150722
               7.84376915                3.92739849               92.12044277                0.01000001               -0.40755230                0.01906142                0.09120307                0.73860226               -0.01654074                0.20920425
               8.83919711                3.92920510               92.12326514                0.94067593               -0.23816890                0.03570299                0.05690141                0.32826463                0.05043214                0.09529148
               9.83900577                3.92445316               92.12468864                0.99999998               -0.01913424               -0.10958003                0.13091122                0.01188835               -0.00414449               -0.02414495
              -0.13680376                4.93984777               92.08419975                0.96439005               -0.01637462               -0.06716071                0.07095149                0.04875580                0.01228472               -0.03119864
               0.86303249                4.93227137               92.08956089                0.01459131               -0.05170213               -0.05020397                0.08598769                0.20453473                0.04372738                0.05164096
               1.86216219                4.92789944               92.09565149                0.01000000               -0.11245539               -0.22316241                0.12279894                0.62181211                0.12438554                0.09866516
               2.86078338                4.92731673               92.10127543                0.01039848               -0.12551005               -0.09658647                0.10873183                0.70322109                0.14709787                0.02298286
               3.85965199                4.92676096               92.10716627                0.01000000               -0.14327795               -0.13113198                0.11318735                0.75174195                0.01852446                0.11857608
               4.85791782                4.92689426               92.11214166                0.01000001               -0.16652817               -0.14907489                0.14450252                0.78603467               -0.02789130               -0.02357127
               5.85632143                4.92678704               92.11688231                0.01000001               -0.14653348               -0.14574745                0.12727753                0.66884990               -0.08416029                0.09133219
               6.85498715                4.92499146               92.12224364                0.01000001               -0.34560982               -0.02131161                0.11735428                0.80275802               -0.11464032                0.13067490
               7.84940923                4.92852681               92.12718855                0.01000000               -0.51281729                0.05867585                0.14722918                1.00760952                0.09144812                0.03892453
               8.84473081                4.92960514               92.13095313                0.66429181               -0.23629343                0.12402725               -0.01909872                0.57058568                0.16507594                0.09542815
               9.84468336                4.92348793               92.13198948                0.99999999               -0.00474434               -0.17838680                0.07274396                0.23102317                0.03098407                0.01699553
              -0.12920439                5.93939415               92.08675756                1.00000000               -0.02282349               -0.04946851                0.06691235                0.00315425                0.00132395               -0.05994435
               0.87056738                5.93207406               92.09231533                0.25494161                0.01139925               -0.01376351                0.09267813                0.04312289                0.13183658                0.00805438
               1.87102360                5.92556245               92.10040103                0.01000000               -0.12349979               -0.11831891                0.10035186                0.48464311                0.22109580               -0.09035509
               2.86809738                5.92643810               92.10559895                0.01000000               -0.20571071               -0.09520902                0.08821807                0.67331236                0.10823440               -0.02067417
               3.86690938                5.92539193               92.11177605                0.01508580               -0.12317683               -0.11705094                0.10247927                0.59619951                0.10698825                0.07822041
               4.86563384                5.92547119               92.11648588                0.01000001               -0.16051258               -0.13239931                0.12987750                0.66563430                0.08382138               -0.08213665
               5.86369913                5.92499379               92.12156734                0.01000000               -0.19851454               -0.18326378                0.16535341                0.76927961                0.05803423                0.06160040
               6.86166355                5.92533482               92.12671151                0.01000001               -0.21957298                0.01730829                0.15485869                1.00735856                0.08277098                0.06631509
               7.85930767                5.92857201               92.13233914                0.01000001               -0.30079236               -0.04738036                0.15061286                1.36716250                0.10717811                0.02106461
               8.85564770                5.93168564               92.13851562                0.50740038               -0.17235154               -0.00021651                0.09528351                0.90220930               -0.11019206                0.16928274
               9.85586064                5.92088542               92.14106407                1.00000000                0.02129341               -0.18846088               -0.04492216                0.22301454               -0.26471141                0.40911783
              -0.12210050                6.93885840               92.08903275                0.99976034               -0.01728441               -0.05045395                0.06743466                0.00046701                0.01027533               -0.08053087
               0.87772665                6.93199610               92.09505602                0.94950273               -0.02042372               -0.01148024                0.08213024                0.02355444                0.02563001               -0.00626960
               1.87749102                6.92553307               92.10137038                0.01321242               -0.16532531               -0.01097133                0.08096918                0.32303876                0.09276008               -0.06810507
               2.87442015                6.92541255               92.10886043                0.01000001               -0.24740641               -0.16355899                0.09047306                0.67035493                0.23004495               -0.12329134
               3.87254290                6.92441994               92.11543011                0.01000001               -0.13957500               -0.21795587                0.11652554                0.68797854                0.05640440                0.12764098
               4.87162865                6.92424628               92.12142232                0.01000001               -0.03497553               -0.32866397                0.12373125                0.79754052                0.11673695               -0.11337190
               5.87184338                6.92312177               92.12627675                0.01000001               -0.00362690               -0.19536045                0.15613999                1.00386849                0.05544012                0.08771777
               6.87155611                6.92533763               92.13189196                0.01000001               -0.07208620               -0.04530402                0.16201148                1.21595788                0.01047783                0.01495929
               7.87040166                6.92757920               92.13797320                0.01000001               -0.05472651               -0.09770679                0.17054179                1.27211775                0.04329529                0.08892875
               8.87046158                6.92960080               92.14508251                0.84512221                0.01712206               -0.18686937                0.13449084                0.83037439                0.14318594                0.13930416
               9.87074410                6.91971872               92.15170692                1.00000000                0.02825227               -0.04305338                0.15062316                0.23645792                0.17447858                0.33462002
              -0.11547046                7.93838507               92.09120257                1.00000000               -0.01657443               -0.04076252                0.06448639               -0.00158903                0.00692683               -0.08482878
               0.88436379                7.93184446               92.09755741                0.98221150               -0.02308094               -0.02040345                0.07224025                0.00201804                0.00805113               -0.02485965
               1.88406792                7.92534302               92.10391367                0.01000000               -0.08730967               -0.01133522                0.07780334                0.22760455                0.09935008                0.02310054
               2.88261760                7.92316692               92.11208615                0.01000000               -0.11163478               -0.25230818                0.11943875                0.61104256                0.22298981               -0.12074432
               3.88183522                7.92103281               92.11893964                0.01000001                0.01326137               -0.38823442                0.09517680                0.72004893                0.18044625               -0.01268966
               4.88288283                7.91889791               92.12600740                0.01000000                0.04249611               -0.49277311                0.15739721                0.99843452                0.02145341                0.09349006
               5.88268515                7.92108658               92.13147620                0.01000001               -0.06787780               -0.26677655                0.15724627                1.36666988                0.00256455                0.12250675
               6.88152527                7.92442874               92.13748558                0.01000001               -0.10991483               -0.03174616                0.17227364                1.26328382                0.07205058                0.05670287
               7.88048685                7.92661787               92.14337365                0.01000001               -0.07047964               -0.06326789                0.13705197                1.14224903                0.05933328                0.07876854
               8.88011568                7.92794826               92.15211866                0.81348542               -0.00664372               -0.20841935                0.15569065                0.50634041                0.11216453                0.15640264
               9.88035398                7.92002435               92.15956618                0.95114436                0.02382958                0.07013891                0.18104642                0.00039542                0.15492679                0.08887150
              -0.10905105                8.93804315               92.09335206                0.98113386               -0.01398773               -0.02790134                0.05926790               -0.00581533               -0.00523553               -0.06711039
               0.89080907                8.93158803               92.09993159                0.97012355               -0.01141443               -0.02310569                0.06907051               -0.00153586                0.00030154               -0.02279736
               1.89072066                8.92530636               92.10661820                0.99428474                0.00710700               -0.00845370                0.08122500                0.05797441                0.03223604                0.01986861
               2.89095121                8.92036639               92.11387749                0.97248122                0.02461146               -0.15411742                0.08501323                0.20615557                0.06900731               -0.00704282
               3.89121289                8.91665525               92.12154687                0.93427954                0.02961799               -0.22855511                0.06003095                0.31953777                0.09200976                0.05039167
               4.89154357                8.91439082               92.12959049                0.62586999                0.12165303               -0.22737374               -0.01649976                0.57629824                0.09083073                0.16515810
               5.89364595                8.91778624               92.13748616                0.49866878               -0.01265352               -0.15170644                0.12994104                0.90429725                0.18149158               -0.07172775
               6.89129050                8.92470271               92.14442073                0.85019127               -0.19594102                0.02712841                0.15136250                0.82122184                0.16391370                0.16369256
               7.88972713                8.92631385               92.15178479                0.79381163               -0.20542964               -0.00367861                0.16284430                0.49766073                0.14770269                0.13336856
               8.88718190                8.92543242               92.15821273                0.99999999               -0.15636543               -0.15884160                0.13615914                0.27652917               -0.01540697                0.00240355
               9.88659982                8.92112149               92.16523347                1.00000000               -0.05820873                0.03988856                0.14615065                0.07580940                0.00458046               -0.08205803
              -0.10267654                9.93782705               92.09583281                0.96065566               -0.02535959               -0.02160990                0.05195711               -0.00701876               -0.03444523               -0.04834629
               0.89706986                9.93138235               92.10246058                0.99271300               -0.04372026               -0.02056870                0.06642202               -0.00657555               -0.03928716               -0.01197506
               1.89644905                9.92517395               92.10900633                0.99999998               -0.08390213               -0.01324145                0.09347323                0.00795082               -0.04469105                0.00835941
               2.89539182                9.92008457               92.11573721                0.99999996               -0.11237507               -0.02818190                0.12972066                0.00844935               -0.03793908                0.00259030
               3.89420155                9.91646171               92.12276307                0.99999998               -0.10570041               -0.01935445                0.13066312                0.01215968               -0.02230601               -0.00432822
               4.89327781                9.91435043               92.13041880                0.99999999               -0.18711755               -0.00403858                0.07171701                0.25296161                0.02199017                0.02945854
               5.89045920                9.91805245               92.13993076                1.00000000               -0.19278560                0.02662176                0.02888579                0.21236939                0.38398424               -0.20037358
               6.88942210                9.92497131               92.15084354                0.99357171               -0.03744231                0.02686021                0.19377002                0.23775252                0.33325728                0.20361642
               7.88971035                9.92654430               92.15895019                0.95184350                0.07082577                0.02304531                0.22560509               -0.01167136                0.06817589                0.19895099
               8.89083862                9.92477142               92.16472075                0.99999999                0.03908287               -0.06609929                0.17043088                0.07956238               -0.09592853                0.01506971
               9.89049201                9.92082212               92.17136899                1.00000000               -0.03466030               -0.02993689                0.17022676               -0.00571053               -0.02181479               -0.02923290
              -0.17150373               -0.06299235               93.06817764                0.77815325               -0.01591185               -0.01693639                0.08877221                0.00086213                0.00521506               -0.00169186
               0.82833715               -0.06701538               93.07182261                0.52809351                0.01368053               -0.03370920                0.08527618                0.01586212                0.01038027                0.00548373
               1.82876988               -0.07037609               93.07570266                0.63551744                0.03343789               -0.02394142                0.06532816                0.00011935                0.02775857                0.01983098
               2.82900591               -0.07247277               93.07984873                0.66660566                0.01841247               -0.03504743                0.07485345                0.02098270                0.04016767                0.01658311
               3.82913813               -0.07340076               93.08394939                0.66603818               -0.02085033               -0.00727793                0.07781903                0.00593775               -0.01114990                0.00511418
               4.82858891               -0.07322660               93.08692548                0.97955500               -0.05312419               -0.02393236                0.08238950                0.02757835               -0.04154296               -0.00057655
               5.82807565               -0.07360103               93.08965672                0.99999999               -0.05248942               -0.01172695                0.06616222                0.00717261               -0.06890544                0.02187552
               6.82753912               -0.07452463               93.09224419                0.99999999               -0.04862453               -0.01584806                0.06117065               -0.00179206               -0.08327163                0.01672965
               7.82710316               -0.07587580               93.09471062                0.99743719               -0.03681309               -0.01484910                0.05565190               -0.00617842               -0.08792446                0.00434909
               8.82680286               -0.07742334               93.09711851                0.88383389               -0.02399369               -0.01408426                0.05401743               -0.01236006               -0.07021425               -0.00294047
               9.82662329               -0.07898971               93.09982280                0.81270965               -0.01795706               -0.02603747                0.04695704               -0.01190150               -0.05292960               -0.02542409
              -0.16747207                0.93683829               93.07141853                0.52790467               -0.03402846                0.01076279                0.08866499                0.01543353                0.00471124               -0.00276399
               0.83218764                0.93264752               93.07509568                0.20369469               -0.05140791               -0.05103940                0.08395125                0.05760617                0.02994104                0.02898805
               1.83149977                0.92938450               93.07928236                0.41117558               -0.07297851               -0.03415627                0.09020218                0.11208759                0.07697775                0.05244705
               2.83072807                0.92717675               93.08372053                0.01000000               -0.09626735               -0.05974482                0.12614500                0.19649876                0.12453904                0.05559739
               3.82957442                0.92652646               93.08833955                0.01000000               -0.08816232               -0.04140954                0.11176936                0.22610030                0.11004756                0.00937770
               4.82896483                0.92653408               93.09189340                0.01000001               -0.03890169               -0.03462656                0.08932928                0.20094378                0.03993371                0.06848050
               5.82879639                0.92628170               93.09512963                0.89953708               -0.01531246                0.00690054                0.09165940                0.03941328                0.00975503                0.09404134
               6.82865858                0.92531689               93.09804267                0.98300274               -0.01528312               -0.02145121                0.08044542                0.00926980               -0.01946934                0.02672234
               7.82849073                0.92397571               93.10072321                0.98373381               -0.02111829               -0.02243685                0.07033645               -0.00414306               -0.03345303                0.00683073
               8.82823621                0.92243582               93.10338372                0.90946447               -0.02100392               -0.01306105                0.06494910               -0.00861352               -0.02604458                0.00319714
               9.82807065                0.92074991               93.10619529                0.97290705               -0.01655637               -0.04916348                0.05978326               -0.01188771               -0.01682523               -0.02789426
              -0.16281353                1.93722291               93.07476505                0.63575789               -0.02434037                0.02857364                0.07041162                0.00008931                0.02096205                0.01438299
               0.83694307                1.93196383               93.07884300                0.41319885               -0.03520321               -0.07227214                0.09099061                0.11116153                0.05066982                0.07721681
               1.83648241                1.92894079               93.08353727                0.01000000               -0.05745716               -0.05490750                0.15124557                0.23488780                0.09249179                0.10234396
               2.83579392                1.92633233               93.08851789                0.01000001               -0.10897950               -0.06827616                0.11671839                0.36453560                0.08074049                0.11596354
               3.83430282                1.92577105               93.09309607                0.01000000               -0.14706870               -0.07240219                0.10120102                0.49270222                0.13885899                0.04347232
               4.83285255                1.92608087               93.09822000                0.01617735               -0.21108569               -0.02671851                0.16238658                0.44032035                0.01789771                0.17162758
               5.83008110                1.92653698               93.10196735                0.01422077               -0.14110249               -0.04929843                0.01233505                0.34278915                0.02266853                0.07175041
               6.83003050                1.92504635               93.10401713                0.01059148               -0.00898677               -0.10684435                0.08764082                0.22412539               -0.03572063                0.09705086
               7.82990137                1.92367546               93.10670905                0.01000000               -0.00870569               -0.07254602                0.08864482                0.18861561                0.02047528                0.11606478
               8.82985639                1.92231544               93.10980488                0.98919433               -0.00720061                0.00055011                0.08176895                0.05080225                0.02184585                0.03447231
               9.82975735                1.92002702               93.11265940                0.99999999               -0.00990313               -0.09187053                0.09359146               -0.00019174                0.00948749               -0.01890713
              -0.15695213                2.93740976               93.07850019                0.67652475               -0.03548787                0.01255337                0.08078517                0.01818497                0.01495206                0.03640927
               0.84269299                2.93120208               93.08290406                0.01000000               -0.06094248               -0.09238095                0.12626578                0.19034563                0.04926538                0.12865007
               1.84182902                2.92828635               93.08813294                0.01000001               -0.07522360               -0.10673368                0.11540964                0.35975777                0.10411303                0.09535113
               2.84118852                2.92581123               93.09299684                0.01000001               -0.10745463               -0.09566211                0.09547473                0.46506686                0.09345476                0.09963974
               3.83967993                2.92507842               93.09812254                0.01000000               -0.20916057               -0.04956052                0.10705833                0.68093582                0.08352402                0.13826868
               4.83700531                2.92599971               93.10315466                0.01000000               -0.14966173               -0.14842675                0.10250526                0.71724882                0.01793070                0.12960132
               5.83668670                2.92529573               93.10760668                0.01500791               -0.05013560               -0.14051973                0.08766111                0.59957152               -0.03443712                0.09794495
               6.83600260                2.92318000               93.11127543                0.01000000               -0.08463763               -0.16385643                0.09352718                0.52892467               -0.01423265                0.14689190
               7.83499394                2.92252479               93.11484340                0.01580269               -0.15509457               -0.05212295                0.11946193                0.44726184               -0.13118402                0.22272478
               8.83290071                2.92244682               93.11679387                0.96832537               -0.11751361                0.01373341                0.08666353                0.18592366               -0.02764148                0.04776787
               9.83264367                2.91891250               93.11937244                0.99999999               -0.02570361               -0.12102242                0.12639175                0.00848449                0.00621917                0.00335765
              -0.15003447                3.93747397               93.08225815                0.68807688               -0.00921368               -0.02499057                0.08370559                0.00320726                0.00241203               -0.00468298
               0.84987339                3.93011621               93.08718112                0.01000000               -0.04485575               -0.08136607                0.11059404                0.21174390                0.00528932                0.11443505
               1.84906841                3.92680611               93.09241051                0.01000000               -0.07851003               -0.16280898                0.10214616                0.48706419                0.03695675                0.14459336
               2.84830319                3.92441909               93.09775774                0.01000000               -0.06676781               -0.18515376                0.10763433                0.68921993                0.11881541                0.09966840
               3.84773306                3.92477984               93.10392611                0.01695813               -0.06614858               -0.04674525                0.11751720                0.64311877                0.13193452                0.13872297
               4.84698022                3.92311233               93.10876986                0.01440701               -0.14204099               -0.19885416                0.12711993                0.72916746                0.08639370                0.04513366
               5.84489224                3.92372658               93.11316811                0.01000001               -0.18001436               -0.12990097                0.09729319                0.61615777                0.04258452                0.06059793
               6.84337993                3.92176922               93.11765815                0.01321108               -0.26562265               -0.04290359                0.09898026                0.55094368               -0.07479952                0.15669868
               7.83957978                3.92263301               93.12105749                0.01000000               -0.30963907                0.00515648                0.07222727                0.61765788               -0.07722117                0.12047698
               8.83718715                3.92259011               93.12375279                0.75566083               -0.12920450                0.03214308                0.06478028                0.27378830                0.01268440                0.04131160
               9.83699569                3.91760657               93.12608478                0.99999999               -0.01914563               -0.15900258                0.15001617                0.03869781               -0.00939536                0.03143618
              -0.14217245                4.93690995               93.08498111                0.98079768               -0.02318162               -0.05433198                0.08302707                0.02613629               -0.00097692               -0.03471587
               0.85759573                4.92957476               93.09044873                0.01000001               -0.02800610               -0.03480766                0.08573330                0.16403855                0.05381142                0.04040606
               1.85726743                4.92503017               93.09699109                0.01619111               -0.02982695               -0.18765098                0.14650635                0.43986952                0.12694487                0.07744775
               2.85699919                4.92210816               93.10253922                0.01000000               -0.17091826               -0.13178264                0.10708079                0.73581514                0.12150166                0.01684471
               3.85384906                4.92414352               93.10840868                0.01440770               -0.21786366               -0.12750826                0.12827068                0.72203601                0.03291315                0.08529540
               4.85264192                4.92202262               93.11397484                0.01000000               -0.17480466               -0.16204041                0.14138856                0.63587452               -0.00586203               -0.00452347
               5.85035297                4.92269771               93.11841387                0.01000002               -0.22634356               -0.13650655                0.17626365                0.73356566               -0.00117747                0.05910134
               6.84811505                4.92232193               93.12320586                0.01000000               -0.19133801               -0.01259822                0.12147541                0.69754613                0.01591566                0.08920210
               7.84652621                4.92262792               93.12771491                0.01000001               -0.23560684                0.05999610                0.05634104                0.81830603                0.09308472                0.01153628
               8.84340291                4.92308969               93.13086040                0.62730624               -0.15707453                0.04400096                0.01769081                0.43106003                0.04201933                0.04583975
               9.84338472                4.91573245               93.13315805                0.99880611               -0.00181949               -0.20936272                0.15140149                0.06726451               -0.00266427                0.09825307
              -0.13484137                5.93638733               93.08739585                0.99999999               -0.01246897               -0.05370904                0.06748850                0.00737849                0.01890517               -0.06549580
               0.86503394                5.92942006               93.09331788                0.84828223                0.00868883               -0.01360610                0.08986088                0.04113607                0.09516084                0.00803128
               1.86533241                5.92305309               93.10067998                0.01422696               -0.05638967               -0.09953025                0.01203551                0.32878385                0.06299142                0.02868797
               2.86390615                5.92178344               93.10654229                0.01501558               -0.15365496               -0.04286052                0.08989736                0.58704999                0.08360464               -0.03629653
               3.86225931                5.92222968               93.11244929                0.01000001               -0.13813159               -0.16754919                0.09842828                0.61402037                0.05305253                0.03877582
               4.86114351                5.91987153               93.11804974                0.01000002               -0.14975331               -0.21253469                0.17857386                0.73181268                0.05134486               -0.00388059
               5.85926424                5.92099645               93.12382582                0.01000001               -0.18714364               -0.16882510                0.20325899                0.93927527                0.05716069                0.06011815
               6.85740064                5.92151725               93.12872849                0.01000000               -0.20430456               -0.12331082                0.20221105                1.01868182                0.06486068               -0.01081518
               7.85517815                5.92383293               93.13373288                0.01624920               -0.23484102                0.05385007                0.12138353                0.95975157                0.04748949                0.04382021
               8.85270382                5.92347013               93.13823478                0.63317723               -0.10613457               -0.05693559               -0.01003768                0.52306929                0.05307454               -0.06313579
               9.85305546                5.91341931               93.14192305                1.00000000                0.03516369               -0.14706282                0.08186789                0.04750365                0.02678951                0.20123712
              -0.12809033                6.93583577               93.08966628                0.99999999               -0.01569819               -0.04994742                0.06277847               -0.00130850                0.01510099               -0.07945228
               0.87175269                6.92930264               93.09590470                0.97114337               -0.02149765               -0.01361332                0.07948058                0.01072153                0.02563960               -0.01990818
               1.87147972                6.92303956               93.10233476                0.01055342               -0.10945412               -0.00582393                0.08491482                0.21819430                0.08917974               -0.04501955
               2.86956361                6.92125095               93.10991770                0.01000000               -0.17191718               -0.07163538                0.09920573                0.51939942                0.13146297               -0.01794129
               3.86804138                6.92079253               93.11657077                0.01324399               -0.05261058               -0.25416479                0.10119614                0.54180532                0.14156346               -0.07489807
               4.86851140                6.91777193               93.12245709                0.01000000               -0.02743164               -0.17809288                0.12712008                0.69195603                0.07672935                0.01274601
               5.86749275                6.91932121               93.12832514                0.01000000               -0.14295953               -0.18474805                0.20611815                1.01197623               -0.01757954                0.06143639
               6.86565221                6.91985572               93.13385612                0.01000001               -0.18621919               -0.17195413                0.22241236                1.20427784               -0.03083469               -0.03758382
               7.86376836                6.92370492               93.13986069                0.01513982               -0.06871479               -0.14120650                0.15608656                1.05640319               -0.01980267                0.07056372
               8.86427791                6.92195097               93.14551276                0.92118677                0.03340323               -0.13813578                0.04185376                0.47557529               -0.00626767               -0.04727769
               9.86443643                6.91279119               93.15159421                0.99999999                0.01585140               -0.01048763               -0.01950455                0.09540777                0.01034847                0.16309008
              -0.12180128                7.93538839               93.09182670                0.99662109               -0.01541458               -0.03757950                0.05744157               -0.00558586                0.00448621               -0.08344146
               0.87804457                7.92914779               93.09826995                0.97627065               -0.02253673               -0.02014623                0.07010757               -0.00359720                0.00732272               -0.03427874
               1.87774798                7.92293662               93.10469830                0.01000001               -0.07517029               -0.00635002                0.08414892                0.18646287                0.10894910                0.01209164
               2.87654117                7.92035073               93.11313994                0.01581927               -0.05867783               -0.14778539                0.12409692                0.43846815                0.20947129               -0.13759913
               3.87657443                7.91714638               93.11964439                0.01000000               -0.00436040               -0.29587644                0.07751888                0.60784729                0.10555165               -0.07618489
               4.87645396                7.91630967               93.12660750                0.01000001                0.04227760               -0.22287523                0.06322760                0.81691444               -0.00223225                0.09246222
               5.87741998                7.91730149               93.13296148                0.01589208                0.03242619               -0.21705608                0.12746175                0.96528511                0.03262021                0.04574632
               6.87710248                7.91807817               93.13943296                0.01448458               -0.16045125               -0.05817897                0.16314886                1.07277561                0.06366418               -0.02484193
               7.87421095                7.92100880               93.14558359                0.01357034               -0.19867136               -0.20429431                0.21061180                1.05090730                0.02356819                0.02926366
               8.87312906                7.92070742               93.15268062                0.97731034               -0.04638886               -0.15426735                0.05513819                0.40934667                0.02634529               -0.06775536
               9.87328318                7.91320956               93.15941941                0.99999999                0.01541214                0.07170915                0.00104879                0.00769793               -0.00755404                0.05717567
              -0.11572085                8.93508418               93.09392641                0.87270005               -0.01466320               -0.02443539                0.05562922               -0.01170197               -0.00167557               -0.06677727
               0.88413252                8.92889971               93.10060225                0.91997328               -0.01365557               -0.02093963                0.06615183               -0.00739156                0.00394564               -0.02742097
               1.88400604                8.92291256               93.10742132                0.98477900               -0.00046552               -0.00655694                0.08194120                0.05060488                0.03176917                0.01597216
               2.88412321                8.91829524               93.11474766                0.96728340                0.01166724               -0.11575158                0.08792760                0.18442729                0.04526496               -0.03179105
               3.88423938                8.91487500               93.12207010                0.75834416                0.02856849               -0.12367708                0.06755651                0.27184543                0.04128077                0.01052545
               4.88469458                8.91331443               93.12953354                0.61882467                0.03952805               -0.15071299                0.02043098                0.44029111                0.04647625                0.04426380
               5.88502995                8.91498009               93.13724194                0.64495898               -0.06470827               -0.09711181               -0.00693851                0.53357139               -0.06812674                0.05094057
               6.88340041                8.91869214               93.14484468                0.92615996               -0.14363408                0.03870122                0.04247775                0.48451883               -0.04035472               -0.00952840
               7.88215726                8.91961904               93.15234437                0.98112491               -0.15681648               -0.06162832                0.05538195                0.42597339               -0.06730758                0.02429136
               8.88026408                8.91886563               93.15930793                0.99999999               -0.12855839               -0.12648588                0.09524020                0.25196094               -0.02018893               -0.02264761
               9.87958610                8.91422538               93.16641300                0.99999999               -0.06779874                0.05165952                0.10242214                0.04920740               -0.00988978               -0.01940682
              -0.10966639                9.93489968               93.09630075                0.80977578               -0.02652529               -0.01844994                0.04978739               -0.01162237               -0.02044792               -0.05092443
               0.89006836                9.92872900               93.10308881                0.97535740               -0.04845254               -0.01707163                0.06232837               -0.01112636               -0.02244388               -0.01831529
               1.88936456                9.92280548               93.10997531                0.99999998               -0.09005405               -0.01070867                0.09614876                0.00118688               -0.01345182                0.00728155
               2.88826727                9.91803570               93.11707269                0.99999999               -0.11862049               -0.02595396                0.12799235                0.00777473                0.00587818                0.00554504
               3.88699215                9.91467284               93.12416254                0.99999999               -0.15562877               -0.02021632                0.15062583                0.03826196                0.03163213               -0.00985636
               4.88515470                9.91329541               93.13159808                0.99898250               -0.21392255               -0.00190164                0.15246466                0.08033282                0.10165400               -0.00104613
               5.88271370                9.91535925               93.14082593                1.00000000               -0.15003948                0.03791689                0.08170164                0.04621451                0.20379420                0.02909424
               6.88215391                9.91885220               93.15071553                0.99999999               -0.00783826                0.01600596               -0.02046540                0.09619856                0.15347905                0.00926148
               7.88255693                9.91977623               93.15881739                0.99999999                0.07040127                0.01571962                0.00227635                0.00624191                0.05140734               -0.00547787
               8.88356194                9.91817770               93.16608499                0.99999999                0.04954489               -0.06879290                0.11304987                0.05311113               -0.02576392               -0.00725225
               9.88354783                9.91424275               93.17308707                0.99941903               -0.00141055                0.00173756                0.15115052                0.00267861               -0.01896930               -0.01769273
              -0.17508398               -0.06624640               94.06911353                0.76446005               -0.02367856               -0.02435017                0.09559516               -0.00092134                0.00375358               -0.00144887
               0.82467923               -0.07024402               94.07272556                0.46049260                0.00434290               -0.03269669                0.09457663                0.00846337               -0.00156609                0.00349286
               1.82500288               -0.07386640               94.07637019                0.49797097                0.02961862               -0.03409933                0.08571163               -0.00755067                0.01260375                0.02301991
               2.82527161               -0.07638096               94.08057983                0.68542615                0.02339891               -0.03123365                0.07870310                0.02724954                0.05255453                0.04030257
               3.82547086               -0.07797715               94.08473650                0.89826152                0.00381709               -0.03919297                0.07463930                0.05025009               -0.00028197                0.01199906
               4.82534795               -0.07833470               94.08779716                1.00000000               -0.03624916               -0.01445668                0.07741836                0.01631505               -0.05693820               -0.00723157
               5.82474587               -0.07897138               94.09036213                0.99955473               -0.05732634               -0.01486652                0.06821122                0.01176360               -0.08611135                0.01356508
               6.82420142               -0.08026819               94.09285193                1.00000000               -0.04591589               -0.01488258                0.05752657                0.00117964               -0.08994111                0.01256989
               7.82382756               -0.08192439               94.09521891                0.93311378               -0.02948024               -0.00842822                0.04537921               -0.00721331               -0.08307557                0.00850592
               8.82361182               -0.08374553               94.09764090                0.61603996               -0.01873233               -0.01679264                0.05386513               -0.02047051               -0.06553461               -0.00253104
               9.82345291               -0.08561345               94.10031374                0.81883432               -0.01589082               -0.03908434                0.10105511               -0.02347580               -0.07284551               -0.02315842
              -0.17109557                0.93351010               94.07235417                0.46126853               -0.03305616                0.00173416                0.09722894                0.00783855                0.00261483               -0.01347951
               0.82857387                0.92942901               94.07599884                0.02989745               -0.04542949               -0.04497652                0.09650588                0.02484621                0.03192035                0.02960312
               1.82799584                0.92579261               94.08019250                0.45279478               -0.04871934               -0.04542664                0.08869184                0.05815371                0.09744289                0.04652938
               2.82759948                0.92330671               94.08507641                0.81798825               -0.05228041               -0.03155723                0.10611760                0.10054934                0.11901775                0.04037071
               3.82695023                0.92163092               94.08931251                0.01000000               -0.07956321               -0.05341393                0.08232785                0.18961164                0.09025826               -0.00122723
               4.82600822                0.92152073               94.09276282                0.05206879               -0.05599880                0.02271942                0.08744581                0.07816668                0.03478330                0.11172979
               5.82583025                0.92087995               94.09591791                0.92827102               -0.01592462               -0.01476232                0.07983312                0.04124708                0.00153241                0.03853245
               6.82568972                0.91958298               94.09877908                0.97323411               -0.01680815               -0.02332480                0.06842047                0.01160799               -0.02659321                0.01845767
               7.82549409                0.91799133               94.10141222                0.96699985               -0.02190399               -0.01617751                0.06183249               -0.00664706               -0.04201189                0.01464094
               8.82525164                0.91608655               94.10402288                0.71073979               -0.02040073               -0.01727085                0.06661028               -0.02947040               -0.03421424                0.00580619
               9.82508608                0.91399570               94.10678974                0.97997337               -0.01655664               -0.05921387                0.08988045               -0.03719075               -0.03253562               -0.02348981
              -0.16676504                1.93378828               94.07548667                0.49699306               -0.03413176                0.02476469                0.09111601               -0.00703942                0.02465918               -0.00044026
               0.83289365                1.92885645               94.07975919                0.45594199               -0.04733543               -0.04838762                0.08911167                0.05852717                0.04709665                0.09444617
               1.83228826                1.92522507               94.08477894                0.66266097               -0.07246811               -0.06788269                0.09927898                0.20582093                0.05564908                0.06093438
               2.83144428                1.92298790               94.08960393                0.01000000               -0.06195952               -0.06046576                0.07912075                0.26078372                0.03236148                0.03848228
               3.83104907                1.92095457               94.09400400                0.01000000               -0.18910173               -0.02676562                0.07289782                0.38952646                0.12016220                0.05965491
               4.82766225                1.92211969               94.09987941                0.01000000               -0.17702509               -0.00966762                0.09440542                0.36855345                0.00165059                0.11486861
               5.82750856                1.92073337               94.10197048                0.01000001               -0.01700210               -0.05749047                0.03510664                0.20893376               -0.02831776                0.05890156
               6.82732221                1.91926531               94.10475236                0.01000000               -0.01587556               -0.13748071                0.08780117                0.21478944                0.00828557                0.10070824
               7.82719105                1.91775206               94.10766273                0.51925743               -0.01520877                0.01301579                0.10501113                0.05443852                0.01465017                0.14278588
               8.82701803                1.91590905               94.11064769                1.00000000               -0.01501366               -0.00940110                0.08630909                0.01684401                0.00546056                0.03170096
               9.82689078                1.91320227               94.11358781                0.99999999               -0.01272532               -0.08371972                0.08489431               -0.02953528                0.00023819                0.00232634
              -0.16137269                2.93400539               94.07928605                0.69142067               -0.03196872                0.01872549                0.08330350                0.02733923                0.04014518                0.04740747
               0.83830762                2.92846126               94.08425424                0.82019881               -0.03232522               -0.05171349                0.10597568                0.10088522                0.03904558                0.11958816
               1.83798080                2.92443496               94.08921795                0.01000000               -0.06109841               -0.05828263                0.07843109                0.25715518                0.03419370                0.03968573
               2.83708565                2.92209739               94.09384524                0.01029587               -0.11859166               -0.10835415                0.07793691                0.44857733                0.05708598                0.05951037
               3.83560897                2.92109561               94.09925538                0.01000000               -0.17425851               -0.02258387                0.04100193                0.56297833                0.09044112                0.08335276
               4.83360048                2.92132738               94.10405721                0.01000000               -0.13728343               -0.17922576                0.12384664                0.66986977                0.15426610               -0.00999723
               5.83286330                2.91973014               94.10842691                0.01000001               -0.03168297               -0.12099270                0.10503136                0.41900821                0.05129045                0.04718961
               6.83296682                2.91683337               94.11216843                0.01000001               -0.14620917               -0.11503567                0.12015139                0.45810405               -0.07145114                0.23428972
               7.82993912                2.91825164               94.11621285                0.01405316               -0.14142560               -0.04077682                0.07326049                0.40020924               -0.13793069                0.17025189
               8.83013831                2.91589852               94.11767702                0.97683045               -0.00150884                0.00278713                0.08714766                0.07375727               -0.07716416                0.03009413
               9.82990894                2.91232131               94.12057502                1.00000000               -0.02293691               -0.09529985                0.10715145                0.00543360                0.00307549                0.04495987
              -0.15512999                3.93416279               94.08309402                0.91527418               -0.03882276                0.00051831                0.07850432                0.04664593                0.00937324                0.00171790
               0.84448179                3.92782218               94.08813217                0.01000000               -0.05373943               -0.07592617                0.08084461                0.18438696               -0.00579259                0.09143840
               1.84379523                3.92405942               94.09322772                0.01000000               -0.03633032               -0.16280118                0.06833982                0.38142145                0.05513540                0.12172639
               2.84375518                3.92082082               94.09891042                0.01000000               -0.03582902               -0.16141594                0.04205505                0.55768252                0.08174519                0.09565949
               3.84307864                3.92050289               94.10471071                0.01000000               -0.06650353               -0.05759590                0.11664535                0.54900090                0.09052559                0.09216212
               4.84242511                3.91853517               94.11008360                0.01050937               -0.13479535               -0.19017332                0.14277401                0.60027660                0.01891941                0.08733643
               5.84038274                3.91831352               94.11445667                0.01000000               -0.22311600               -0.12093913                0.14774284                0.63164936               -0.02524117                0.06977799
               6.83796279                3.91696460               94.11850093                0.01000003               -0.21263275               -0.05641010                0.11707333                0.58303022               -0.09167883                0.13460957
               7.83613008                3.91693652               94.12188732                0.01000000               -0.17696391               -0.10847479                0.10449257                0.63387334               -0.06447894                0.03459562
               8.83442351                3.91596480               94.12456074                0.82167776               -0.09881010                0.00707058                0.08622535                0.21747452               -0.01212191                0.01164803
               9.83415388                3.91129627               94.12768897                0.99459909               -0.02696301               -0.13532904                0.14635213                0.03943907                0.00465349                0.08442254
              -0.14775854                4.93401576               94.08586029                1.00000000               -0.01427207               -0.03818638                0.07847685                0.01567955               -0.00797410               -0.05378389
               0.85209874                4.92694273               94.09127556                0.03572662                0.01845692               -0.05217323                0.08414651                0.09339241                0.09725951                0.03557607
               1.85261060                4.92117893               94.09858162                0.01000000               -0.01514535               -0.16334431                0.10279136                0.35950598                0.10429179                0.04190658
               2.85179583                4.91886907               94.10341704                0.01000000               -0.18679804               -0.12435623                0.12151931                0.65048662               -0.01430758                0.14439479
               3.84887463                4.91994369               94.10973168                0.01052438               -0.20002186               -0.12487705                0.14540967                0.60195880                0.08228820                0.01661871
               4.84779539                4.91752391               94.11496943                0.01000000               -0.09038860               -0.08119228                0.14164191                0.51133889                0.05587995                0.05659742
               5.84706686                4.91731136               94.12040758                0.01778205               -0.08954841               -0.10143155                0.15987464                0.59810591                0.08601803                0.04274717
               6.84600442                4.91570517               94.12467315                0.01177603               -0.17252368               -0.12481682                0.14240752                0.69308508                0.08541656               -0.03227623
               7.84361639                4.91608215               94.12831537                0.01000001               -0.29381857                0.01830562                0.11106228                0.74779230               -0.07638435                0.04358807
               8.84012805                4.91603993               94.13130694                0.42328961               -0.17908066               -0.00971154                0.07863790                0.38140490               -0.03571947               -0.01265699
               9.84003478                4.90961473               94.13501751                1.00000000               -0.00932766               -0.24111340                0.16327057                0.10078030               -0.01581691                0.17115688
              -0.14067035                5.93339906               94.08810733                1.00000000               -0.01431896               -0.05886328                0.06947841                0.01212538                0.01379964               -0.08393275
               0.85918646                5.92677871               94.09411255                0.92392318               -0.01353215               -0.01484367                0.07935132                0.04328454                0.04022056                0.00134610
               1.85905901                5.92079253               94.10064174                0.01000001               -0.05931520               -0.02822905                0.03002443                0.21030038                0.05135759               -0.01808333
               2.85800016                5.91833369               94.10739690                0.01000001               -0.12980125               -0.02064964                0.11004611                0.41151968                0.06093465                0.02674049
               3.85646298                5.91800535               94.11374461                0.01000000               -0.13579699               -0.21084014                0.15347845                0.62688855                0.06600710               -0.02815037
               4.85528422                5.91691133               94.12005735                0.01776552               -0.11496899               -0.07902361                0.16193504                0.59465055                0.03629321                0.08365432
               5.85416360                5.91628489               94.12563252                0.01673588               -0.11152556               -0.10482619                0.13605901                0.52914215                0.01396754                0.01504478
               6.85305370                5.91446826               94.13075573                0.01000001               -0.17062204               -0.09118444                0.15540499                0.72085944               -0.02791016               -0.04514759
               7.85075116                5.91730263               94.13476681                0.01000001               -0.22673387                0.05288127                0.14172117                0.80174381               -0.10427896               -0.07750291
               8.84851903                5.91577057               94.13831487                0.08134674               -0.08656295               -0.09152583                0.05949763                0.38230094               -0.09948568                0.02459214
               9.84901990                5.90647400               94.14270143                1.00000000                0.05008745               -0.20652857                0.11820314                0.00801360               -0.09468251                0.28228946
              -0.13427533                6.93283849               94.09028832                1.00000000               -0.01537069               -0.04714758                0.05895326                0.00089277                0.01230083               -0.08677870
               0.86557096                6.92664586               94.09664563                0.96776708               -0.02315214               -0.01586850                0.06895914                0.01140261                0.01863833               -0.02731529
               1.86526162                6.92061435               94.10306868                0.01000000               -0.13787791               -0.01471148                0.08387967                0.20640646                0.09615433               -0.00006125
               2.86281340                6.91845608               94.11084454                0.01000001               -0.12134267               -0.13743584                0.12317047                0.44866591                0.22463400               -0.07032304
               3.86283477                6.91572689               94.11745403                0.01000003               -0.07022666               -0.19977841                0.12301667                0.57515367                0.12504703               -0.09543597
               4.86140887                6.91594344               94.12396472                0.01183590               -0.13710013               -0.16203093                0.14557134                0.68624154               -0.04106668                0.08043971
               5.86009277                6.91521484               94.13039912                0.01000001               -0.10025024               -0.16000910                0.15849616                0.71432640               -0.04611444               -0.03693550
               6.85940386                6.91388148               94.13634020                0.01000001               -0.08719034               -0.07624625                0.17106439                0.95238393               -0.05942082               -0.06373111
               7.85834896                6.91713977               94.14109493                0.01000001               -0.04005816               -0.12915833                0.14988140                0.86436693               -0.02785678               -0.11677871
               8.85860270                6.91420942               94.14591958                0.13263728                0.02196057               -0.14862892                0.17273810                0.33160602               -0.03066998               -0.02381656
               9.85878817                6.90548416               94.15131683                0.97128984                0.01854721               -0.00624621                0.22379463                0.01274423               -0.00546888                0.18577445
              -0.12826724                7.93245611               94.09235140                0.92397854               -0.00941119               -0.03024698                0.04692026               -0.00752216                0.00908152               -0.07988103
               0.87163865                7.92646134               94.09895956                0.96448159               -0.01779240               -0.02125535                0.06221881               -0.00678482                0.01420248               -0.04265318
               1.87137692                7.92049830               94.10559665                0.42987674                0.01111432               -0.01327769                0.10185058                0.05363178                0.14258206                0.00676997
               2.87186094                7.91558497               94.11456809                0.01391596               -0.04491108               -0.13291317                0.08042148                0.39529017                0.16835867               -0.14853899
               3.87047869                7.91400978               94.12049002                0.01000000               -0.11699213               -0.16896385                0.10696452                0.62517936                0.02595124               -0.06582860
               4.86952110                7.91367071               94.12727195                0.01000001                0.00166985               -0.28289606                0.11526310                0.74836520                0.03891924               -0.07741189
               5.87051209                7.91308470               94.13402543                0.01000001                0.03276757               -0.21371216                0.14581451                0.80760631               -0.07302259               -0.11390363
               6.87017645                7.91294334               94.14074856                0.01000001               -0.14007664               -0.03259534                0.15121141                0.88059394               -0.11083442               -0.03694152
               7.86771056                7.91471947               94.14758589                0.01472427               -0.16848424               -0.17869490                0.15570025                0.77117102               -0.06852129               -0.06568292
               8.86680676                7.91279799               94.15322142                0.83223860               -0.04926240               -0.13171617                0.07511782                0.28682010               -0.03107916               -0.10196441
               9.86672531                7.90634908               94.15958715                0.99954474               -0.00814518                0.07907717                0.09279128                0.02529406               -0.02680864                0.14146599
              -0.12243624                8.93223355               94.09446464                0.61289185               -0.01706880               -0.01981191                0.05570418               -0.02099892               -0.00047302               -0.06319762
               0.87739307                8.92622075               94.10125462                0.72948124               -0.01765676               -0.02092176                0.06741337               -0.02884890                0.00712120               -0.03564380
               1.87721063                8.92034880               94.10825703                0.99996083               -0.00926758               -0.01433537                0.08748454                0.01981432                0.03144616                0.00218985
               2.87720772                8.91579782               94.11563604                0.97620216                0.00209987               -0.00197831                0.08992361                0.07300106                0.03046783               -0.08402197
               3.87725263                8.91234761               94.12289800                0.83028375                0.00467645               -0.09650437                0.08738374                0.21589077                0.01219257               -0.01363449
               4.87730125                8.91028552               94.12999911                0.41980870               -0.01401808               -0.17351405                0.07903303                0.38596960               -0.01284677               -0.03672759
               5.87697226                8.91094059               94.13734739                0.08258607               -0.09601367               -0.08091729                0.05716534                0.39247955                0.02483878               -0.10272305
               6.87538098                8.91322957               94.14527029                0.15294327               -0.15272659                0.02357536                0.17067773                0.34745299               -0.03434929               -0.02431154
               7.87391773                8.91356587               94.15289243                0.84925649               -0.13357444               -0.06153830                0.07418404                0.30020044               -0.10171420               -0.03380144
               8.87270949                8.91157509               94.16011753                1.00000000               -0.08629302               -0.08628656                0.07964248                0.13733593               -0.04935166               -0.05183401
               9.87219187                8.90706570               94.16728191                0.99954472               -0.05176188                0.03855298                0.08443055                0.01821827               -0.03430640                0.02575625
              -0.11666162                9.93205987               94.09682856                0.82025792               -0.03919511               -0.01736776                0.10462688               -0.02423490               -0.01879658               -0.07057604
               0.88294643                9.92604291               94.10370714                0.98113056               -0.05711202               -0.01778469                0.09034428               -0.03707855               -0.01722100               -0.03414487
               1.88219614                9.92021159               94.11092931                0.99999999               -0.08121405               -0.01372029                0.08621516               -0.02632372                0.00826537                0.00056530
               2.88132215                9.91554541               94.11829706                1.00000000               -0.09436660               -0.02524087                0.10802043                0.00484762                0.04689472                0.00430322
               3.88030881                9.91207970               94.12577559                0.99420751               -0.13373221               -0.02679127                0.14690850                0.03836920                0.08471717                0.00464003
               4.87864750                9.91020043               94.13346810                1.00000000               -0.24455886               -0.00850927                0.16226450                0.10395829                0.17363637               -0.01527505
               5.87541763                9.91146636               94.14156479                1.00000000               -0.20736386                0.05257649                0.11073490                0.00525768                0.28588721               -0.09525147
               6.87450023                9.91341485               94.15043423                0.97308014               -0.00242933                0.01852742                0.21973800                0.01304200                0.17521105               -0.00196509
               7.87536904                9.91348870               94.15899571                0.99933781                0.07767141               -0.00771721                0.09001738                0.02800184                0.13552439               -0.02595068
               8.87605366                9.91107226               94.16698174                0.99950884                0.03697117               -0.05028379                0.08463658                0.01598844                0.02092623               -0.03448933
               9.87610847                9.90712014               94.17439200                1.00000000                0.00548123                0.00544398                0.09655840               -0.00355214               -0.00912487               -0.00665105
              -0.17865272               -0.06950261               95.07008954                0.75299155               -0.02981110               -0.03018380                0.09481027               -0.00458746                0.00356194               -0.00044626
               0.82104917               -0.07349208               95.07371415                0.43286027               -0.00897956               -0.03019537                0.10162725               -0.00903050                0.00482396                0.00655338
               1.82116769               -0.07756031               95.07741689                0.40667946                0.03207612               -0.05333534                0.12025471               -0.03805246               -0.00385243                0.01258916
               2.82169070               -0.08065988               95.08142279                0.60630918                0.03737331               -0.03800610                0.10552940               -0.00785151                0.03583227                0.03768517
               3.82191516               -0.08231280               95.08544217                0.97547451                0.00669100               -0.04527839                0.06503231                0.04566737               -0.01839458                0.03157967
               4.82182452               -0.08330255               95.08847385                0.99999999               -0.03082514               -0.00110261                0.06234598                0.01663266               -0.09270937                0.02253516
               5.82129866               -0.08444130               95.09102094                0.99999999               -0.04705032               -0.01147042                0.06062924                0.00996378               -0.10483714                0.01594580
               6.82088351               -0.08612753               95.09339472                0.86685041               -0.03229899               -0.00868566                0.04690263               -0.00765984               -0.10006224                0.00827555
               7.82065268               -0.08809229               95.09561821                0.56649608               -0.02430878               -0.00829985                0.04552976               -0.03011716               -0.08483677                0.01112190
               8.82039733               -0.09023791               95.09819581                0.63024020               -0.04159929               -0.02169374                0.09564827               -0.03792127               -0.05211118               -0.00606203
               9.81982069               -0.09240487               95.10184390                0.99580027               -0.05766429               -0.05890805                0.14506476               -0.01014362               -0.00787905               -0.07543190
              -0.17470911                0.93019556               95.07336310                0.43254004               -0.03031670               -0.01075837                0.10292031               -0.00959231                0.00601500               -0.00526805
               0.82498772                0.92620596               95.07702580                0.01000001               -0.04599117               -0.04552829                0.10755379               -0.03728319                0.02420934                0.02052551
               1.82437106                0.92190634               95.08105620                0.14417252               -0.04996488               -0.06528308                0.09936573               -0.03314753                0.09317831                0.04915652
               2.82398842                0.91896006               95.08584288                0.82539568               -0.03389465               -0.05034897                0.06519006                0.04267428                0.07301333                0.00645218
               3.82369317                0.91723442               95.08998610                0.52540380               -0.04666644               -0.03329624                0.06964170                0.11208884                0.04575431                0.03918215
               4.82305509                0.91668642               95.09364231                0.85187606               -0.04411939                0.01932026                0.07978051                0.06520720                0.02745073                0.08764899
               5.82281078                0.91544400               95.09672629                0.94866433               -0.02113438               -0.01763444                0.07279801                0.02211674               -0.02146251                0.02900771
               6.82263241                0.91378561               95.09941108                0.97355738               -0.02020450               -0.01006525                0.06140555                0.00005796               -0.05118987                0.02816832
               7.82240669                0.91182471               95.10195986                0.88101543               -0.02289980               -0.00885801                0.05937226               -0.02970475               -0.05028172                0.03085289
               8.82217441                0.90954515               95.10471593                0.58613647               -0.02602380               -0.02333847                0.07853526               -0.05877371               -0.01846101                0.00004536
               9.82188622                0.90700605               95.10799289                0.99826766               -0.02881932               -0.06534328                0.13917582               -0.05085088               -0.00383204               -0.06264096
              -0.17086537                1.93028223               95.07658737                0.40455501               -0.05418962                0.02775036                0.12465237               -0.03731276                0.01359207               -0.01642610
               0.82859273                1.92559735               95.08062523                0.14671271               -0.06919923               -0.04925513                0.09974246               -0.02969591                0.05163552                0.08747052
               1.82775064                1.92113403               95.08552285                0.81844340               -0.06883164               -0.06375228                0.06075556                0.06433158                0.01835225                0.02099182
               2.82721610                1.91833314               95.09010030                0.07905253               -0.06600317               -0.06325544                0.04437560                0.20958202                0.01531830               -0.02739754
               3.82643058                1.91702128               95.09455403                0.01000000               -0.11485064               -0.05978299                0.08454275                0.31671575                0.04785110                0.05344430
               4.82491908                1.91708385               95.10010811                0.01150699               -0.08943888               -0.05454221                0.01345315                0.30243726                0.11441946                0.06742765
               5.82464180                1.91520601               95.10266948                0.01000001               -0.02075647               -0.08453366                0.07497646                0.16889094               -0.00742974                0.09580620
               6.82450395                1.91367116               95.10577315                0.92521161               -0.01713805                0.01658100                0.09628984                0.03398805                0.01485395                0.13054020
               7.82429904                1.91173055               95.10880928                0.98149598               -0.02317168               -0.00597338                0.09461216               -0.00278971               -0.00680624                0.08893340
               8.82404052                1.90929532               95.11153106                0.96632341               -0.02085771               -0.02047487                0.07268452               -0.03107170               -0.02028200                0.01836498
               9.82388189                1.90628826               95.11435729                0.99963768               -0.01586357               -0.06477557                0.06394912               -0.04955757               -0.01750438               -0.01586931
              -0.16608561                2.93075056               95.08016626                0.60866077               -0.03723840                0.03259297                0.10872340               -0.00586736                0.04009033                0.02919365
               0.83354200                2.92522086               95.08502357                0.82416943               -0.04962421               -0.03368451                0.06534266                0.04559190                0.00872292                0.07141188
               1.83292190                2.92063129               95.08970157                0.07639234               -0.06245948               -0.06285257                0.04303489                0.20581643               -0.02683249                0.01815863
               2.83229281                2.91769495               95.09455558                0.01147403               -0.08225615               -0.07863343                0.05929746                0.33232346               -0.01739271               -0.01455968
               3.83127678                2.91603876               95.09894258                0.01197003               -0.06868520               -0.04372467                0.02754556                0.49202143                0.09858140                0.11860606
               4.83091911                2.91559558               95.10563159                0.01000001               -0.08377435               -0.15685025                0.15601758                0.52040622                0.15828128                0.01716349
               5.82960129                2.91375332               95.10970731                0.01215267               -0.20657385               -0.10322716                0.16250777                0.49249702               -0.03024863                0.20274147
               6.82678763                2.91411723               95.11367846                0.01000000               -0.14372753               -0.08572374                0.08067603                0.37818372               -0.11981768                0.23825786
               7.82672674                2.91170524               95.11630861                0.01332290                0.01038154               -0.02540747                0.01338997                0.14748876               -0.05887783                0.04877883
               8.82699526                2.90913566               95.11853682                0.95362417                0.00912219               -0.00510878                0.07838763                0.05539176               -0.05352531                0.01519136
               9.82690918                2.90571054               95.12151547                0.99999998               -0.00860771               -0.07178683                0.09039482                0.00500921               -0.01116881                0.05945834
              -0.15992331                3.93093409               95.08382824                0.97836459               -0.04528450                0.00352005                0.06813137                0.04511477                0.03071473               -0.01934869
               0.83962384                3.92492366               95.08879801                0.51040290               -0.03419055               -0.04574785                0.07011022                0.11102435                0.03716025                0.04708519
               1.83939287                3.91987698               95.09377731                0.01000000               -0.05843726               -0.10885074                0.08520530                0.30633475                0.05151924                0.05640868
               2.83845510                3.91676048               95.09859884                0.01197154               -0.05112456               -0.05926933                0.02363317                0.47699883                0.12601276                0.09785065
               3.83837038                3.91614679               95.10625902                0.01648878               -0.04212247               -0.02983845                0.13020176                0.49260157                0.14974520                0.15085966
               4.83761265                3.91394685               95.11162534                0.01442055               -0.12001490               -0.12073782                0.12951726                0.45795964                0.00111075                0.07579206
               5.83597009                3.91314147               95.11612297                0.01000001               -0.17484684               -0.06882598                0.15268733                0.53890796               -0.02080666                0.08893457
               6.83411571                3.91195669               95.11999961                0.01000001               -0.18698480               -0.23478128                0.17417209                0.66044446               -0.03535488                0.09791495
               7.83223039                3.91122240               95.12314734                0.01495439               -0.14863242               -0.05425278                0.12230630                0.44372220               -0.09027646                0.05930633
               8.83114306                3.90919315               95.12547730                0.88735429               -0.06990402               -0.00266200                0.10142171                0.13106271               -0.04689334                0.00286962
               9.83083231                3.90485253               95.12901182                0.99999998               -0.03107517               -0.07837053                0.12251386                0.00284129                0.00951545                0.09021188
              -0.15316247                4.93082096               95.08655064                0.99999999               -0.00179346               -0.03267149                0.06384743                0.01586816                0.02124800               -0.09094167
               0.84681960                4.92430590               95.09213166                0.83015555                0.01871236               -0.04233757                0.07947065                0.06567024                0.08807725                0.02835474
               1.84721178                4.91845427               95.09904692                0.01138330               -0.06283097               -0.08363026                0.02578157                0.29429996                0.07201524                0.10109732
               2.84556298                4.91650957               95.10496961                0.01000001               -0.16346710               -0.09348645                0.15982304                0.52772952                0.01642722                0.16444102
               3.84394244                4.91544199               95.11131687                0.01443200               -0.12396802               -0.11012351                0.13212272                0.46099333                0.07304844                0.00380857
               4.84308362                4.91318082               95.11680768                0.01000000               -0.07864143               -0.06987618                0.14262367                0.46518168                0.01522600                0.01620843
               5.84236961                4.91237680               95.12161136                0.01000001               -0.05840146               -0.09178281                0.15026311                0.45579582               -0.05215826                0.00335366
               6.84191559                4.90942161               95.12605401                0.01000001               -0.20024413               -0.15047203                0.19102784                0.59179114               -0.12183217                0.10117682
               7.83836473                4.91062019               95.12993616                0.01000001               -0.29646008               -0.08595435                0.15979505                0.64819243               -0.19017486                0.07476774
               8.83598639                4.90908242               95.13243316                0.42589774               -0.13587380                0.00780943                0.12065984                0.25796862               -0.09200697               -0.00924084
               9.83564725                4.90414313               95.13642347                1.00000000               -0.03391369               -0.10433737                0.12342346                0.08389019               -0.02598951                0.16215414
              -0.14657583                5.93028066               95.08878541                0.99999999               -0.01202378               -0.04824240                0.06185858                0.00980192                0.01498782               -0.10306895
               0.85330393                5.92407691               95.09490490                0.94441966               -0.01744818               -0.01982875                0.07251020                0.02246095                0.02859062               -0.02024790
               1.85307521                5.91820437               95.10128047                0.01420399               -0.06409822               -0.01854210                0.07048294                0.14029775                0.09392509               -0.01292214
               2.85202197                5.91489075               95.10874322                0.01216186               -0.10781057               -0.19181357                0.16539320                0.49239486                0.20020625               -0.02744393
               3.85091900                5.91394432               95.11551886                0.01000001               -0.10202509               -0.16517940                0.16352960                0.55691410                0.08345791               -0.02363720
               4.84998147                5.91254932               95.12128844                0.01000001               -0.10368905               -0.05073462                0.15243561                0.45114308                0.00175756               -0.05667071
               5.84884522                5.91130581               95.12654700                0.01000001               -0.11366598               -0.10936064                0.17139300                0.41116438               -0.02837903               -0.02932304
               6.84770815                5.90894725               95.13183658                0.01076974               -0.16558941               -0.04166704                0.16777073                0.50249447               -0.07785841                0.08221664
               7.84553343                5.90950331               95.13656730                0.01000001               -0.24643276               -0.10349583                0.19971936                0.78346045               -0.16611202               -0.05077089
               8.84277949                5.90934934               95.13942474                0.23836782               -0.15723669               -0.12571636                0.15648233                0.53593465               -0.13859888                0.12907135
               9.84238869                5.90276578               95.14428711                1.00000000               -0.03907991               -0.22610850                0.17039266                0.23590942               -0.05626235                0.42170714
              -0.14055893                6.92985612               95.09084534                0.86306906               -0.00959642               -0.03331082                0.04818557               -0.00768520                0.00916975               -0.09748277
               0.85934510                6.92390933               95.09728389                0.96894058               -0.01185850               -0.01955868                0.06154446                0.00033803                0.02682974               -0.05056157
               1.85920390                6.91808343               95.10401236                0.84263475                0.01629146               -0.01603535                0.09390024                0.03399268                0.13110263                0.01003076
               2.85967093                6.91267330               95.11238111                0.01000000               -0.08908767               -0.11511473                0.08448523                0.35239848                0.23957149               -0.11549610
               3.85742214                6.91213840               95.11903110                0.01000001               -0.24629738               -0.17792366                0.18101635                0.64817139                0.08885127               -0.04480775
               4.85474498                6.91216613               95.12536852                0.01000001               -0.16135850               -0.19111400                0.19385698                0.58833275                0.09612978               -0.12597796
               5.85419497                6.91018959               95.13149506                0.01065688               -0.04885025               -0.16153354                0.17068174                0.50299212                0.07885580               -0.07896583
               6.85376798                6.90858827               95.13727741                0.01000001               -0.02815623               -0.02689952                0.15955056                0.59889331                0.00456370                0.00314029
               7.85363185                6.90855027               95.14285832                0.01724927               -0.01626827               -0.08028361                0.16098025                0.64070287               -0.00737816               -0.08589083
               8.85344261                6.90656809               95.14896753                0.38536590               -0.00496482               -0.24395789                0.21479628                0.43987024                0.06307781               -0.01816741
               9.85353255                6.89962096               95.15607011                0.98452001                0.00899388               -0.13459903                0.27232906                0.18662939                0.11027483                0.22061524
              -0.13483595                7.92961444               95.09276511                0.55995241               -0.00806677               -0.02565224                0.04675945               -0.03043704                0.01258109               -0.08176807
               0.86508338                7.92368573               95.09951433                0.88411351               -0.00864761               -0.02350386                0.05960535               -0.02966589                0.03147542               -0.05122803
               1.86499109                7.91788366               95.10673531                0.97890446               -0.00342043               -0.02298657                0.09604060               -0.00238169                0.09633819               -0.00829913
               2.86501497                7.91258845               95.11474837                0.01302660               -0.03007502                0.01062663                0.01493058                0.14614191                0.04809326               -0.06644387
               3.86438959                7.91038584               95.12178368                0.01491643               -0.06590166               -0.14108292                0.12553559                0.44183089                0.05032118               -0.09571426
               4.86369694                7.90872704               95.12891276                0.01000000               -0.09533359               -0.28912008                0.16195697                0.64662831                0.07411521               -0.19337496
               5.86248292                7.90807514               95.13587777                0.01000001               -0.11858008               -0.24016644                0.20358178                0.78713911               -0.05239849               -0.17152472
               6.86132533                7.90840926               95.14245719                0.01538263               -0.10576299               -0.00340190                0.17030430                0.66114554               -0.08866185               -0.01536268
               7.86036766                7.90789764               95.14869759                0.01000001               -0.04095616               -0.05085426                0.10650003                0.38524034               -0.10378680               -0.09794146
               8.86050621                7.90447018               95.15418297                0.84554292               -0.01760565               -0.12497314                0.12036686                0.18105573               -0.06296586               -0.14841659
               9.86001555                7.90007380               95.16127523                0.99999998               -0.04906630                0.01573471                0.15464847                0.11229488                0.00661339               -0.06990461
              -0.12931027                8.92934307               95.09504049                0.63178569               -0.02071752               -0.04270559                0.09774018               -0.03855904               -0.00403004               -0.04898540
               0.87048256                8.92343925               95.10195051                0.60302664               -0.02180952               -0.02723399                0.07817064               -0.05897811                0.00300930               -0.02063048
               1.87025354                8.91762370               95.10917101                0.97061762               -0.01954844               -0.02057227                0.07428615               -0.03022818                0.02091234               -0.02196293
               2.87009159                8.91288583               95.11654613                0.95731985               -0.00666878                0.01056362                0.08130568                0.05184815                0.01355126               -0.06324117
               3.87012017                8.90931674               95.12381778                0.89993256               -0.00516699               -0.06876895                0.10137997                0.13118793                0.00075946               -0.04879168
               4.86998825                8.90638373               95.13111420                0.41438825                0.00676860               -0.13375578                0.11954058                0.26054022               -0.01310133               -0.09443335
               5.87025554                8.90538626               95.13838525                0.22538867               -0.14099303               -0.15278576                0.15669610                0.55594420                0.12741795               -0.14280222
               6.86716839                8.90852023               95.14825824                0.39059142               -0.24899029                0.00378708                0.21311390                0.45244001               -0.02046064                0.06411269
               7.86527574                8.90753318               95.15382805                0.85448581               -0.11404109               -0.04234932                0.11876325                0.19503238               -0.14519699               -0.06649155
               8.86488757                8.90406863               95.16090078                0.97133840               -0.03522638               -0.03553458                0.08327896                0.02402126               -0.03850740               -0.03994197
               9.86457121                8.89993565               95.16810161                1.00000000               -0.03163610               -0.00921245                0.07473954                0.01316581               -0.02167526               -0.01565118
              -0.12379949                9.92876033               95.09839329                0.99567089               -0.05773216               -0.05827437                0.14594812               -0.01085007               -0.07384690               -0.00344554
               0.87562319                9.92314105               95.10489570                0.99670789               -0.06302781               -0.02981952                0.13639414               -0.05034290               -0.05653102               -0.00580551
               1.87493995                9.91747222               95.11169961                1.00000000               -0.06321481               -0.01514830                0.06391731               -0.04842587               -0.00962190               -0.01890679
               2.87435889                9.91279972               95.11923310                0.99999998               -0.07122487               -0.00861039                0.08999691                0.00364206                0.06245222               -0.01319444
               3.87351545                9.90901046               95.12710071                0.99999998               -0.07603326               -0.03062813                0.12125216                0.00213861                0.09111306                0.00987873
               4.87283822                9.90605193               95.13484337                1.00000000               -0.10250747               -0.03317985                0.12058661                0.08544537                0.16117119               -0.02733433
               5.87146530                9.90501943               95.14304063                0.99999998               -0.23055063               -0.03668357                0.16449888                0.24262985                0.42252615               -0.05387338
               6.86822721                9.90848500               95.15511029                0.98627059               -0.13726971               -0.00352284                0.26933873                0.20744346                0.21397923                0.11370039
               7.86871991                9.90705065               95.16061773                0.99999998                0.01784795               -0.04825315                0.15098745                0.10814179               -0.07387081                0.00503199
               8.86858417                9.90375949               95.16777772                1.00000000               -0.00875464               -0.03091409                0.07295169                0.01160498               -0.01698889               -0.02237327
               9.86854482                9.89988955               95.17501823                0.84602621               -0.00393534               -0.00461013                0.04260400                0.01036726               -0.01507437               -0.01329843
              -0.18226195               -0.07280245               96.07100974                0.72365988               -0.02896857               -0.02906357                0.08871766                0.00274697                0.00686045                0.00351489
               0.81744836               -0.07673627               96.07475811                0.43332729               -0.02604319               -0.03352966                0.10684422               -0.01287933                0.02052733                0.00719082
               1.81721719               -0.08089323               96.07877529                0.36108859                0.02573029               -0.04369930                0.13790591               -0.00404500                0.00902761                0.01786201
               2.81796297               -0.08446744               96.08269042                0.57636777                0.04173610               -0.07743223                0.11676448               -0.06032225               -0.04411115                0.02222155
               3.81805191               -0.08643342               96.08603715                0.96434496               -0.00239874               -0.02638745                0.05342242                0.01372326               -0.08847645                0.04766471
               4.81791499               -0.08822093               96.08904408                0.99988945               -0.01618236               -0.01396181                0.04798768                0.00871714               -0.11812686                0.02942728
               5.81772826               -0.09006317               96.09157471                0.80942826               -0.01560426               -0.01252652                0.04724950               -0.00532617               -0.12444200                0.01217102
               6.81760291               -0.09213541               96.09378998                0.49112373               -0.01992665               -0.00966766                0.04872884               -0.03315976               -0.11622229                0.01770881
               7.81732973               -0.09438526               96.09612951                0.47874390               -0.06295061               -0.01974248                0.09945371               -0.05319103               -0.10227452                0.01108832
               8.81634390               -0.09690700               96.09955386                0.81054515               -0.06652942               -0.03407979                0.10975349               -0.00119145               -0.04421495               -0.05849712
               9.81599914               -0.09942007               96.10321504                1.00000000               -0.03447584               -0.03504277                0.09812128               -0.00567120               -0.01277556               -0.05164768
              -0.17830067                0.92690691               96.07441258                0.43048098               -0.03343743               -0.02704712                0.10680643               -0.01319611                0.00708812                0.01212041
               0.82136496                0.92292844               96.07814992                0.03522874               -0.03285052               -0.03278228                0.12134349               -0.03473141                0.01871491                0.01462245
               1.82104232                0.91866978               96.08217982                0.01612917               -0.06175587               -0.10536150                0.13316333               -0.11035791                0.05340002                0.03851985
               2.82012984                0.91475824               96.08638021                0.01000000               -0.04882182               -0.09026545                0.09250502               -0.03052818                0.06614320                0.04006531
               3.82006589                0.91330271               96.09070534                0.82078805               -0.01563995               -0.02498003                0.08049194                0.04137935                0.03622788                0.07345900
               4.81981704                0.91163945               96.09435843                0.94142437               -0.02168247               -0.01500529                0.06823124                0.02145243               -0.00423912                0.04505279
               5.81963224                0.90981156               96.09737387                0.94781480               -0.01923427               -0.01341779                0.05945072                0.00475655               -0.04725027                0.02708093
               6.81943236                0.90776791               96.10000719                0.94497322               -0.02243119               -0.01279274                0.05518667               -0.02588329               -0.06716991                0.03067643
               7.81918361                0.90541732               96.10259966                0.37080877               -0.02914837               -0.02163837                0.07578923               -0.05242104               -0.05107859                0.02298367
               8.81884939                0.90275220               96.10559358                0.42637463               -0.03640572               -0.03187703                0.11912509               -0.02336661               -0.00439291               -0.03978331
               9.81845550                0.90022950               96.10957325                0.98478673               -0.03938909               -0.06088126                0.12561012               -0.00781517                0.04308102               -0.08647128
              -0.17456892                1.92665660               96.07797972                0.35660259               -0.04402074                0.02207404                0.14055744               -0.00409375                0.01782669               -0.00306594
               0.82499087                1.92260809               96.08175404                0.01331599               -0.11254250               -0.06058599                0.13463238               -0.10376235                0.04167339                0.04653440
               1.82318023                1.91699954               96.08599405                0.01000001               -0.11356969               -0.10630507                0.01972601               -0.10055074                0.12318624                0.11931581
               2.82271948                1.91372725               96.09049145                0.01307506               -0.05909723               -0.07252877                0.14375856                0.17171931                0.12364286                0.08841510
               3.82199828                1.91306698               96.09569485                0.01000000               -0.04421449               -0.07699857                0.12889175                0.20952074                0.11048106                0.04028510
               4.82183519                1.91147896               96.10014848                0.01054814               -0.01516781               -0.07430158                0.02759869                0.13929135                0.07702518                0.09756556
               5.82169493                1.90966847               96.10347001                0.65013457               -0.01778466                0.02599615                0.08727183                0.03545000                0.02125938                0.15503165
               6.82147949                1.90760874               96.10667816                0.98756052               -0.01989533               -0.01979239                0.08655592                0.00251560               -0.00415482                0.07544901
               7.82129702                1.90518197               96.10955498                0.95472597               -0.02075560               -0.02640812                0.06434068               -0.02168428               -0.03778729                0.03616423
               8.82106438                1.90245546               96.11210138                0.66840078               -0.02043906               -0.02480430                0.05505237               -0.04040571               -0.04452810               -0.00883689
               9.82088824                1.89936230               96.11486679                0.95326938               -0.01761427               -0.06867803                0.05314133               -0.04567744               -0.02597843               -0.05423538
              -0.17028551                2.92734839               96.08146052                0.57802151               -0.07677162                0.03674158                0.11884571               -0.05748311                0.02376668               -0.05102595
               0.82894678                2.92171672               96.08556110                0.01000000               -0.09011735               -0.04761451                0.09352943               -0.02598308                0.04100477                0.06320715
               1.82791215                2.91654367               96.09007865                0.01303660               -0.07249947               -0.05786500                0.15220833                0.17177486                0.08570291                0.12142157
               2.82749679                2.91330766               96.09503119                0.01251718               -0.07037778               -0.06817235                0.13419136                0.31466531                0.07839951                0.08351714
               3.82650459                2.91176274               96.09980629                0.01000000               -0.07477051               -0.09605930                0.22631806                0.39472616                0.20561310                0.17930015
               4.82600138                2.91015342               96.10717757                0.01000001               -0.11465641               -0.13020191                0.19161907                0.46584727                0.14247507                0.20469522
               5.82421146                2.91033149               96.11167706                0.01000000               -0.10161032               -0.07401573                0.11002830                0.35580290               -0.07904864                0.21251769
               6.82396917                2.90737207               96.11378195                0.01066773               -0.01541284               -0.05306942                0.04922171                0.16547450               -0.04257055                0.12089667
               7.82390320                2.90488915               96.11648065                0.01000001               -0.00541122               -0.03434346                0.05949331                0.12169499               -0.01995149                0.07564528
               8.82386095                2.90225612               96.11924477                0.95036875               -0.00874716               -0.01648040                0.08663497                0.02617840               -0.02454205                0.02978187
               9.82372826                2.89885594               96.12238291                0.99994072               -0.01326840               -0.05848926                0.08450136               -0.02067269               -0.01265017                0.05554420
              -0.16445523                3.92739143               96.08445665                0.97064112               -0.02688415               -0.00543209                0.05576168                0.01593096                0.04714326               -0.08925146
               0.83527592                3.92165580               96.08953438                0.81762137               -0.02599932               -0.01568896                0.08219816                0.04340183                0.07297427                0.03735700
               1.83502478                3.91584224               96.09493182                0.01000000               -0.07411012               -0.04229782                0.13127844                0.20044043                0.03744246                0.11562817
               2.83379372                3.91236380               96.09938308                0.01000000               -0.09888648               -0.06470707                0.22320404                0.38305946                0.17155126                0.22246471
               3.83304705                3.91114579               96.10731475                0.01000002               -0.06051711               -0.05013593                0.19011101                0.42520301                0.16314102                0.16148496
               4.83258338                3.90887492               96.11267395                0.01000001               -0.07273575               -0.09842196                0.18209313                0.44232048               -0.00707579                0.11992721
               5.83159233                3.90818816               96.11751042                0.01000001               -0.11760312               -0.16885438                0.17770079                0.51191655               -0.01688719                0.09190302
               6.83023132                3.90654735               96.12198437                0.01000000               -0.13727320               -0.07401683                0.17837429                0.37903792               -0.15707919                0.22195217
               7.82884687                3.90449510               96.12433344                0.01000000               -0.13050774               -0.03658075                0.15528727                0.25545217               -0.18708630                0.12042238
               8.82762116                3.90212585               96.12658918                0.95624316               -0.07858673               -0.01742193                0.12101067                0.08185363               -0.06257364                0.01268851
               9.82727514                3.89819252               96.13013925                1.00000000               -0.03460266               -0.06367086                0.09524388               -0.00302762                0.01070075                0.07349512
              -0.15849561                4.92723975               96.08713724                1.00000000               -0.01403807               -0.01742257                0.04932801                0.00860174                0.02920302               -0.11709993
               0.84136401                4.92140294               96.09286497                0.94423575               -0.01457205               -0.02171359                0.06948674                0.02226326                0.04649387               -0.00237070
               1.84121295                4.91569772               96.09909725                0.01000000               -0.07547939               -0.01367968                0.02677584                0.13424997                0.10252918                0.07685869
               2.83985442                4.91201352               96.10661350                0.01000001               -0.13577092               -0.09952441                0.19222648                0.45172302                0.20940010                0.15898165
               3.83849753                4.91076002               96.11237413                0.01000001               -0.10244996               -0.06637108                0.18998599                0.43556602                0.14123650               -0.01692404
               4.83780542                4.90818498               96.11782190                0.01000001               -0.08600811               -0.08289235                0.20546252                0.39511177                0.07093415                0.06181288
               5.83677737                4.90695440               96.12341284                0.01000000               -0.12812188               -0.11867171                0.22997930                0.45811495                0.00621559                0.07926287
               6.83524298                4.90589173               96.12849371                0.01090288               -0.16718112               -0.08290724                0.23344833                0.42240271               -0.14180727                0.16082122
               7.83343374                4.90415754               96.13151127                0.01000000               -0.17211897               -0.05650238                0.20615864                0.35049231               -0.17176289                0.06451019
               8.83180060                4.90190768               96.13372014                0.41451048               -0.09496851               -0.01541118                0.12674646                0.19155322               -0.09647732                0.01945792
               9.83153437                4.89758252               96.13748598                1.00000000               -0.02662294               -0.14655060                0.10620827                0.11222316               -0.02098057                0.13004779
              -0.15260957                5.92704298               96.08934450                0.80771523               -0.01272059               -0.01653049                0.04768441               -0.00581655                0.01297460               -0.12219788
               0.84726322                5.92122152               96.09556276                0.94692316               -0.01456149               -0.01888666                0.05990697                0.00510975                0.02708578               -0.04605905
               1.84709920                5.91556865               96.10205140                0.60236367                0.02513321               -0.01687999                0.08638981                0.03626490                0.15643828                0.01857467
               2.84776588                5.91037331               96.11070477                0.01000000               -0.07561421               -0.09362570                0.11321827                0.34906967                0.20136116               -0.05422685
               3.84558691                5.90981837               96.11701520                0.01000001               -0.17373259               -0.10970518                0.18926829                0.49853085                0.10805413               -0.03669200
               4.84429123                5.90721708               96.12310607                0.01000000               -0.12695151               -0.11927082                0.23107987                0.45292198                0.07568296                0.00789834
               5.84304788                5.90581473               96.12906038                0.01000001               -0.14074996               -0.13248247                0.28266577                0.53278786                0.00312420                0.00497581
               6.84147623                5.90488920               96.13411114                0.01000001               -0.16035558               -0.12840255                0.27359061                0.52196142               -0.08465588                0.05025695
               7.83984077                5.90336506               96.13876120                0.01539608               -0.17244950               -0.04329360                0.19464059                0.50029789               -0.16282573                0.00122241
               8.83802724                5.90181763               96.14144452                0.38307921               -0.08354309               -0.14099218                0.17950411                0.33741561               -0.10443988                0.05182937
               9.83816991                5.89526151               96.14610928                1.00000000                0.01426651               -0.23370931                0.18052934                0.10709460                0.02189734                0.20799121
              -0.14696902                6.92690914               96.09125203                0.48449986               -0.00904352               -0.02086917                0.04950574               -0.03361759                0.01864827               -0.11302278
               0.85294054                6.92102520               96.09787652                0.94521449               -0.01222600               -0.02256848                0.05475914               -0.02571410                0.03180074               -0.06696988
               1.85278646                6.91536012               96.10494668                0.98756436               -0.01772273               -0.01974886                0.08909646                0.00431239                0.08167002               -0.00446795
               2.85258609                6.91014101               96.11253425                0.01000000               -0.05810356               -0.01411201                0.04707751                0.16071739                0.12155609               -0.04531258
               3.85162438                6.90856591               96.12107436                0.01000000               -0.08592890               -0.12547737                0.18116080                0.36961841                0.21570355               -0.16280765
               4.85086751                6.90579956               96.12784186                0.01084548               -0.09316938               -0.15797720                0.23811809                0.41784593                0.15725478               -0.14554237
               5.84976100                6.90430475               96.13381275                0.01000001               -0.13678137               -0.15253526                0.27534984                0.51979668                0.04941735               -0.08294850
               6.84813188                6.90332368               96.13953121                0.01000000               -0.16248596               -0.16169750                0.28337083                0.65470355               -0.05959834               -0.05034068
               7.84651128                6.90329167               96.14431454                0.01000000               -0.07397070               -0.07870741                0.22740239                0.49162126               -0.09804070               -0.12106774
               8.84665247                6.89908783               96.15021551                0.71745210                0.01386156               -0.19606100                0.10448153                0.22796148               -0.02952079               -0.00614393
               9.84678851                6.89290834               96.15676341                1.00000000                0.01360425               -0.11710122                0.05449087                0.10720774               -0.00900398                0.17644114
              -0.14151405                7.92662560               96.09328659                0.47637487               -0.01879878               -0.06417385                0.10166679               -0.05393716                0.01239849               -0.09855900
               0.85829796                7.92077015               96.10015166                0.38305274               -0.02081523               -0.02992136                0.07565585               -0.05348622                0.02447984               -0.05193142
               1.85806964                7.91517367               96.10751746                0.95881445               -0.02617605               -0.02074402                0.06674799               -0.02161398                0.03887001               -0.03821626
               2.85777444                7.91009107               96.11486670                0.01000001               -0.03744590               -0.00463705                0.05378294                0.11905258                0.06909453               -0.02525349
               3.85732072                7.90730883               96.12300073                0.01000000               -0.04325618               -0.12555862                0.15915561                0.25209113                0.11613386               -0.19663810
               4.85690931                7.90405753               96.13051109                0.01000000               -0.07005132               -0.16666555                0.20558948                0.35297196                0.06441370               -0.17785729
               5.85591970                7.90276402               96.13809707                0.01429432               -0.06629630               -0.16915323                0.20739720                0.51066523                0.00547860               -0.16542434
               6.85558339                7.90165525               96.14415464                0.01000000               -0.10053284               -0.07324772                0.24176671                0.52119877               -0.12094271               -0.09103681
               7.85390904                7.90179091               96.14971589                0.01000000               -0.13067927               -0.14878832                0.20757223                0.40505651               -0.12669998               -0.14779103
               8.85296980                7.89789641               96.15562876                0.90173452               -0.06179919               -0.09531621                0.13752788                0.10709411               -0.08063107               -0.06719235
               9.85267306                7.89291948               96.16268012                1.00000000               -0.02967457                0.00506695                0.10394970                0.03071659               -0.00762333               -0.08035538
              -0.13633688                8.92562566               96.09641945                0.81139100               -0.03403753               -0.06701148                0.11072733               -0.00135456               -0.05809390               -0.04077898
               0.86332275                8.92042678               96.10281803                0.42108471               -0.03149329               -0.03668635                0.11807171               -0.02344469               -0.03701802               -0.00626283
               1.86303326                8.91494524               96.10974275                0.68535908               -0.02453837               -0.01987098                0.05536529               -0.03909254               -0.00646856               -0.04404043
               2.86283198                8.91004826               96.11726215                0.95186623               -0.01667539               -0.00917446                0.08696344                0.02525783                0.02794693               -0.02851368
               3.86269975                8.90605474               96.12492560                0.95765424               -0.01801138               -0.07987161                0.12161627                0.08090324                0.01032406               -0.06572894
               4.86247175                8.90246625               96.13238992                0.41081381               -0.01615847               -0.09310662                0.12738343                0.19443220                0.02044842               -0.09910881
               5.86237658                8.90092169               96.14048132                0.37684300               -0.14713925               -0.08429466                0.18260067                0.35370036                0.05005690               -0.10556052
               6.85952897                8.90185872               96.14953256                0.72248896               -0.20026632                0.01647478                0.10589486                0.25067677                0.00174251               -0.04976306
               7.85837125                8.90031590               96.15526770                0.90259190               -0.09315962               -0.08904706                0.13799238                0.13189718               -0.06556948               -0.08285368
               8.85766578                8.89718151               96.16178311                0.94951255               -0.05072807               -0.05127514                0.09380939                0.05186746               -0.02410457               -0.02586141
               9.85735669                8.89300968               96.16877670                0.52969043               -0.03090831                0.00507221                0.05680399                0.01546125               -0.00220769               -0.04075126
              -0.13114337                9.92528537               96.09974752                0.99992295               -0.03471392               -0.03402917                0.09684725               -0.00554389               -0.05176687               -0.01104089
               0.86850949                9.92003643               96.10643503                0.96636316               -0.05951624               -0.03903481                0.12424230               -0.00678208               -0.07986246                0.03987586
               1.86766630                9.91477625               96.11220766                0.94803256               -0.06696985               -0.01689894                0.05088748               -0.04313769               -0.04925430               -0.02567562
               2.86717009                9.90990758               96.12009700                0.99984582               -0.05727502               -0.01406795                0.08357999               -0.01943175                0.05845663               -0.01331649
               3.86652080                9.90571139               96.12820063                1.00000000               -0.06195393               -0.03433474                0.09336458               -0.00350408                0.07392910                0.01006079
               4.86593101                9.90219540               96.13587983                1.00000000               -0.14597860               -0.02708513                0.10487429                0.11426260                0.12932947               -0.02144088
               5.86360123                9.90107813               96.14485477                0.99892260               -0.23641520                0.01564411                0.17909253                0.11193241                0.20627297                0.02128170
               6.86120271                9.90198475               96.15582101                1.00000000               -0.11885154                0.01260238                0.05455302                0.11396604                0.17389989               -0.00965654
               7.86122420                9.90000997               96.16201546                1.00000000                0.00553336               -0.03059331                0.10427097                0.02960229               -0.08427878               -0.00755945
               8.86131338                9.89687090               96.16844078                0.53026683                0.00508751               -0.03106049                0.05650760                0.01530795               -0.04202806               -0.00315935
               9.86132595                9.89302093               96.17524408                0.46498187                0.00125734                0.00112502                0.00977377                0.01192777               -0.01699110               -0.01578503
              -0.18601225               -0.07623799               97.07186389                0.68541644               -0.02935819               -0.02940292                0.08628919                0.00763228                0.01024963                0.00714548
               0.81369417               -0.08013189               97.07585103                0.45794493               -0.02859081               -0.03656308                0.11176033                0.00135362                0.02462755                0.00797545
               1.81341594               -0.08401213               97.08017501                0.38120133               -0.00737791               -0.05299012                0.12968865                0.00612679               -0.01128628                0.01816388
               2.81354661               -0.08759503               97.08375808                0.68857995                0.01880135               -0.04446328                0.06717727               -0.01027339               -0.11985307                0.02702673
               3.81379196               -0.09069590               97.08651062                0.92767885                0.01889002               -0.02582098                0.03910694               -0.02263042               -0.14172469                0.05148836
               4.81392441               -0.09334271               97.08943360                0.74251823                0.01359768               -0.01742076                0.03712775               -0.01727777               -0.13427680                0.02808423
               5.81406392               -0.09579620               97.09196593                0.41896945                0.00399269               -0.01134818                0.05192316               -0.02794259               -0.14446537                0.01610235
               6.81400427               -0.09820777               97.09436929                0.38751360               -0.06103074               -0.02812633                0.10972493               -0.04483714               -0.13699701               -0.00832554
               7.81284330               -0.10081084               97.09760728                0.63622182               -0.07883811               -0.03302472                0.11318703                0.03156729               -0.11731027               -0.06835309
               8.81242750               -0.10348728               97.10039088                0.80684047               -0.03002332               -0.03107457                0.07743227                0.00137498               -0.06629044               -0.00562454
               9.81224284               -0.10615426               97.10380633                0.87964913               -0.01846688               -0.02208752                0.05215661               -0.01213132               -0.02506137               -0.01977047
              -0.18204203                0.92346798               97.07549923                0.45336666               -0.03631933               -0.02945196                0.11099667                0.00118892                0.00802006                0.01786321
               0.81759478                0.91950248               97.07945267                0.01000001               -0.03745990               -0.03756270                0.13751491               -0.01461617                0.02154839                0.01884533
               1.81720877                0.91545796               97.08371947                0.01152270               -0.04045092               -0.01831768                0.16977739                0.02594392                0.02124494               -0.05387883
               2.81678576                0.91196034               97.08769298                0.01415068               -0.03846366               -0.04772537                0.15293333                0.00147343                0.02701505                0.11968139
               3.81643950                0.90904589               97.09159594                0.93782844               -0.02419876               -0.02890347                0.09007674               -0.01430280               -0.00429356                0.07668425
               4.81630179                0.90648308               97.09500694                0.95959096               -0.01112397               -0.02206282                0.05843982               -0.00977745               -0.04460644                0.03065369
               5.81621702                0.90409032               97.09791531                0.81727943               -0.01192852               -0.01001748                0.05101183               -0.02493633               -0.07964502                0.03267066
               6.81606322                0.90151096               97.10051481                0.37673620               -0.02091457               -0.01934210                0.07988302               -0.04498918               -0.07648281                0.02092877
               7.81579873                0.89885891               97.10347565                0.10684495               -0.04751259               -0.03081590                0.14157764               -0.00161129               -0.03342630               -0.03831902
               8.81511296                0.89620197               97.10709843                0.22494559               -0.05051175               -0.05226606                0.13529743                0.00882965               -0.00816978               -0.06232208
               9.81478850                0.89362487               97.11050510                0.71986610               -0.03244679               -0.07259241                0.09615463                0.02172295               -0.01545054               -0.10406175
              -0.17805747                1.92317297               97.07939852                0.37718412               -0.05306643               -0.01074316                0.13048501                0.00591809                0.01767363               -0.02276182
               0.82141186                1.91911686               97.08331788                0.01127383               -0.02327856               -0.03989102                0.17218686                0.02988624               -0.05257779                0.01616420
               1.82147696                1.91562151               97.08591737                0.01000000               -0.07118549               -0.06680059                0.28520257                0.01453496                0.17271707                0.17165575
               2.81998815                1.91145047               97.09297548                0.01000000               -0.12468954               -0.07433392                0.28564556                0.02259587                0.22414093                0.18634761
               3.81898317                1.90872603               97.09713186                0.01121296               -0.06518588               -0.05205120                0.12764787                0.07843643                0.07484350                0.13182690
               4.81868444                1.90621603               97.10066008                0.29270600               -0.02229293                0.03404659                0.08286664                0.04367368                0.04799165                0.19614741
               5.81853731                1.90400345               97.10441492                0.98623486               -0.01742742               -0.00635294                0.08700071                0.01941332                0.01920034                0.11386662
               6.81833589                1.90140539               97.10750427                1.00000000               -0.02086191               -0.01410050                0.06821376               -0.01805964               -0.03797333                0.06396183
               7.81812007                1.89857284               97.11009609                0.74194985               -0.02488722               -0.02096182                0.05938951               -0.04359154               -0.06815870                0.01290283
               8.81783814                1.89546740               97.11263211                0.18155280               -0.01442850               -0.04792355                0.05828611               -0.03448754               -0.05345314               -0.06154324
               9.81783150                1.89239390               97.11542011                0.71130704               -0.00066440               -0.10379517                0.16543672               -0.02777993               -0.06743024               -0.08019031
              -0.17381144                2.92325312               97.08254317                0.69319803               -0.04445948                0.01496794                0.06833302               -0.00876739                0.02789821               -0.12628778
               0.82574396                2.91870466               97.08689416                0.01000002               -0.05113450               -0.03749684                0.15378781                0.00325608                0.12788496                0.02408266
               1.82516587                2.91412195               97.09274573                0.01000000               -0.08054022               -0.12252863                0.28736268                0.02925316                0.18549305                0.22221622
               2.82413316                2.91047366               97.09723941                0.01000000               -0.09616022               -0.09115054                0.32565357                0.16989776                0.18713493                0.19949520
               3.82324266                2.90800487               97.10346894                0.01515909               -0.11176593               -0.09586946                0.33227080                0.30247620                0.24169530                0.25337578
               4.82189784                2.90716401               97.10946397                0.01000001               -0.09133638               -0.02574893                0.13800853                0.22747081                0.05219134                0.28314266
               5.82141594                2.90396326               97.11190788                0.01000001               -0.03826047               -0.03798524                0.05376904                0.09247758               -0.03165009                0.14765436
               6.82113263                2.90122895               97.11466290                0.67084067               -0.02755229                0.01392945                0.09389136                0.01458157               -0.01327364                0.16921160
               7.82086489                2.89843968               97.11749848                0.97938475               -0.02652349                0.00136903                0.09756726               -0.01108332               -0.02088131                0.12204412
               8.82060216                2.89524350               97.12026952                0.95285629               -0.02424964               -0.02479246                0.09147831               -0.03215346               -0.02588473                0.03313690
               9.82037990                2.89154897               97.12320550                0.97181403               -0.02222638               -0.05872659                0.07980402               -0.06371917               -0.02519142                0.03340640
              -0.16913591                3.92347233               97.08494347                0.93461220               -0.02559412                0.01689985                0.04019289               -0.02166204                0.05087808               -0.14108972
               0.83060815                3.91836692               97.09044197                0.94099783               -0.02855357               -0.02372760                0.09097450               -0.01279419                0.07686983               -0.00416289
               1.83029302                3.91317094               97.09640288                0.01065978               -0.05524782               -0.06250414                0.12888653                0.08042493                0.12814902                0.06622755
               2.82950319                3.90962745               97.10306292                0.01513295               -0.09753408               -0.10530727                0.33767179                0.29893201                0.24609867                0.25360833
               3.82834234                3.90680864               97.11006124                0.01000001               -0.11138673               -0.13009062                0.28827011                0.41948524                0.17080369                0.18077606
               4.82727546                3.90570105               97.11526720                0.01045260               -0.10102100               -0.15895271                0.28347493                0.40004285                0.00786799                0.13103764
               5.82632192                3.90324375               97.11967698                0.01000000               -0.15621788               -0.07755817                0.19866735                0.31945518               -0.07490209                0.22442961
               6.82415110                3.90168397               97.12356710                0.01000001               -0.12190308               -0.03588486                0.10346489                0.26024307               -0.11243350                0.21096402
               7.82388386                3.89860022               97.12625309                0.01000002               -0.00326575               -0.04785223                0.09515984                0.10628587               -0.15951323                0.14755855
               8.82408579                3.89497155               97.12789751                0.96470384                0.00311640               -0.03136334                0.10116429                0.00495588               -0.09036178                0.00139116
               9.82394618                3.89121936               97.13091670                1.00000000               -0.01396019               -0.03874597                0.06836065               -0.00941474               -0.01704289                0.05345169
              -0.16403387                4.92359111               97.08753720                0.73999058               -0.01766623                0.01247912                0.03784476               -0.01694760                0.02768914               -0.13244105
               0.83578947                4.91823011               97.09352139                0.96051556               -0.02261488               -0.01113705                0.05893365               -0.00943245                0.03032036               -0.04314439
               1.83551383                4.91287187               97.09958243                0.26030431                0.03423132               -0.02222530                0.08155612                0.04531757                0.19633231                0.04722604
               2.83647409                4.90836752               97.10881414                0.01521790                0.00224674               -0.08709942                0.13452084                0.20566909                0.29092064                0.06657211
               3.83555877                4.90540305               97.11511659                0.01049583               -0.15052512               -0.11491970                0.26307408                0.39769420                0.13394120                0.01563776
               4.83346359                4.90398496               97.12091693                0.01000001               -0.18683250               -0.15068595                0.34775689                0.45917658                0.07392591                0.08647971
               5.83182212                4.90241210               97.12621095                0.01000001               -0.12412893               -0.11191635                0.28009760                0.40535009                0.00984719                0.14524576
               6.83098101                4.90051126               97.13072298                0.01000001               -0.10595417               -0.13845481                0.25464616                0.36168240               -0.08635388                0.14761906
               7.82970303                4.89748263               97.13405933                0.01000001               -0.14494378               -0.09378634                0.25972158                0.25823292               -0.21721023                0.07901725
               8.82808214                4.89461623               97.13496809                0.31291530               -0.10035342               -0.05404956                0.14781866                0.12741205               -0.12989499                0.03345230
               9.82769597                4.89077405               97.13854763                1.00000000               -0.03861718               -0.17855982                0.11266790                0.09332774               -0.00897445                0.16129116
              -0.15875285                5.92372191               97.08973910                0.41333773               -0.01084031                0.00312252                0.05256605               -0.02782706                0.01711668               -0.14146287
               0.84113875                5.91814418               97.09610304                0.81314912               -0.00925922               -0.01245440                0.05099594               -0.02492405                0.03347589               -0.07841967
               1.84106196                5.91272643               97.10300826                0.98572772               -0.00266779               -0.01719279                0.08816464                0.02035103                0.12021535                0.02033202
               2.84108539                5.90788547               97.11100758                0.01424030               -0.01915926               -0.03812037                0.05329741                0.06420458                0.15961282               -0.03425160
               3.84067878                5.90451025               97.11930423                0.01000000               -0.08177208               -0.12531668                0.19367137                0.28358514                0.21607960               -0.07319986
               4.83944995                5.90268733               97.12591004                0.01000001               -0.13880787               -0.10673509                0.28244300                0.40916340                0.12892152                0.01720141
               5.83790262                5.90100542               97.13220031                0.01000001               -0.15678676               -0.14590800                0.35295015                0.39496946                0.04756207                0.05439992
               6.83631421                5.89891488               97.13730840                0.01000002               -0.14795417               -0.14866522                0.40033401                0.34061460               -0.11443942                0.07443169
               7.83494354                5.89672450               97.14046011                0.01000000               -0.14857992               -0.11542047                0.30392386                0.31296919               -0.22640232                0.02720947
               8.83334262                5.89389056               97.14301482                0.32946012               -0.07232125               -0.11776332                0.23784021                0.16224265               -0.11581648                0.08573654
               9.83349711                5.88764817               97.14789770                1.00000000                0.01544988               -0.20975540                0.15302723                0.00379611               -0.00813770                0.33767692
              -0.15343495                6.92365356               97.09183546                0.38518446               -0.02785848               -0.06230354                0.11232175               -0.04551803               -0.00770005               -0.13170225
               0.84628647                6.91798102               97.09837907                0.38173805               -0.01927409               -0.02192950                0.08034932               -0.04610952                0.02238043               -0.07535549
               1.84617957                6.91252801               97.10579429                1.00000000               -0.01560473               -0.02015824                0.06922663               -0.01922107                0.06433551               -0.03634851
               2.84597437                6.90760511               97.11332266                0.58992911                0.01245167               -0.02649950                0.09009510                0.00984528                0.16873844               -0.02085463
               3.84642860                6.90289672               97.12265432                0.01000001               -0.04113410               -0.09542039                0.10724584                0.23171257                0.21801542               -0.12377872
               4.84515169                6.90185026               97.13013088                0.01000001               -0.14673191               -0.10327483                0.25765684                0.35180726                0.13804383               -0.07466666
               5.84349396                6.89949394               97.13700206                0.01000002               -0.15387308               -0.14536649                0.39882469                0.33670062                0.06826910               -0.10139200
               6.84207423                6.89753795               97.14294482                0.01762445               -0.12536112               -0.11638536                0.26909979                0.33268641               -0.07323230               -0.06652650
               7.84098674                6.89517422               97.14740636                0.01000001               -0.08354535               -0.13679196                0.31312171                0.30695092               -0.17683940               -0.10480019
               8.84040332                6.89226097               97.15105716                0.79910130               -0.03650389               -0.11659143                0.10686303                0.19957292               -0.11895484                0.03798732
               9.84025666                6.88657894               97.15715992                0.98551596               -0.01466572               -0.05973843                0.04228026                0.04495950               -0.00724645                0.15683976
              -0.14831812                7.92247584               97.09479845                0.63494532               -0.03397686               -0.07935004                0.11510005                0.03125665               -0.06957443               -0.11251934
               0.85134211                7.91770559               97.10102745                0.11154021               -0.03142095               -0.04751955                0.14168059               -0.00100708               -0.03700769               -0.03265591
               1.85105346                7.91232327               97.10807027                0.74551246               -0.02142591               -0.02376575                0.05962442               -0.04248147                0.01421443               -0.06752680
               2.85091359                7.90735548               97.11582403                0.97338918                0.00072131               -0.02599248                0.09559984               -0.01140601                0.12226846               -0.02356980
               3.85106788                7.90260184               97.12496679                0.01000001               -0.05123552               -0.00472277                0.09906539                0.10183229                0.14602947               -0.16769005
               4.84988888                7.90062184               97.13302455                0.01000001               -0.10594716               -0.14087236                0.25789012                0.25930325                0.07679341               -0.19956255
               5.84894894                7.89809809               97.14002571                0.01000000               -0.13006116               -0.14882958                0.30874196                0.32927005                0.04584638               -0.23237891
               6.84728765                7.89658717               97.14729252                0.01000001               -0.12946983               -0.08396764                0.30448844                0.31166007               -0.09452414               -0.18141871
               7.84635954                7.89398866               97.15284904                0.29255192               -0.06791477               -0.07988419                0.22310306                0.28493069               -0.20880419               -0.22863568
               8.84592936                7.89155873               97.15693353                0.94362976               -0.02995908               -0.07607927                0.13437975                0.14789448               -0.13395900               -0.05973432
               9.84576036                7.88645340               97.16335423                0.62189883               -0.01689982               -0.00111368                0.04720764                0.00362757               -0.01039149               -0.01267231
              -0.14326932                8.92206656               97.09725504                0.80428305               -0.03117862               -0.02962396                0.07739114                0.00182083               -0.00590153               -0.06429629
               0.85641890                8.91703063               97.10431195                0.21204066               -0.05253142               -0.05005019                0.13510243                0.01049151               -0.05855548               -0.00832400
               1.85568005                8.91205270               97.11027831                0.18360063               -0.04756090               -0.01471869                0.05960666               -0.03529663               -0.05648866               -0.05555601
               2.85546768                8.90708526               97.11828540                0.95583506               -0.02405845               -0.02458840                0.09155343               -0.03144882                0.03377470               -0.02754037
               3.85519889                8.90280227               97.12625010                0.97007801               -0.03130867                0.00298870                0.10261127                0.00454358                0.00061490               -0.09366684
               4.85484151                8.89903281               97.13366186                0.31651428               -0.05424265               -0.09892749                0.14885622                0.12984387                0.03215898               -0.12911370
               5.85411403                8.89651735               97.14203726                0.32322052               -0.12123223               -0.06999707                0.23734712                0.17632172                0.08230827               -0.12930737
               6.85241686                8.89585860               97.15037613                0.80262706               -0.12001165               -0.04360955                0.10742663                0.21580291                0.03893620               -0.13424231
               7.85171380                8.89357654               97.15658789                0.94651240               -0.07601954               -0.02923637                0.13554283                0.14679021               -0.05771754               -0.13624482
               8.85089647                8.89073938               97.16277696                0.64470995               -0.05869647               -0.05888814                0.10306019                0.07828769               -0.03407453               -0.03535301
               9.85053987                8.88655666               97.16923769                0.04916668               -0.03565998                0.00928451                0.03828337                0.02362959               -0.01494531               -0.02892594
              -0.13820984                9.92188336               97.10033024                0.87962336               -0.02243570               -0.01832022                0.05216264               -0.01192985               -0.01831475               -0.02413135
               0.86156580                9.91670459               97.10738054                0.70579196               -0.07486319               -0.03260430                0.09744265                0.02196716               -0.09939140               -0.01599251
               1.86029289                9.91202889               97.11271736                0.69855077               -0.10153786               -0.00238040                0.16423085               -0.03075992               -0.07678001               -0.07187680
               2.85953504                9.90686371               97.12090470                0.97136508               -0.05408458               -0.02215509                0.07815899               -0.06162741                0.03729689               -0.02633890
               3.85921120                9.90266161               97.12896801                1.00000000               -0.03821845               -0.01406512                0.06741839               -0.00978921                0.05397994               -0.01754023
               4.85877068                9.89864329               97.13694085                1.00000000               -0.17808097               -0.03895212                0.11145232                0.09474372                0.16015213               -0.00896783
               5.85564958                9.89669815               97.14662248                1.00000000               -0.21130787                0.01808030                0.15015614                0.00713967                0.33669917               -0.01053858
               6.85454452                9.89571498               97.15620135                0.98528398               -0.06175094               -0.01436198                0.04115836                0.04805487                0.15373323               -0.00798057
               7.85441456                9.89340393               97.16270315                0.62875973               -0.00147648               -0.01726092                0.04784185                0.00337573               -0.01556866               -0.01021738
               8.85451499                9.89038096               97.16890787                0.05297748                0.00919111               -0.03584177                0.03870512                0.02360978               -0.03060582               -0.01531711
               9.85459839                9.88663909               97.17521371                0.31643229                0.00833984                0.00824246               -0.00247827                0.03166422               -0.02456020               -0.02339626
              -0.19003123               -0.07993022               98.07273552                0.65838263               -0.03389703               -0.03402242                0.08882596                0.01342676                0.01025936                0.00783650
               0.80962980               -0.08378004               98.07699331                0.47815545               -0.04421794               -0.03814641                0.11275858                0.01015728                0.01043649                0.00967444
               1.80908441               -0.08761887               98.08136906                0.52319291               -0.01997521               -0.05312992                0.08657435                0.01341602               -0.07881625                0.00931791
               2.80923030               -0.09179672               98.08403396                0.75403370                0.02287408               -0.02688150                0.03506453               -0.04143436               -0.15191443                0.06911094
               3.80954189               -0.09557429               98.08681928                0.69187129                0.02719276               -0.02105569                0.03859980               -0.03804369               -0.13585286                0.04834808
               4.80977415               -0.09880593               98.08978664                0.41341427                0.01806835               -0.01680343                0.05927736               -0.02013918               -0.13331314                0.00605228
               5.80990326               -0.10163987               98.09261317                0.39042303               -0.02762663               -0.03441351                0.12124669               -0.02653171               -0.12297671               -0.04190385
               6.80922162               -0.10459296               98.09598448                0.56196139               -0.04706616               -0.03555250                0.12111355                0.01961576               -0.13824657               -0.09691872
               7.80896194               -0.10748905               98.09839325                0.69668619               -0.02012885               -0.03488244                0.07592317                0.00487257               -0.11378154                0.00972917
               8.80881904               -0.11043459               98.10110251                0.67787268               -0.01474627               -0.03008813                0.07081940               -0.00244823               -0.06352034               -0.00032342
               9.80866701               -0.11321301               98.10425817                0.77636644               -0.01520298               -0.02525039                0.05664998               -0.01122893               -0.04227779               -0.01524861
              -0.18604714                0.91972955               98.07663251                0.47445022               -0.03771631               -0.04561761                0.11196548                0.00974672                0.00945040                0.00497381
               0.81357569                0.91583849               98.08090022                0.02501972               -0.03629741               -0.03650384                0.15499611               -0.00445315                0.03138191                0.03065458
               1.81322691                0.91184983               98.08557537                0.01000000               -0.03910144               -0.04873731                0.19405585               -0.00057330                0.00755439                0.12146269
               2.81279367                0.90793447               98.08943887                0.74317553               -0.02804243               -0.01477534                0.12903273               -0.04385875               -0.05116953                0.14595463
               3.81266606                0.90421515               98.09250688                0.97382581               -0.00940576               -0.02975930                0.07335890               -0.03198882               -0.07309620                0.05029077
               4.81260555                0.90102604               98.09552723                0.77725955               -0.00672998               -0.01246000                0.05133221               -0.02306734               -0.07803839                0.02280329
               5.81253146                0.89801599               98.09839411                0.36223989               -0.01315941               -0.02034453                0.08661116               -0.03215204               -0.06890507               -0.00834667
               6.81234236                0.89505151               98.10160485                0.18236104               -0.02999930               -0.03335734                0.15946947               -0.00183122               -0.01500594               -0.07752778
               7.81193147                0.89216213               98.10543122                0.07809527               -0.03429098               -0.05468786                0.15541525                0.00285453               -0.02167120               -0.08226114
               8.81165654                0.88926453               98.10829953                0.05405275               -0.02991626               -0.07559560                0.12784927                0.01123028               -0.03162810               -0.11741026
               9.81133315                0.88653448               98.11149634                0.55415258               -0.03233929               -0.08644466                0.12710962               -0.00817450               -0.01747133               -0.05705643
              -0.18205418                1.91915742               98.08058942                0.52305245               -0.05253685               -0.02259377                0.08589774                0.01412691                0.00985571               -0.08781540
               0.81742045                1.91548988               98.08519777                0.01000000               -0.04844260               -0.03821102                0.19460791               -0.00124065                0.12109082                0.00367286
               1.81697697                1.91140639               98.09169811                0.01000001               -0.07163249               -0.06736685                0.39344266                0.02338716                0.11781269                0.11460439
               2.81598780                1.90790778               98.09620436                0.01537994               -0.05832134               -0.03621750                0.18552963                0.00733726               -0.03718471                0.16486242
               3.81581054                1.90383052               98.09824781                0.01000000               -0.02379203               -0.01571382                0.11626574               -0.02575156               -0.05093520                0.19302497
               4.81551196                1.90094487               98.10180581                0.97557922               -0.02878995                0.00915551                0.09975019                0.00617140                0.01778742                0.14720346
               5.81523475                1.89795323               98.10521002                0.97738679               -0.02365544                0.00032607                0.06586262               -0.01784528               -0.01814543                0.06787427
               6.81503886                1.89473989               98.10804243                0.80002432               -0.02143686               -0.01790206                0.05961388               -0.03826525               -0.04930641                0.00347150
               7.81480601                1.89141720               98.11074277                0.32888138               -0.01837810               -0.04945445                0.10950747               -0.03694550               -0.06701635               -0.08224920
               8.81467129                1.88805350               98.11326710                0.26838908               -0.04211934               -0.08055395                0.22456316               -0.01897084                0.04566648               -0.14354615
               9.81396362                1.88505809               98.11817552                0.68900161               -0.07076721               -0.12535000                0.24931402                0.00142525                0.15224735               -0.18531988
              -0.17842952                2.91927768               98.08282718                0.75973796               -0.02685656                0.02090935                0.03545231               -0.03936540                0.06789019               -0.15555544
               0.82130192                2.91507427               98.08863685                0.73918961               -0.01468632               -0.02722866                0.12932588               -0.04208584                0.14591823               -0.05427407
               1.82127676                2.91050250               98.09582590                0.01528403               -0.03928205               -0.05381494                0.17811793                0.00628418                0.16686980               -0.03811353
               2.82051628                2.90721012               98.10154426                0.01000000               -0.10814130               -0.10232679                0.37631501                0.12339504                0.11833119                0.12040582
               3.81911393                2.90390087               98.10645171                0.01355635               -0.09550060               -0.03584273                0.23401316                0.12236648                0.04113019                0.30508823
               4.81860626                2.90120915               98.10993774                0.01000001               -0.03671968               -0.04510787                0.04307216                0.08673357               -0.00323799                0.20441352
               5.81837954                2.89802251               98.11275244                0.94206756               -0.02465846                0.02102246                0.06324253                0.00219878               -0.01938220                0.16596392
               6.81811310                2.89469347               98.11565978                0.99999999               -0.02502915               -0.00166731                0.07390661               -0.02408924               -0.01907978                0.10770681
               7.81787895                2.89117304               98.11843200                0.95626244               -0.02384334               -0.02658854                0.07416837               -0.02599163               -0.02617756                0.03722423
               8.81763623                2.88765345               98.12107434                0.89877769               -0.02632414               -0.02991979                0.07896369               -0.03332694               -0.01679643                0.00160769
               9.81735247                2.88402748               98.12397899                0.87295586               -0.02837572               -0.05693352                0.08280168               -0.01598342               -0.01038473               -0.09664109
              -0.17443468                3.91957561               98.08526050                0.69441796               -0.02114067                0.02588107                0.03905814               -0.03706489                0.04727570               -0.13435983
               0.82535392                3.91494531               98.09135387                0.97428361               -0.02992568               -0.00976467                0.07387776               -0.03111276                0.04971610               -0.07222905
               1.82496681                3.91033009               98.09750955                0.01252838               -0.01482939               -0.02328227                0.11597226               -0.02569890                0.19290826               -0.05214495
               2.82505733                3.90586124               98.10613652                0.01338056               -0.03539844               -0.09049075                0.23774557                0.12029887                0.30330549                0.04507532
               3.82425884                3.90311367               98.11308015                0.01734988               -0.09661657               -0.10355451                0.35436217                0.20705519                0.13633553                0.12906299
               4.82312500                3.90004272               98.11834344                0.01000003               -0.12322215               -0.09687079                0.25038809                0.24216672               -0.02539204                0.21555955
               5.82179440                3.89837368               98.12148377                0.01000000               -0.08592278               -0.03432644                0.12267133                0.17262780               -0.10641959                0.22212206
               6.82140654                3.89470654               98.12405367                0.02412878               -0.02341022                0.02046700                0.05091063                0.00330839               -0.04583489                0.18798438
               7.82132619                3.89088542               98.12623664                0.01000000               -0.01281152                0.01789077                0.03560209               -0.01429817               -0.04862792                0.17242050
               8.82115031                3.88745511               98.12861246                0.80255036               -0.02151497               -0.00970199                0.06991860                0.00560858               -0.03129295                0.02596168
               9.82089589                3.88391942               98.13150646                0.97811091               -0.02544172               -0.01000664                0.05534713               -0.01140179               -0.00807735                0.03883846
              -0.16991021                4.91979530               98.08789414                0.40993920               -0.01646089                0.01699293                0.05946841               -0.01965433                0.00599118               -0.13032954
               0.82992519                4.91487898               98.09404365                0.77606227               -0.01214738               -0.00749274                0.05147945               -0.02243937                0.02288245               -0.07636817
               1.82984685                4.91003685               98.10072837                0.97413932                0.01067457               -0.02833286                0.10017499                0.00767380                0.14939834                0.01875134
               2.83013868                4.90540030               98.10930392                0.01000001               -0.03866441               -0.03407385                0.04236649                0.06988875                0.18149086               -0.00446131
               3.82907356                4.90182978               98.11763562                0.01000004               -0.09745472               -0.11485105                0.24427422                0.23093160                0.17623169                0.00539546
               4.82818958                4.89927173               98.12477704                0.01000001               -0.09526469               -0.08477799                0.30213169                0.31773887                0.05342315                0.05783148
               5.82716826                4.89733598               98.12901480                0.01041406               -0.12610300               -0.11310351                0.28987004                0.33187233               -0.01322265                0.20445675
               6.82566752                4.89510281               98.13358663                0.01472062               -0.11619170               -0.02752756                0.21675499                0.18579866               -0.06300514                0.28816311
               7.82484443                4.89153085               98.13670570                0.01000002               -0.04765597               -0.01616067                0.15478201                0.03183543               -0.24931353                0.26604241
               8.82471440                4.88745941               98.13667651                0.86981236               -0.03243141               -0.00059075                0.15357809               -0.02902440               -0.16827384                0.13465424
               9.82419580                4.88382735               98.13973933                1.00000000               -0.05186006               -0.02583354                0.10026408                0.00406868               -0.00494128                0.14317462
              -0.16499512                5.91991547               98.09039582                0.38876826               -0.03412996               -0.02897744                0.12379290               -0.02700386               -0.04129977               -0.11712067
               0.83466358                5.91479545               98.09658267                0.36443343               -0.02029561               -0.01426452                0.08716720               -0.03239514               -0.00739095               -0.06647939
               1.83459896                5.90976343               98.10381469                0.97584757               -0.00007015               -0.02328571                0.06666777               -0.01664793                0.06865760               -0.01600455
               2.83466217                5.90517976               98.11177071                0.93536251                0.02035393               -0.02464182                0.05897116                0.00076798                0.16189516               -0.02151296
               3.83500604                5.90081665               98.12088863                0.01000001               -0.03442982               -0.07010042                0.11234272                0.16351526                0.19818175               -0.05531105
               4.83397358                5.89834716               98.12875493                0.01040352               -0.12026375               -0.10400088                0.29144123                0.31930169                0.19244223               -0.00663119
               5.83260077                5.89611161               98.13611939                0.01027116               -0.15229667               -0.14422347                0.43335148                0.34765050                0.14441693                0.15033967
               6.83092764                5.89415599               98.14211782                0.01000000               -0.14972331               -0.15468947                0.48965838                0.25230011               -0.05281206               -0.06894295
               7.82960630                5.89056221               98.14483968                0.01000000               -0.13271567               -0.13620565                0.49039142                0.16525109               -0.28582623               -0.05607797
               8.82827333                5.88744329               98.14620132                0.49367598               -0.06824523               -0.07652727                0.20227846                0.13229736               -0.19310571                0.06574801
               9.82824140                5.88340275               98.14916983                0.99957797               -0.00319334               -0.16193743                0.06651776                0.10805832               -0.11643127                0.29516062
              -0.16021025                6.91921575               98.09349846                0.56179729               -0.03604316               -0.04799198                0.12355799                0.01937282               -0.09887904               -0.13251148
               0.83942932                6.91459369               98.09948351                0.18766614               -0.03300873               -0.03056472                0.16077482               -0.00111054               -0.07712328               -0.01244955
               1.83912958                6.90957114               98.10633121                0.79724252               -0.01642492               -0.02121629                0.05956378               -0.03639191                0.00505607               -0.04734682
               2.83910082                6.90490747               98.11433615                0.99999999                0.00234461               -0.02614135                0.07537568               -0.02411250                0.11437257               -0.02061288
               3.83917647                6.90042778               98.12321928                0.01541099                0.00899127               -0.02287012                0.05085027                0.01594970                0.18697110               -0.04860378
               4.83928065                6.89719172               98.13299500                0.01465211               -0.04320165               -0.09059296                0.21833245                0.17182116                0.28108572               -0.06641999
               5.83831244                6.89445151               98.14178925                0.01000000               -0.15088607               -0.15151885                0.48938017                0.23925966               -0.07024657               -0.05007762
               6.83626293                6.89200902               98.14491321                0.01000003               -0.17251407               -0.17802136                0.38670100                0.21485829               -0.16285437               -0.16728571
               7.83486216                6.88880674               98.15057697                0.20689007               -0.08715583               -0.12627731                0.26265586                0.22027469               -0.21187578               -0.18483277
               8.83451981                6.88592887               98.15235277                0.93890984               -0.02120546               -0.12306879                0.14458282                0.16469787               -0.19067537               -0.03929490
               9.83443805                6.88058860               98.15760902                0.99999999               -0.00817636               -0.14072422                0.00790688                0.03509500                0.00088783                0.15515742
              -0.15536355                7.91895563               98.09558859                0.69285407               -0.03504769               -0.02039020                0.07629147                0.00492904                0.00896108               -0.11096789
               0.84428598                7.91418416               98.10298528                0.07898038               -0.05395527               -0.03432455                0.15619857                0.00412601               -0.07990805               -0.02041500
               1.84355735                7.90933911               98.10870995                0.34010877               -0.04813454               -0.01920548                0.10890690               -0.03633840               -0.07815648               -0.06465432
               2.84332329                7.90465694               98.11677870                0.96093627               -0.02582811               -0.02453398                0.07556493               -0.02724993                0.04065531               -0.02781973
               3.84304079                7.90035924               98.12498204                0.01000000                0.00314881               -0.01237923                0.03664657                0.00187371                0.16774491               -0.05642135
               4.84338626                7.89653530               98.13566889                0.01000002               -0.02360660               -0.06120187                0.16050336                0.03845586                0.26777670               -0.25303255
               5.84256865                7.89308124               98.14427190                0.01000000               -0.12583411               -0.13563719                0.47852711                0.15281536               -0.04512386               -0.28640392
               6.84086958                7.89059557               98.15024441                0.20773236               -0.12383525               -0.08719851                0.25172145                0.22247807               -0.17526350               -0.22381417
               7.84009195                7.88803666               98.15417795                0.91101131               -0.05420757               -0.05349276                0.10918325                0.21701335               -0.19139926               -0.19298081
               8.83978543                7.88498191               98.15831636                1.00000000               -0.02340591               -0.07143795                0.10856793                0.11831390               -0.10254836               -0.04792072
               9.83962383                7.88058827               98.16362427                0.37415263               -0.01615977               -0.00084628                0.02096569                0.04554935               -0.04030710                0.02285028
              -0.15056872                8.91880795               98.09796727                0.67691234               -0.03029125               -0.01516384                0.07108399               -0.00241177               -0.00021748               -0.06207931
               0.84912837                8.91390720               98.10552008                0.04854397               -0.07506230               -0.03023869                0.12897496                0.01138198               -0.11268497               -0.03157516
               1.84793003                8.90918703               98.11093488                0.26234144               -0.07963395               -0.04392449                0.22367741               -0.02206060               -0.13711810                0.04604199
               2.84753569                8.90441679               98.11909322                0.90108082               -0.02972247               -0.02573630                0.07847405               -0.03323697                0.00172174               -0.01821126
               3.84733558                8.90018019               98.12697783                0.81849902               -0.01039576               -0.02172318                0.07070022                0.00371763                0.02451712               -0.03435714
               4.84732777                8.89596768               98.13536704                0.86918723               -0.00135540               -0.05386149                0.15308941               -0.01740519                0.13237533               -0.16631437
               5.84730848                8.89173877               98.14522826                0.48301682               -0.07853561               -0.06921596                0.20306776                0.14017166                0.06223116               -0.19899689
               6.84575706                8.89026505               98.15168110                0.94080821               -0.12462003               -0.02104303                0.14585526                0.16626190               -0.03985639               -0.19303512
               7.84481607                8.88773689               98.15797855                0.99999999               -0.07112867               -0.02307815                0.10927761                0.11747061               -0.04673842               -0.10406872
               8.84433449                8.88450011               98.16384431                0.01377156               -0.03398729               -0.03395841                0.07564103                0.06200304               -0.03823402               -0.03894575
               9.84413633                8.88057167               98.16954237                0.01253147               -0.01981575                0.00063487                0.02802014                0.03711844               -0.03114383               -0.00205409
              -0.14561029                9.91865235               98.10079077                0.77861238               -0.02551804               -0.01555920                0.05716218               -0.01145337               -0.01429652               -0.04111427
               0.85413453                9.91357938               98.10838388                0.54874056               -0.08915830               -0.03278135                0.12819532               -0.00897009               -0.05199927               -0.01748739
               1.85260655                9.90846062               98.11549227                0.67283370               -0.12345745               -0.07264123                0.25240238               -0.00420716               -0.17665935                0.15140534
               2.85166539                9.90414221               98.12166018                0.86359714               -0.05211508               -0.02745764                0.08130726               -0.01382206               -0.09549970               -0.01229325
               3.85156425                9.89992478               98.12954900                0.97707488               -0.00929024               -0.02554110                0.05367151               -0.01134077                0.03799697               -0.00801837
               4.85147958                9.89545807               98.13810888                1.00000000               -0.02447663               -0.05096111                0.09766910                0.00378771                0.14064592               -0.00500562
               5.85107471                9.89169692               98.14785789                1.00000000               -0.16414396               -0.00418517                0.06456919                0.11245584                0.29349893               -0.12010692
               6.84819670                9.89017471               98.15664418                0.99999999               -0.14342047               -0.00903459                0.00709864                0.03787334                0.15415812                0.00083962
               7.84820631                9.88757510               98.16297230                0.37474403               -0.00029998               -0.01617845                0.02078027                0.04542505                0.02096198               -0.04049593
               8.84819070                9.88430275               98.16921488                0.01228333                0.00083812               -0.01973622                0.02811733                0.03691462               -0.00300480               -0.03130845
               9.84822307                9.88060096               98.17519452                0.37779739                0.00323660                0.00292895                0.37004406                0.03849565                0.06662180                0.06643270
              -0.19432265               -0.08387524               99.07364041                0.60765627               -0.04079914               -0.04112018                0.08854484                0.00572594                0.00225909                0.00094686
               0.80526936               -0.08775220               99.07810620                0.47319914               -0.04391950               -0.03366851                0.11403376               -0.01713736               -0.02753138                0.03089770
               1.80479896               -0.09223839               99.08190650                0.61763875               -0.01056322               -0.02034387                0.06667766               -0.06129763               -0.08033982                0.06917708
               2.80505810               -0.09702263               99.08445937                0.60932107                0.02616330               -0.02683296                0.06312181               -0.06601091               -0.12387170                0.04472430
               3.80532223               -0.10110413               99.08728262                0.50069839                0.02030811               -0.02726943                0.08167538               -0.02731197               -0.09378030                0.01524887
               4.80546426               -0.10470285               99.09061915                0.48981839                0.00421549               -0.03771740                0.11653583               -0.01564789               -0.04476400               -0.04291141
               5.80540654               -0.10819614               99.09439086                0.54532171               -0.00024996               -0.04773184                0.13109230                0.00127424               -0.08196452               -0.10238833
               6.80545926               -0.11138689               99.09679156                0.55943524                0.00215504               -0.07106565                0.09768389                0.00187001               -0.11210142                0.01019576
               7.80544964               -0.11469219               99.09912575                0.58498538               -0.00835426               -0.04436345                0.08615746               -0.00294642               -0.09220690                0.01254351
               8.80529218               -0.11788779               99.10180727                0.60520480               -0.01818389               -0.04230378                0.07518957                0.00014016               -0.05640342                0.00390353
               9.80508596               -0.12093558               99.10493933                0.78601098               -0.02062133               -0.04980355                0.07541932               -0.00883154               -0.03601512                0.00168146
              -0.19038843                0.91571356               99.07773854                0.47170421               -0.03320098               -0.04513800                0.11359161               -0.01796515                0.03053806               -0.03144251
               0.80927956                0.91191111               99.08255259                0.46097535               -0.03951846               -0.03970600                0.15824766               -0.03498764                0.04821848                0.04782172
               1.80882120                0.90755817               99.08760058                0.68297970               -0.02243532               -0.00492738                0.13249335               -0.05872065               -0.00662278                0.11427100
               2.80883086                0.90270904               99.09027364                0.89590693                0.00340081               -0.01675195                0.06634243               -0.06491679               -0.10347884                0.06175556
               3.80888922                0.89862318               99.09306312                0.77885026                0.00114663               -0.01270868                0.05651830               -0.03741430               -0.07467180                0.01457610
               4.80885379                0.89491997               99.09603358                0.51343466               -0.00639599               -0.02737757                0.08327495               -0.03414620               -0.03530140               -0.02198466
               5.80876130                0.89132654               99.09964753                0.54725067               -0.00639014               -0.04006291                0.13871416               -0.02431408                0.02437920               -0.07942964
               6.80872599                0.88790246               99.10370420                0.46506978               -0.00453365               -0.05966106                0.14302447               -0.00523072                0.00328495               -0.08312814
               7.80867063                0.88486417               99.10658395                0.28088056               -0.01553573               -0.06903648                0.13151406               -0.00539261               -0.02162166               -0.07439919
               8.80841527                0.88168917               99.10965541                0.38304136               -0.03125947               -0.11452719                0.15858783               -0.01356261                0.00194373               -0.02048730
               9.80804544                0.87856638               99.11304729                0.75244064               -0.03698342               -0.14297845                0.15859231               -0.01359670                0.00514675               -0.03711385
              -0.18707706                1.91522200               99.08111647                0.61904086               -0.01979417               -0.01213162                0.06583632               -0.06106023                0.06868423               -0.08541983
               0.81272500                1.91145368               99.08721004                0.68104607               -0.00481546               -0.02240135                0.13172926               -0.05874499                0.11361614               -0.00836080
               1.81282663                1.90766306               99.09378623                0.15322933               -0.00151208               -0.00049688                0.08514819               -0.10183495                0.02550775                0.02640262
               2.81269475                1.90264233               99.09668607                0.61360686               -0.02318100                0.01202903                0.04921296               -0.09891213               -0.03827873                0.15069064
               3.81236301                1.89864170               99.09945718                0.96720560               -0.03083887                0.03255557                0.09273440               -0.05550809               -0.03823915                0.15633758
               4.81207798                1.89474960               99.10265509                0.94012227               -0.02126155               -0.01026620                0.07019817               -0.04802724               -0.02153176                0.04975101
               5.81193778                1.89100260               99.10573217                0.59807643               -0.01304814               -0.01588747                0.06377338               -0.03923772               -0.02230388               -0.02604786
               6.81181701                1.88741989               99.10869655                0.62478870               -0.01913526               -0.02652995                0.11025215               -0.03650140                0.00123905               -0.08164173
               7.81155507                1.88392708               99.11228624                0.62557457               -0.02491500               -0.05869435                0.15402480               -0.06710367                0.08799948               -0.09254597
               8.81131871                1.87982167               99.11712337                0.68171987               -0.02477333               -0.08794381                0.22270467               -0.07091316                0.06973131               -0.08580671
               9.81105961                1.87620485               99.12040639                0.84353742               -0.02591087               -0.11405873                0.14204256               -0.04580900                0.02810618               -0.12399163
              -0.18407299                2.91547092               99.08325222                0.61428943               -0.02634081                0.02480861                0.06297850               -0.06578653                0.04423872               -0.12520521
               0.81566360                2.91146309               99.08948068                0.90039474               -0.01655758                0.00309340                0.06693364               -0.06471311                0.06181893               -0.10505990
               1.81559586                2.90754823               99.09630809                0.60863428                0.01051881               -0.02187454                0.04888883               -0.09857805                0.14951898               -0.03990386
               2.81587398                2.90294962               99.10476571                0.49957518                0.00379669                0.00634861                0.15420530               -0.04849955                0.09802416                0.09705327
               3.81567179                2.89927429               99.10814920                0.01000003               -0.01708152               -0.02178530                0.07599634               -0.08679276               -0.06011309                0.25707376
               4.81553235                2.89471465               99.11032542                0.77779823               -0.01827691                0.02116718                0.04104022               -0.09897372               -0.04596804                0.18369230
               5.81530625                2.89100879               99.11317273                0.95856419               -0.02304325                0.02106176                0.04876329               -0.03986329               -0.01946408                0.08671230
               6.81507148                2.88737186               99.11614103                0.93318354               -0.01897368                0.00484589                0.04660544               -0.03269935               -0.01577171                0.03069253
               7.81492678                2.88369029               99.11898185                0.52971125               -0.01761220               -0.00760762                0.06507019               -0.03220639               -0.01254680               -0.01784431
               8.81471924                2.87993030               99.12184879                0.70348267               -0.02819445                0.00334681                0.09919346               -0.02668401               -0.00244642               -0.10532819
               9.81436289                2.87628521               99.12486153                0.86642815               -0.03563475                0.00154701                0.08967261               -0.01765667                0.02022950               -0.13385642
              -0.18037712                3.91571817               99.08572464                0.50053038               -0.02694580                0.01891424                0.08120571               -0.02726592                0.01500196               -0.09207375
               0.81935342                3.91151555               99.09191953                0.78126165               -0.01271731                0.00054258                0.05695552               -0.03716576                0.01483644               -0.07406426
               1.81936854                3.90722557               99.09872232                0.96685683                0.03226407               -0.03032394                0.09286456               -0.05502885                0.15651763               -0.03828213
               2.81999871                3.90276930               99.10781783                0.01000000               -0.02532075               -0.01527624                0.07503600               -0.08484427                0.25215710               -0.05938738
               3.81886212                3.89820599               99.11714848                0.76389651               -0.08173514               -0.07859038                0.23348886                0.01710656                0.12404759                0.13238787
               4.81836400                3.89517294               99.12027497                0.88194774               -0.01894082                0.00077291                0.08560418                0.04191859               -0.14692093                0.23019605
               5.81848330                3.89142384               99.12213041                0.98768402                0.00587639                0.04284114                0.04173811               -0.01071531               -0.09798259                0.17057532
               6.81848153                3.88751681               99.12458531                0.97785144               -0.00654002                0.04192532                0.04563199               -0.03451941               -0.04982075                0.15391633
               7.81835250                3.88377493               99.12696513                0.72488845               -0.01457100                0.02550790                0.06869189               -0.04640516               -0.04616937                0.11821380
               8.81819011                3.87988860               99.12929588                0.78330679               -0.01779300               -0.01049192                0.08181838               -0.02876698               -0.02328275                0.03524918
               9.81799664                3.87623579               99.13202364                0.91215223               -0.01934664               -0.01555193                0.05706587               -0.00985069                0.00681859                0.01405486
              -0.17621306                4.91584921               99.08872657                0.48853286               -0.03740533                0.00285006                0.11768253               -0.01629900               -0.04252714               -0.04115011
               0.82341288                4.91147394               99.09455098                0.51258302               -0.02727053               -0.00704066                0.08345617               -0.03444134               -0.02156544               -0.03380067
               1.82324153                4.90694175               99.10158593                0.93996026               -0.01081081               -0.02110352                0.07081881               -0.04756515                0.05020643               -0.02059274
               2.82319667                4.90264409               99.10966147                0.76573526                0.01843775               -0.01731610                0.03940678               -0.09943101                0.18204404               -0.04651744
               3.82361028                4.89770248               99.12000207                0.88310455               -0.00218954               -0.01928146                0.10777703                0.04410484                0.21970104               -0.12956389
               4.82315288                4.89473011               99.12695957                0.91583773               -0.04311021               -0.04180917                0.10445950                0.19335832                0.05430351                0.06634491
               5.82274808                4.89186561               99.13200835                0.45924593               -0.05614374               -0.00930363                0.13801734                0.12125066               -0.04947434                0.23024510
               6.82203000                4.88821036               99.13505808                0.01336868               -0.05605983               -0.06536852                0.07213079                0.01954908               -0.06358404                0.27774874
               7.82162688                4.88420045               99.13715497                0.01000001               -0.01734847               -0.10216264                0.02978744               -0.08494464               -0.11027807                0.31011551
               8.82168303                4.87972046               99.13803965                0.91146750               -0.00776911               -0.01796711                0.10127324               -0.06330155               -0.09785294                0.09203737
               9.82147150                4.87597417               99.14055291                0.97989238               -0.02115339               -0.02770469                0.06192949               -0.01288681               -0.00282477                0.06676432
              -0.17195256                5.91577517               99.09221496                0.54532618               -0.04753918               -0.00193248                0.13324687                0.00147864               -0.10428416               -0.07769214
               0.82757205                5.91137473               99.09784639                0.54765359               -0.04001826               -0.00722547                0.13993889               -0.02366514               -0.07966303                0.02664352
               1.82724708                5.90680350               99.10434162                0.59855183               -0.01613477               -0.01279665                0.06406358               -0.03826175               -0.02498648               -0.02124339
               2.82724936                5.90242298               99.11218700                0.95580609                0.02055623               -0.02296133                0.04865110               -0.04030228                0.08817674               -0.01993665
               3.82765820                5.89782037               99.12155108                0.98352532                0.04093415                0.00643763                0.04200511               -0.00936625                0.16853560               -0.09829051
               4.82806804                5.89433676               99.13173887                0.45868240               -0.01150700               -0.05611081                0.13751244                0.12339789                0.22245492               -0.04293248
               5.82742806                5.89123776               99.14086734                0.99999999               -0.07651792               -0.07628738                0.23405931               -0.03522887                0.16965241                0.17003112
               6.82653768                5.88620944               99.14710156                0.84893458               -0.11422734               -0.10723562                0.25599865               -0.07533373                0.01505792                0.19322966
               7.82514352                5.88173167               99.15026794                0.62302006               -0.06936638               -0.10305754                0.30036545                0.05013052               -0.32171718                0.22648016
               8.82515035                5.87952926               99.14706039                0.99304332                0.00439824               -0.01802118                0.06220788                0.09123789               -0.30373936                0.03491050
               9.82523148                5.87568170               99.14922805                0.97076027                0.00811277               -0.03732669                0.00972110                0.02976490               -0.05532002                0.06941516
              -0.16738261                6.91581056               99.09430662                0.55675351               -0.07061346                0.00062524                0.09831794                0.00290154                0.01005110               -0.10916360
               0.83191125                6.91132943               99.10159457                0.46451809               -0.05946695               -0.00570099                0.14400988               -0.00370996               -0.08212572                0.00542314
               1.83142805                6.90668582               99.10698556                0.62205886               -0.02687471               -0.01884949                0.11043104               -0.03473680               -0.08013842                0.00194291
               2.83137376                6.90218487               99.11483017                0.93126548                0.00405655               -0.01904847                0.04762053               -0.03246689                0.03160642               -0.01639244
               3.83150918                6.89783124               99.12367132                0.96933150                0.04148399               -0.00527499                0.04096094               -0.03512951                0.14979186               -0.05138800
               4.83220344                6.89360789               99.13449753                0.01804606               -0.06691799               -0.05738081                0.07393524                0.01975694                0.28063077               -0.07726055
               5.83017082                6.89033987               99.14678966                0.84626120               -0.10870103               -0.11533822                0.25684105               -0.07496812                0.19570692                0.01118858
               6.83002942                6.88606565               99.15067884                0.50806361               -0.04305748               -0.04332189                0.29328792               -0.04309577               -0.21658123               -0.21807399
               7.82930967                6.88213929               99.15265948                0.92514124               -0.02358251                0.04978929                0.10197429                0.13052403               -0.22578250               -0.24911713
               8.82955777                6.87936003               99.15394881                0.91190829                0.02261271               -0.02102476                0.09149404                0.11850302               -0.15151586               -0.03191168
               9.82976192                6.87522764               99.15731806                0.64830525                0.02041562               -0.03523231               -0.02032347                0.04210546               -0.06706392                0.12667166
              -0.16293227                7.91578768               99.09632428                0.58295011               -0.04451450               -0.00938807                0.08692587               -0.00253019                0.01267900               -0.09037298
               0.83662259                7.91126071               99.10415142                0.28285890               -0.06854152               -0.01644531                0.13298542               -0.00374163               -0.07311412               -0.02080633
               1.83569690                7.90642651               99.11024841                0.62495141               -0.05839932               -0.02473029                0.15413589               -0.06410993               -0.09094220                0.08823176
               2.83545460                7.90204201               99.11733533                0.53784033               -0.00821586               -0.01726557                0.06541604               -0.03131160               -0.01731353               -0.01335040
               3.83553259                7.89771487               99.12569972                0.73605792                0.02499724               -0.01415365                0.06769241               -0.04733193                0.11695336               -0.04915982
               4.83595455                7.89318914               99.13623462                0.01000002               -0.10308228               -0.01706768                0.03535907               -0.08743618                0.31732052               -0.13585967
               5.83347094                7.88893100               99.14959625                0.62729288               -0.10391056               -0.06942236                0.29499012                0.05138215                0.22567430               -0.32055107
               6.83387634                7.88534300               99.15232695                0.92484813                0.04943354               -0.02337589                0.10195499                0.13182416               -0.24867441               -0.22666297
               7.83445961                7.88272746               99.15503270                0.99611866                0.02778664                0.02807627                0.05626925                0.15359554               -0.15396749               -0.15480222
               8.83443207                7.87910877               99.15910489                0.59304956               -0.00606147               -0.01490459                0.05998581                0.06298985               -0.05019587               -0.03605717
               9.83433838                7.87497705               99.16377354                0.70642390               -0.00936869               -0.01411486                0.01944210                0.02477660               -0.02123669                0.04695202
              -0.15837929                8.91562280               99.09867672                0.60621570               -0.04231235               -0.01868041                0.07551973                0.00028656                0.00435924               -0.05544923
               0.84119758                8.91100052               99.10689145                0.38342334               -0.11280771               -0.03167340                0.15936760               -0.01149273               -0.01846561                0.00209005
               1.83936455                8.90619122               99.11475186                0.67504176               -0.08692067               -0.02421443                0.22179995               -0.06872306               -0.08336200                0.07335615
               2.83945917                8.90183955               99.11985488                0.69825504                0.00254271               -0.02790372                0.09882698               -0.02646667               -0.10459703               -0.00312609
               3.83941541                8.89754816               99.12766411                0.78252201               -0.01102951               -0.01779839                0.08134711               -0.02915804                0.03356238               -0.02522451
               4.83923858                8.89326654               99.13672365                0.91180888               -0.01854033               -0.00648149                0.10122481               -0.06382957                0.09098618               -0.10050972
               5.83904460                8.88895142               99.14609862                0.99149734               -0.01845709                0.00528699                0.06246886                0.09224572                0.03396229               -0.30147236
               6.83886944                8.88559813               99.15329324                0.91956883               -0.02143934                0.02313072                0.09241423                0.11931694               -0.03239086               -0.15266223
               7.83861581                8.88270082               99.15877345                0.59738747               -0.01507336               -0.00604703                0.06034803                0.06336489               -0.03618558               -0.05085844
               8.83856797                8.87906194               99.16428978                0.32537730               -0.00474657               -0.00475513                0.04279422                0.00225628               -0.00490433               -0.00475592
               9.83852088                8.87494534               99.16979809                0.82628354               -0.00470889                0.08431992                0.10275385                0.06999817               -0.01809877                0.35222586
              -0.15368198                9.91541407               99.10147348                0.78758619               -0.04936993               -0.02087295                0.07511201               -0.00895134                0.00233243               -0.03517418
               0.84582432                9.91062725               99.10994445                0.75056880               -0.14173028               -0.03732768                0.15884846               -0.01091894               -0.03141795                0.00518073
               1.84348341                9.90594222               99.11776541                0.83367110               -0.11279975               -0.02489932                0.14396894               -0.04527982               -0.11683949                0.03508302
               2.84356832                9.90148393               99.12253084                0.85673825                0.00195162               -0.03556208                0.09012751               -0.01825105               -0.13639432                0.01920575
               3.84352244                9.89735890               99.13004144                0.89923130               -0.01468105               -0.01892654                0.05582719               -0.01051758                0.01241305                0.00531948
               4.84327470                9.89305951               99.13889423                0.97771730               -0.02690910               -0.02070275                0.06061413               -0.01249587                0.06530917               -0.00376181
               5.84298426                9.88903674               99.14791386                0.96998426               -0.03807131                0.00853197                0.00957319                0.03127128                0.06788058               -0.05569910
               6.84251328                9.88580561               99.15634332                0.64537437               -0.03605808                0.02074823               -0.02079028                0.04287267                0.12780785               -0.06770327
               7.84226310                9.88260652               99.16311876                0.69912604               -0.01403004               -0.00943007                0.01881687                0.02513100                0.04668580               -0.02122464
               8.84223267                9.87901366               99.16947022                0.81979854                0.08542252               -0.00482798                0.10075187                0.06931684                0.35247746               -0.01728441
               9.84397155                9.87666345               99.18261459                0.80328487                0.17388761                0.17181092                0.53152637                0.31004548                0.57411570                0.57437456
              -0.19891763               -0.08810754              100.07450642                1.00000000               -0.02692859               -0.02678096                0.08660047               -0.00941872                0.01725913                0.01656230
               0.80081309               -0.09205487              100.07927399                1.00000000                0.00210359               -0.02540344                0.11677875               -0.08930417               -0.03581772                0.04885079
               1.80112445               -0.09762350              100.08270261                1.00000000                0.02818253               -0.01209792                0.07961158               -0.09889870               -0.06633141                0.01375136
               2.80137674               -0.10253077              100.08529640                1.00000000                0.01910312               -0.05263496                0.08370276               -0.07186012               -0.08062693               -0.00388121
               3.80150651               -0.10683032              100.08845279                1.00000000                0.01969425               -0.08375672                0.11701738               -0.00749570               -0.04052435               -0.05417423
               4.80177062               -0.11049303              100.09211735                1.00000000                0.02925216               -0.09565672                0.14982062               -0.01408370               -0.03025227               -0.07147979
               5.80209155               -0.11420097              100.09523502                1.00000000                0.02370419               -0.07129373                0.08441556               -0.06037789               -0.04045864               -0.00714606
               6.80224471               -0.11821433              100.09793816                1.00000000                0.00052717               -0.03017071                0.11465929               -0.07498753               -0.07738652               -0.03002561
               7.80210210               -0.12215459              100.10011640                1.00000000               -0.01836599               -0.03317624                0.09906512               -0.04735025               -0.10134736                0.04827057
               8.80187739               -0.12605281              100.10260630                1.00000000               -0.02097554               -0.04085113                0.07990343               -0.02656694               -0.05897090                0.06999670
               9.80168258               -0.12939530              100.10576656                1.00000000               -0.01948038               -0.02795560                0.08272257               -0.03727501               -0.02431254                0.04419116
              -0.19506448                0.91162465              100.07890434                1.00000000               -0.02574923                0.00214472                0.11658012               -0.09085531                0.04847667               -0.03890459
               0.80467802                0.90769109              100.08406517                1.00000000                0.02189462                0.02247263                0.15125746               -0.15795953                0.00589040                0.00591641
               1.80537341                0.90225552              100.08822523                1.00000000                0.02917634                0.04252148                0.06246499               -0.19307821               -0.00975194                0.00465814
               2.80526155                0.89694288              100.09076572                1.00000000                0.00196358               -0.05198564                0.04920832               -0.08744359               -0.08633013                0.01799523
               3.80541268                0.89233211              100.09363724                1.00000000                0.00267816               -0.06492445                0.05741238               -0.04111201               -0.02630369               -0.04662140
               4.80531511                0.88855041              100.09719273                1.00000000               -0.00321282               -0.09294573                0.11591463               -0.01051547                0.02268958               -0.08233567
               5.80534842                0.88508609              100.10116839                1.00000000                0.00782634               -0.09459751                0.15208604               -0.02053929                0.02234277               -0.06152159
               6.80547164                0.88148397              100.10446534                1.00000000                0.00997049               -0.05577208                0.07611355               -0.06537897                0.01922066               -0.02638297
               7.80554783                0.87751365              100.10806150                1.00000000               -0.01197811               -0.03385170                0.14775470               -0.09541024                0.03801785               -0.04970902
               8.80523208                0.87353868              100.11147129                1.00000000               -0.04477506                0.00983960                0.18158733               -0.05600680                0.01201525               -0.05930429
               9.80465233                0.87032514              100.11466819                1.00000000               -0.05797461                0.00796591                0.16209021               -0.00749851               -0.01962014               -0.06163344
              -0.19286763                1.91193535              100.08190615                1.00000000               -0.01093542                0.02703811                0.07896773               -0.10093565                0.01356485               -0.06954474
               0.80702302                1.90839458              100.08783236                1.00000000                0.04393602                0.02862449                0.06223221               -0.19520067                0.00454856               -0.01039205
               1.80801109                1.90322693              100.09340107                1.00000000                0.12641295                0.12564017               -0.03851579               -0.41781827               -0.01374048               -0.01469062
               2.80955128                1.89642952              100.09718862                1.00000000                0.05328237                0.05382682                0.05025475               -0.29908225                0.02072400                0.07185110
               3.80907674                1.89187119              100.10010250                1.00000000               -0.03724713               -0.04905345                0.06453211               -0.09210879               -0.02756864                0.03966851
               4.80880634                1.88764806              100.10320977                1.00000000               -0.01647679               -0.06436450                0.05546871               -0.03079234               -0.00801462               -0.03186316
               5.80874721                1.88390708              100.10648549                1.00000000               -0.01483841               -0.08637855                0.07533163               -0.00758030                0.03282806               -0.08158630
               6.80850957                1.88067023              100.11024748                1.00000000               -0.03040158               -0.10327030                0.15509278               -0.01108974                0.03614417               -0.06863867
               7.80813917                1.87716838              100.11382326                1.00000000               -0.02819022               -0.06881937                0.15370228               -0.00769133                0.03209639               -0.09227474
               8.80794576                1.87414399              100.11772120                1.00000000               -0.00897382               -0.00821514                0.05978262                0.00355844                0.02236074                0.01157778
               9.80795970                1.87076401              100.12101638                1.00000000                0.00139347               -0.02960176                0.06099817                0.01596535                0.01952721                0.01112893
              -0.19000166                2.91216541              100.08408675                1.00000000               -0.05159155                0.01622183                0.08345246               -0.07302247               -0.00398859               -0.08162802
               0.80948243                2.90826358              100.08997552                1.00000000               -0.05081187               -0.00004297                0.04948462               -0.08835700                0.01772942               -0.08691947
               1.80898211                2.90476833              100.09680368                1.00000000                0.05766100                0.05298358                0.04955890               -0.30282014                0.07126692                0.02029813
               2.81063565                2.89801942              100.10462837                1.00000000                0.16849282                0.16741084               -0.01373449               -0.56471272                0.03456493                0.02941093
               3.81235196                2.89135104              100.10797164                1.00000000                0.10138658                0.10186816               -0.01775675               -0.27751900               -0.02547408                0.09004669
               4.81266338                2.88726312              100.11075854                1.00000000               -0.00886586                0.01822141                0.04331227               -0.07971024                0.00090696                0.09713442
               5.81217464                2.88335852              100.11372771                1.00000000               -0.03374176               -0.04787529                0.05549801               -0.05336802               -0.02149354                0.02662504
               6.81198854                2.87941856              100.11659188                1.00000000               -0.01271957               -0.09012056                0.04508553               -0.00777079               -0.00800912               -0.05938807
               7.81192025                2.87613726              100.11973340                1.00000000               -0.01404656               -0.10459011                0.07515542                0.07544401                0.02266352               -0.06594143
               8.81170761                2.87337438              100.12305820                1.00000000               -0.00943361               -0.10873765                0.12094106                0.06381095                0.00078974               -0.02921012
               9.81173158                2.86973310              100.12577244                1.00000000                0.00239686               -0.11274364                0.09109097                0.01672478                0.00829311               -0.07364053
              -0.18652442                3.91225979              100.08688462                1.00000000               -0.08226149                0.01582824                0.11599837               -0.00700206               -0.05389481               -0.03778628
               0.81265296                3.90839372              100.09249298                1.00000000               -0.06383589                0.00062629                0.05734480               -0.04105469               -0.04593503               -0.02532039
               1.81219886                3.90428660              100.09936684                1.00000000               -0.04893262               -0.03813132                0.06445239               -0.09288022                0.04024518               -0.02684331
               2.81167431                3.89977773              100.10763724                1.00000000                0.10419019                0.10406833               -0.01805978               -0.28251403                0.08671453               -0.02597207
               3.81428266                3.89390855              100.11774993                1.00000000                0.17651735                0.17424316                0.06014450               -0.39738637                0.16296871                0.16123196
               4.81520466                3.88801249              100.12005553                1.00000000                0.06208702                0.09358070               -0.02194375               -0.31764905               -0.08750468                0.08933930
               5.81552440                3.88294957              100.12231853                1.00000000                0.01853764               -0.00772854                0.01881216               -0.16195228               -0.05035125                0.05494531
               6.81557541                3.87886782              100.12496631                1.00000000                0.00839169               -0.06385143                0.03809967               -0.03061597               -0.02601478                0.05696926
               7.81569224                3.87507658              100.12761048                1.00000000                0.00253670               -0.08534572                0.06453513                0.04192282               -0.00190066                0.00856776
               8.81562614                3.87196923              100.13024883                1.00000000               -0.00577465               -0.09193629                0.09529484                0.05421765               -0.00453198               -0.00974843
               9.81557674                3.86850914              100.13264778                1.00000000               -0.00493990               -0.08874395                0.06241334                0.02305108               -0.00209540               -0.01239102
              -0.18240957                4.91248197              100.09024779                1.00000000               -0.09559179                0.02608971                0.15212165               -0.01154836               -0.07315219               -0.02791673
               0.81663452                4.90827611              100.09571277                1.00000000               -0.09249729               -0.00544914                0.11617890               -0.00927877               -0.08298883                0.02464076
               1.81574049                4.90400570              100.10214475                1.00000000               -0.06355492               -0.01738349                0.05588148               -0.03077834               -0.03113956               -0.00714929
               2.81536342                4.90010078              100.11009206                1.00000000                0.02144965               -0.00827034                0.04305872               -0.08139301                0.09899543                0.00099397
               3.81616948                4.89483591              100.11979116                1.00000000                0.09529812                0.06365153               -0.02109166               -0.32119111                0.09462870               -0.08771744
               4.81726938                4.88913473              100.12686623                1.00000000                0.09553925                0.09690284               -0.00933363               -0.38650989                0.01084954                0.01294459
               5.81808027                4.88320395              100.13177514                1.00000000                0.09899196                0.08906756               -0.02332046               -0.29432418               -0.05863045                0.05793567
               6.81924922                4.87814153              100.13502924                1.00000000                0.07885161                0.17660016               -0.00288348               -0.12604025               -0.00176272                0.10669138
               7.81965730                4.87443035              100.13730145                1.00000000                0.00550915                0.22553626                0.01464840                0.04575102               -0.01332162                0.18481586
               8.81935940                4.87153565              100.13870198                1.00000000               -0.02722569                0.01315528                0.06623268                0.05700838               -0.04853955                0.04135207
               9.81911278                4.86795823              100.14097792                1.00000000               -0.02466174               -0.02416180                0.04250116                0.00340344               -0.00827679                0.03422901
              -0.17834366                5.91278158              100.09306076                1.00000000               -0.07126800                0.02205948                0.08457972               -0.05846196               -0.00704101               -0.03850738
               0.82094366                5.90828474              100.09938145                1.00000000               -0.09488605                0.00605060                0.15350652               -0.01846494               -0.06107889                0.02354711
               1.81975862                5.90393893              100.10509597                1.00000000               -0.08637075               -0.01512486                0.07543488               -0.00608468               -0.08073198                0.03329762
               2.81921624                5.89961233              100.11274374                1.00000000               -0.04668622               -0.03347439                0.05567307               -0.05367888                0.02832704               -0.02123988
               3.81882489                5.89518158              100.12172873                1.00000000               -0.00549137                0.02077342                0.01776510               -0.16631570                0.05474090               -0.05151111
               4.81910642                5.88995054              100.13150517                1.00000000                0.09031128                0.10080099               -0.02336927               -0.29725559                0.05742951               -0.05824773
               5.82063112                5.88473092              100.14080057                1.00000000                0.13608937                0.13712128               -0.00667710                0.02071384                0.10693662                0.10686222
               6.82182820                5.88239982              100.14723780                1.00000000                0.12910085                0.21403112                0.01362317                0.08343207                0.03137291                0.40652477
               7.82321313                5.87958730              100.15084699                1.00000000                0.07051155                0.23146460                0.05790441               -0.13741243               -0.18265396                0.55131297
               8.82323843                5.87223234              100.14744548                1.00000000               -0.02067337                0.08552395                0.03850917               -0.20449429               -0.26532890                0.04434126
               9.82279967                5.86802591              100.14936425                1.00000000               -0.04387661                0.03091589                0.01361956               -0.05836882               -0.05130449                0.04565195
              -0.17458512                6.91292316              100.09546482                1.00000000               -0.03070170               -0.00017557                0.11582040               -0.07363375               -0.03036254               -0.07542189
               0.82510786                6.90839712              100.10236370                1.00000000               -0.05618376                0.00932065                0.07691371               -0.06320285               -0.02658831                0.01994575
               1.82429120                6.90370320              100.10853983                1.00000000               -0.10303367               -0.03007459                0.15542707               -0.00849225               -0.06744140                0.03657330
               2.82304719                6.89943130              100.11528856                1.00000000               -0.08931277               -0.01235542                0.04583883               -0.00711843               -0.05772358               -0.00819294
               3.82250495                6.89525137              100.12403850                1.00000000               -0.06361303                0.01008410                0.03671726               -0.03124390                0.05883419               -0.02762837
               4.82177493                6.89115075              100.13447370                1.00000000                0.17701568                0.08207183               -0.00238293               -0.12876360                0.10152763               -0.00216920
               5.82604526                6.88594637              100.14692607                1.00000000                0.21432759                0.13151674                0.01364068                0.08150475                0.40270790                0.02920760
               6.82606148                6.88242215              100.15077897                1.00000000                0.05156362                0.05240428                0.01001260                0.08723550               -0.11227415               -0.11206387
               7.82707654                6.87905964              100.15261646                1.00000000                0.03847163               -0.03803233               -0.00430262               -0.10772465               -0.05312931               -0.08514773
               8.82683091                6.87324613              100.15418265                1.00000000               -0.03591314                0.08437313                0.02338352               -0.18404310               -0.04338071               -0.00786052
               9.82635827                6.86857654              100.15720255                1.00000000               -0.04726406                0.05106841               -0.01155140               -0.11385266               -0.03837513                0.06733403
              -0.17076425                7.91277807              100.09732711                1.00000000               -0.03361875               -0.01867028                0.10028372               -0.04698531                0.04858840               -0.10031862
               0.82889956                7.90847115              100.10564498                1.00000000               -0.03405751               -0.01205769                0.14935655               -0.09322880               -0.04902524                0.03823027
               1.82855460                7.90333744              100.11179267                1.00000000               -0.06869284               -0.02830254                0.15442577               -0.00488885               -0.09212905                0.03264560
               2.82752570                7.89936522              100.11808702                1.00000000               -0.10370188               -0.01362737                0.07516920                0.07650687               -0.06572901                0.02138112
               3.82648056                7.89538327              100.12633589                1.00000000               -0.08447796                0.00413067                0.06361660                0.04299361                0.00924986               -0.00484639
               4.82583614                7.89159198              100.13637607                1.00000000                0.22546250                0.00735607                0.01414509                0.04580237                0.17995040               -0.01382401
               5.83098981                7.88736126              100.15017171                1.00000000                0.23117510                0.07226682                0.05754540               -0.13856004                0.54725868               -0.17939562
               6.83045965                7.88344791              100.15228351                1.00000000               -0.03775728                0.03866413               -0.00434416               -0.10808344               -0.08508766               -0.05198841
               7.83023466                7.87882666              100.15530334                1.00000000               -0.02094879               -0.02129907                0.02706374               -0.17544124               -0.06086682               -0.06162746
               8.83004067                7.87391980              100.15951607                1.00000000               -0.01864358                0.03967646                0.04111836               -0.16992724               -0.00365107                0.00698103
               9.82986179                7.86904727              100.16401312                1.00000000               -0.01788777                0.00992997                0.02395745               -0.16727972                0.00204527                0.12676723
              -0.16691099                8.91254976              100.09947767                1.00000000               -0.04050973               -0.02113579                0.08009439               -0.02644537                0.06980732               -0.05900899
               0.83268391                8.90815597              100.10870744                1.00000000                0.01051745               -0.04470793                0.18159875               -0.05489590               -0.05670619                0.01133766
               1.83329936                8.90313715              100.11537088                1.00000000               -0.00762050               -0.01011305                0.06190208                0.00657756                0.01159696                0.02354290
               2.83253150                8.89915875              100.12106976                1.00000000               -0.10806501               -0.00954094                0.12148811                0.06663027               -0.03107243                0.00070471
               3.83113806                8.89533399              100.12860477                1.00000000               -0.09092594               -0.00533788                0.09406633                0.05538414               -0.01164597               -0.00493473
               4.83071298                8.89129787              100.13739154                1.00000000                0.01400372               -0.02751560                0.06678863                0.05674573                0.04108373               -0.04961232
               5.83141813                8.88739171              100.14647764                1.00000000                0.08607147               -0.02044087                0.03790186               -0.20545038                0.04424543               -0.26208828
               6.83243441                8.88319544              100.15352938                1.00000000                0.08388429               -0.03637177                0.02361421               -0.18348659               -0.00810862               -0.04302660
               7.83309582                8.87863366              100.15918551                1.00000000                0.03886685               -0.01833353                0.04120670               -0.16886559                0.00654138               -0.00445098
               8.83321175                8.87403966              100.16470020                1.00000000               -0.01690439               -0.01618051                0.04104152               -0.20773849                0.08497465                0.08346418
               9.83275773                8.86877514              100.17159745                1.00000000               -0.04540191               -0.12959053                0.17993523               -0.34870972                0.11340971                0.47357663
              -0.16250558                9.91235535              100.10229301                1.00000000               -0.02801748               -0.01944036                0.08195347               -0.03729517                0.04442384               -0.02433656
               0.83721425                9.90757699              100.11156085                1.00000000                0.00944732               -0.05789746                0.16163981               -0.00797537               -0.05707533               -0.01968396
               1.83768337                9.90313518              100.11837165                1.00000000               -0.02763864               -0.00019713                0.06062424                0.01827110                0.01508943                0.01937284
               2.83666147                9.89917440              100.12346273                1.00000000               -0.11171243                0.00156520                0.09318834                0.02006328               -0.07599033                0.00834308
               3.83544912                9.89527651              100.13066555                1.00000000               -0.08740686               -0.00574797                0.06241093                0.02446931               -0.01441101               -0.00216129
               4.83491334                9.89104167              100.13932116                1.00000000               -0.02329406               -0.02562029                0.04269244                0.00383170                0.03305403               -0.00882223
               5.83498324                9.88695244              100.14804936                1.00000000                0.03173146               -0.04392704                0.01354935               -0.05954946                0.04525813               -0.05125756
               6.83554796                9.88272047              100.15622837                1.00000000                0.05149451               -0.04749627               -0.01149527               -0.11326768                0.06843287               -0.03861523
               7.83601313                9.87845999              100.16334864                1.00000000                0.00982264               -0.01736748                0.02298788               -0.16448346                0.12508005                0.00165903
               8.83574442                9.87359619              100.17122992                1.00000000               -0.12982460               -0.04434714                0.17597006               -0.34695947                0.47499469                0.11122467
               9.83341663                9.86645546              100.18582504                1.00000000               -0.23277825               -0.23196799                0.32104534               -0.64818241                0.40402105                0.40196106
         1          2         13         12        122        123        134        133  
         2          3         14         13        123        124        135        134  
         3          4         15         14        124        125        136        135  
         4          5         16         15        125        126        137        136  
         5          6         17         16        126        127        138        137  
         6          7         18         17        127        128        139        138  
         7          8         19         18        128        129        140        139  
         8          9         20         19        129        130        141        140  
         9         10         21         20        130        131        142        141  
        10         11         22         21        131        132        143        142  
        12         13         24         23        133        134        145        144  
        13         14         25         24        134        135        146        145  
        14         15         26         25        135        136        147        146  
        15         16         27         26        136        137        148        147  
        16         17         28         27        137        138        149        148  
        17         18         29         28        138        139        150        149  
        18         19         30         29        139        140        151        150  
        19         20         31         30        140        141        152        151  
        20         21         32         31        141        142        153        152  
        21         22         33         32        142        143        154        153  
        23         24         35         34        144        145        156        155  
        24         25         36         35        145        146        157        156  
        25         26         37         36        146        147        158        157  
        26         27         38         37        147        148        159        158  
        27         28         39         38        148        149        160        159  
        28         29         40         39        149        150        161        160  
        29         30         41         40        150        151        162        161  
        30         31         42         41        151        152        163        162  
        31         32         43         42        152        153        164        163  
        32         33         44         43        153        154        165        164  
        34         35         46         45        155        156        167        166  
        35         36         47         46        156        157        168        167  
        36         37         48         47        157        158        169        168  
        37         38         49         48        158        159        170        169  
        38         39         50         49        159        160        171        170  
        39         40         51         50        160        161        172        171  
        40         41         52         51        161        162        173        172  
        41         42         53         52        162        163        174        173  
        42         43         54         53        163        164        175        174  
        43         44         55         54        164        165        176        175  
        45         46         57         56        166        167        178        177  
        46         47         58         57        167        168        179        178  
        47         48         59         58        168        169        180        179  
        48         49         60         59        169        170        181        180  
        49         50         61         60        170        171        182        181  
        50         51         62         61        171        172        183        182  
        51         52         63         62        172        173        184        183  
        52         53         64         63        173        174        185        184  
        53         54         65         64        174        175        186        185  
        54         55         66         65        175        176        187        186  
        56         57         68         67        177        178        189        188  
        57         58         69         68        178        179        190        189  
        58         59         70         69        179        180        191        190  
        59         60         71         70        180        181        192        191  
        60         61         72         71        181        182        193        192  
        61         62         73         72        182        183        194        193  
        62         63         74         73        183        184        195        194  
        63         64         75         74        184        185        196        195  
        64         65         76         75        185        186        197        196  
        65         66         77         76        186        187        198        197  
        67         68         79         78        188        189        200        199  
        68         69         80         79        189        190        201        200  
        69         70         81         80        190        191        202        201  
        70         71         82         81        191        192        203        202  
        71         72         83         82        192        193        204        203  
        72         73         84         83        193        194        205        204  
        73         74         85         84        194        195        206        205  
        74         75         86         85        195        196        207        206  
        75         76         87         86        196        197        208        207  
        76         77         88         87        197        198        209        208  
        78         79         90         89        199        200        211        210  
        79         80         91         90        200        201        212        211  
        80         81         92         91        201        202        213        212  
        81         82         93         92        202        203        214        213  
        82         83         94         93        203        204        215        214  
        83         84         95         94        204        205        216        215  
        84         85         96         95        205        206        217        216  
        85         86         97         96        206        207        218        217  
        86         87         98         97        207        208        219        218  
        87         88         99         98        208        209        220        219  
        89         90        101        100        210        211        222        221  
        90         91        102        101        211        212        223        222  
        91         92        103        102        212        213        224        223  
        92         93        104        103        213        214        225        224  
        93         94        105        104        214        215        226        225  
        94         95        106        105        215        216        227        226  
        95         96        107        106        216        217        228        227  
        96         97        108        107        217        218        229        228  
        97         98        109        108        218        219        230        229  
        98         99        110        109        219        220        231        230  
       100        101        112        111        221        222        233        232  
       101        102        113        112        222        223        234        233  
       102        103        114        113        223        224        235        234  
       103        104        115        114        224        225        236        235  
       104        105        116        115        225        226        237        236  
       105        106        117        116        226        227        238        237  
       106        107        118        117        227        228        239        238  
       107        108        119        118        228        229        240        239  
       108        109        120        119        229        230        241        240  
       109        110        121        120        230        231        242        241  
       122        123        134        133        243        244        255        254  
       123        124        135        134        244        245        256        255  
       124        125        136        135        245        246        257        256  
       125        126        137        136        246        247        258        257  
       126        127        138        137        247        248        259        258  
       127        128        139        138        248        249        260        259  
       128        129        140        139        249        250        261        260  
       129        130        141        140        250        251        262        261  
       130        131        142        141        251        252        263        262  
       131        132        143        142        252        253        264        263  
       133        134        145        144        254        255        266        265  
       134        135        146        145        255        256        267        266  
       135        136        147        146        256        257        268        267  
       136        137        148        147        257        258        269        268  
       137        138        149        148        258        259        270        269  
       138        139        150        149        259        260        271        270  
       139        140        151        150        260        261        272        271  
       140        141        152        151        261        262        273        272  
       141        142        153        152        262        263        274        273  
       142        143        154        153        263        264        275        274  
       144        145        156        155        265        266        277        276  
       145        146        157        156        266        267        278        277  
       146        147        158        157        267        268        279        278  
       147        148        159        158        268        269        280        279  
       148        149        160        159        269        270        281        280  
       149        150        161        160        270        271        282        281  
       150        151        162        161        271        272        283        282  
       151        152        163        162        272        273        284        283  
       152        153        164        163        273        274        285        284  
       153        154        165        164        274        275        286        285  
       155        156        167        166        276        277        288        287  
       156        157        168        167        277        278        289        288  
       157        158        169        168        278        279        290        289  
       158        159        170        169        279        280        291        290  
       159        160        171        170        280        281        292        291  
       160        161        172        171        281        282        293        292  
       161        162        173        172        282        283        294        293  
       162        163        174        173        283        284        295        294  
       163        164        175        174        284        285        296        295  
       164        165        176        175        285        286        297        296  
       166        167        178        177        287        288        299        298  
       167        168        179        178        288        289        300        299  
       168        169        180        179        289        290        301        300  
       169        170        181        180        290        291        302        301  
       170        171        182        181        291        292        303        302  
       171        172        183        182        292        293        304        303  
       172        173        184        183        293        294        305        304  
       173        174        185        184        294        295        306        305  
       174        175        186        185        295        296        307        306  
       175        176        187        186        296        297        308        307  
       177        178        189        188        298        299        310        309  
       178        179        190        189        299        300        311        310  
       179        180        191        190        300        301        312        311  
       180        181        192        191        301        302        313        312  
       181        182        193        192        302        303        314        313  
       182        183        194        193        303        304        315        314  
       183        184        195        194        304        305        316        315  
       184        185        196        195        305        306        317        316  
       185        186        197        196        306        307        318        317  
       186        187        198        197        307        308        319        318  
       188        189        200        199        309        310        321        320  
       189        190        201        200        310        311        322        321  
       190        191        202        201        311        312        323        322  
       191        192        203        202        312        313        324        323  
       192        193        204        203        313        314        325        324  
       193        194        205        204        314        315        326        325  
       194        195        206        205        315        316        327        326  
       195        196        207        206        316        317        328        327  
       196        197        208        207        317        318        329        328  
       197        198        209        208        318        319        330        329  
       199        200        211        210        320        321        332        331  
       200        201        212        211        321        322        333        332  
       201        202        213        212        322        323        334        333  
       202        203        214        213        323        324        335        334  
       203        204        215        214        324        325        336        335  
       204        205        216        215        325        326        337        336  
       205        206        217        216        326        327        338        337  
       206        207        218        217        327        328        339        338  
       207        208        219        218        328        329        340        339  
       208        209        220        219        329        330        341        340  
       210        211        222        221        331        332        343        342  
       211        212        223        222        332        333        344        343  
       212        213        224        223        333        334        345        344  
       213        214        225        224        334        335        346        345  
       214        215        226        225        335        336        347        346  
       215        216        227        226        336        337        348        347  
       216        217        228        227        337        338        349        348  
       217        218        229        228        338        339        350        349  
       218        219        230        229        339        340        351        350  
       219        220        231        230        340        341        352        351  
       221        222        233        232        342        343        354        353  
       222        223        234        233        343        344        355        354  
       223        224        235        234        344        345        356        355  
       224        225        236        235        345        346        357        356  
       225        226        237        236        346        347        358        357  
       226        227        238        237        347        348        359        358  
       227        228        239        238        348        349        360        359  
       228        229        240        239        349        350        361        360  
       229        230        241        240        350        351        362        361  
       230        231        242        241        351        352        363        362  
       243        244        255        254        364        365        376        375  
       244        245        256        255        365        366        377        376  
       245        246        257        256        366        367        378        377  
       246        247        258        257        367        368        379        378  
       247        248        259        258        368        369        380        379  
       248        249        260        259        369        370        381        380  
       249        250        261        260        370        371        382        381  
       250        251        262        261        371        372        383        382  
       251        252        263        262        372        373        384        383  
       252        253        264        263        373        374        385        384  
       254        255        266        265        375        376        387        386  
       255        256        267        266        376        377        388        387  
       256        257        268        267        377        378        389        388  
       257        258        269        268        378        379        390        389  
       258        259        270        269        379        380        391        390  
       259        260        271        270        380        381        392        391  
       260        261        272        271        381        382        393        392  
       261        262        273        272        382        383        394        393  
       262        263        274        273        383        384        395        394  
       263        264        275        274        384        385        396        395  
       265        266        277        276        386        387        398        397  
       266        267        278        277        387        388        399        398  
       267        268        279        278        388        389        400        399  
       268        269        280        279        389        390        401        400  
       269        270        281        280        390        391        402        401  
       270        271        282        281        391        392        403        402  
       271        272        283        282        392        393        404        403  
       272        273        284        283        393        394        405        404  
       273        274        285        284        394        395        406        405  
       274        275        286        285        395        396        407        406  
       276        277        288        287        397        398        409        408  
       277        278        289        288        398        399        410        409  
       278        279        290        289        399        400        411        410  
       279        280        291        290        400        401        412        411  
       280        281        292        291        401        402        413        412  
       281        282        293        292        402        403        414        413  
       282        283        294        293        403        404        415        414  
       283        284        295        294        404        405        416        415  
       284        285        296        295        405        406        417        416  
       285        286        297        296        406        407        418        417  
       287        288        299        298        408        409        420        419  
       288        289        300        299        409        410        421        420  
       289        290        301        300        410        411        422        421  
       290        291        302        301        411        412        423        422  
       291        292        303        302        412        413        424        423  
       292        293        304        303        413        414        425        424  
       293        294        305        304        414        415        426        425  
       294        295        306        305        415        416        427        426  
       295        296        307        306        416        417        428        427  
       296        297        308        307        417        418        429        428  
       298        299        310        309        419        420        431        430  
       299        300        311        310        420        421        432        431  
       300        301        312        311        421        422        433        432  
       301        302        313        312        422        423        434        433  
       302        303        314        313        423        424        435        434  
       303        304        315        314        424        425        436        435  
       304        305        316        315        425        426        437        436  
       305        306        317        316        426        427        438        437  
       306        307        318        317        427        428        439        438  
       307        308        319        318        428        429        440        439  
       309        310        321        320        430        431        442        441  
       310        311        322        321        431        432        443        442  
       311        312        323        322        432        433        444        443  
       312        313        324        323        433        434        445        444  
       313        314        325        324        434        435        446        445  
       314        315        326        325        435        436        447        446  
       315        316        327        326        436        437        448        447  
       316        317        328        327        437        438        449        448  
       317        318        329        328        438        439        450        449  
       318        319        330        329        439        440        451        450  
       320        321        332        331        441        442        453        452  
       321        322        333        332        442        443        454        453  
       322        323        334        333        443        444        455        454  
       323        324        335        334        444        445        456        455  
       324        325        336        335        445        446        457        456  
       325        326        337        336        446        447        458        457  
       326        327        338        337        447        448        459        458  
       327        328        339        338        448        449        460        459  
       328        329        340        339        449        450        461        460  
       329        330        341        340        450        451        462        461  
       331        332        343        342        452        453        464        463  
       332        333        344        343        453        454        465        464  
       333        334        345        344        454        455        466        465  
       334        335        346        345        455        456        467        466  
       335        336        347        346        456        457        468        467  
       336        337        348        347        457        458        469        468  
       337        338        349        348        458        459        470        469  
       338        339        350        349        459        460        471        470  
       339        340        351        350        460        461        472        471  
       340        341        352        351        461        462        473        472  
       342        343        354        353        463        464        475        474  
       343        344        355        354        464        465        476        475  
       344        345        356        355        465        466        477        476  
       345        346        357        356        466        467        478        477  
       346        347        358        357        467        468        479        478  
       347        348        359        358        468        469        480        479  
       348        349        360        359        469        470        481        480  
       349        350        361        360        470        471        482        481  
       350        351        362        361        471        472        483        482  
       351        352        363        362        472        473        484        483  
       364        365        376        375        485        486        497        496  
       365        366        377        376        486        487        498        497  
       366        367        378        377        487        488        499        498  
       367        368        379        378        488        489        500        499  
       368        369        380        379        489        490        501        500  
       369        370        381        380        490        491        502        501  
       370        371        382        381        491        492        503        502  
       371        372        383        382        492        493        504        503  
       372        373        384        383        493        494        505        504  
       373        374        385        384        494        495        506        505  
       375        376        387        386        496        497        508        507  
       376        377        388        387        497        498        509        508  
       377        378        389        388        498        499        510        509  
       378        379        390        389        499        500        511        510  
       379        380        391        390        500        501        512        511  
       380        381        392        391        501        502        513        512  
       381        382        393        392        502        503        514        513  
       382        383        394        393        503        504        515        514  
       383        384        395        394        504        505        516        515  
       384        385        396        395        505        506        517        516  
       386        387        398        397        507        508        519        518  
       387        388        399        398        508        509        520        519  
       388        389        400        399        509        510        521        520  
       389        390        401        400        510        511        522        521  
       390        391        402        401        511        512        523        522  
       391        392        403        402        512        513        524        523  
       392        393        404        403        513        514        525        524  
       393        394        405        404        514        515        526        525  
       394        395        406        405        515        516        527        526  
       395        396        407        406        516        517        528        527  
       397        398        409        408        518        519        530        529  
       398        399        410        409        519        520        531        530  
       399        400        411        410        520        521        532        531  
       400        401        412        411        521        522        533        532  
       401        402        413        412        522        523        534        533  
       402        403        414        413        523        524        535        534  
       403        404        415        414        524        525        536        535  
       404        405        416        415        525        526        537        536  
       405        406        417        416        526        527        538        537  
       406        407        418        417        527        528        539        538  
       408        409        420        419        529        530        541        540  
       409        410        421        420        530        531        542        541  
       410        411        422        421        531        532        543        542  
       411        412        423        422        532        533        544        543  
       412        413        424        423        533        534        545        544  
       413        414        425        424        534        535        546        545  
       414        415        426        425        535        536        547        546  
       415        416        427        426        536        537        548        547  
       416        417        428        427        537        538        549        548  
       417        418        429        428        538        539        550        549  
       419        420        431        430        540        541        552        551  
       420        421        432        431        541        542        553        552  
       421        422        433        432        542        543        554        553  
       422        423        434        433        543        544        555        554  
       423        424        435        434        544        545        556        555  
       424        425        436        435        545        546        557        556  
       425        426        437        436        546        547        558        557  
       426        427        438        437        547        548        559        558  
       427        428        439        438        548        549        560        559  
       428        429        440        439        549        550        561        560  
       430        431        442        441        551        552        563        562  
       431        432        443        442        552        553        564        563  
       432        433        444        443        553        554        565        564  
       433        434        445        444        554        555        566        565  
       434        435        446        445        555        556        567        566  
       435        436        447        446        556        557        568        567  
       436        437        448        447        557        558        569        568  
       437        438        449        448        558        559        570        569  
       438        439        450        449        559        560        571        570  
       439        440        451        450        560        561        572        571  
       441        442        453        452        562        563        574        573  
       442        443        454        453        563        564        575        574  
       443        444        455        454        564        565        576        575  
       444        445        456        455        565        566        577        576  
       445        446        457        456        566        567        578        577  
       446        447        458        457        567        568        579        578  
       447        448        459        458        568        569        580        579  
       448        449        460        459        569        570        581        580  
       449        450        461        460        570        571        582        581  
       450        451        462        461        571        572        583        582  
       452        453        464        463        573        574        585        584  
       453        454        465        464        574        575        586        585  
       454        455        466        465        575        576        587        586  
       455        456        467        466        576        577        588        587  
       456        457        468        467        577        578        589        588  
       457        458        469        468        578        579        590        589  
       458        459        470        469        579        580        591        590  
       459        460        471        470        580        581        592        591  
       460        461        472        471        581        582        593        592  
       461        462        473        472        582        583        594        593  
       463        464        475        474        584        585        596        595  
       464        465        476        475        585        586        597        596  
       465        466        477        476        586        587        598        597  
       466        467        478        477        587        588        599        598  
       467        468        479        478        588        589        600        599  
       468        469        480        479        589        590        601        600  
       469        470        481        480        590        591        602        601  
       470        471        482        481        591        592        603        602  
       471        472        483        482        592        593        604        603  
       472        473        484        483        593        594        605        604  
       485        486        497        496        606        607        618        617  
       486        487        498        497        607        608        619        618  
       487        488        499        498        608        609        620        619  
       488        489        500        499        609        610        621        620  
       489        490        501        500        610        611        622        621  
       490        491        502        501        611        612        623        622  
       491        492        503        502        612        613        624        623  
       492        493        504        503        613        614        625        624  
       493        494        505        504        614        615        626        625  
       494        495        506        505        615        616        627        626  
       496        497        508        507        617        618        629        628  
       497        498        509        508        618        619        630        629  
       498        499        510        509        619        620        631        630  
       499        500        511        510        620        621        632        631  
       500        501        512        511        621        622        633        632  
       501        502        513        512        622        623        634        633  
       502        503        514        513        623        624        635        634  
       503        504        515        514        624        625        636        635  
       504        505        516        515        625        626        637        636  
       505        506        517        516        626        627        638        637  
       507        508        519        518        628        629        640        639  
       508        509        520        519        629        630        641        640  
       509        510        521        520        630        631        642        641  
       510        511        522        521        631        632        643        642  
       511        512        523        522        632        633        644        643  
       512        513        524        523        633        634        645        644  
       513        514        525        524        634        635        646        645  
       514        515        526        525        635        636        647        646  
       515        516        527        526        636        637        648        647  
       516        517        528        527        637        638        649        648  
       518        519        530        529        639        640        651        650  
       519        520        531        530        640        641        652        651  
       520        521        532        531        641        642        653        652  
       521        522        533        532        642        643        654        653  
       522        523        534        533        643        644        655        654  
       523        524        535        534        644        645        656        655  
       524        525        536        535        645        646        657        656  
       525        526        537        536        646        647        658        657  
       526        527        538        537        647        648        659        658  
       527        528        539        538        648        649        660        659  
       529        530        541        540        650        651        662        661  
       530        531        542        541        651        652        663        662  
       531        532        543        542        652        653        664        663  
       532        533        544        543        653        654        665        664  
       533        534        545        544        654        655        666        665  
       534        535        546        545        655        656        667        666  
       535        536        547        546        656        657        668        667  
       536        537        548        547        657        658        669        668  
       537        538        549        548        658        659        670        669  
       538        539        550        549        659        660        671        670  
       540        541        552        551        661        662        673        672  
       541        542        553        552        662        663        674        673  
       542        543        554        553        663        664        675        674  
       543        544        555        554        664        665        676        675  
       544        545        556        555        665        666        677        676  
       545        546        557        556        666        667        678        677  
       546        547        558        557        667        668        679        678  
       547        548        559        558        668        669        680        679  
       548        549        560        559        669        670        681        680  
       549        550        561        560        670        671        682        681  
       551        552        563        562        672        673        684        683  
       552        553        564        563        673        674        685        684  
       553        554        565        564        674        675        686        685  
       554        555        566        565        675        676        687        686  
       555        556        567        566        676        677        688        687  
       556        557        568        567        677        678        689        688  
       557        558        569        568        678        679        690        689  
       558        559        570        569        679        680        691        690  
       559        560        571        570        680        681        692        691  
       560        561        572        571        681        682        693        692  
       562        563        574        573        683        684        695        694  
       563        564        575        574        684        685        696        695  
       564        565        576        575        685        686        697        696  
       565        566        577        576        686        687        698        697  
       566        567        578        577        687        688        699        698  
       567        568        579        578        688        689        700        699  
       568        569        580        579        689        690        701        700  
       569        570        581        580        690        691        702        701  
       570        571        582        581        691        692        703        702  
       571        572        583        582        692        693        704        703  
       573        574        585        584        694        695        706        705  
       574        575        586        585        695        696        707        706  
       575        576        587        586        696        697        708        707  
       576        577        588        587        697        698        709        708  
       577        578        589        588        698        699        710        709  
       578        579        590        589        699        700        711        710  
       579        580        591        590        700        701        712        711  
       580        581        592        591        701        702        713        712  
       581        582        593        592        702        703        714        713  
       582        583        594        593        703        704        715        714  
       584        585        596        595        705        706        717        716  
       585        586        597        596        706        707        718        717  
       586        587        598        597        707        708        719        718  
       587        588        599        598        708        709        720        719  
       588        589        600        599        709        710        721        720  
       589        590        601        600        710        711        722        721  
       590        591        602        601        711        712        723        722  
       591        592        603        602        712        713        724        723  
       592        593        604        603        713        714        725        724  
       593        594        605        604        714        715        726        725  
       606        607        618        617        727        728        739        738  
       607        608        619        618        728        729        740        739  
       608        609        620        619        729        730        741        740  
       609        610        621        620        730        731        742        741  
       610        611        622        621        731        732        743        742  
       611        612        623        622        732        733        744        743  
       612        613        624        623        733        734        745        744  
       613        614        625        624        734        735        746        745  
       614        615        626        625        735        736        747        746  
       615        616        627        626        736        737        748        747  
       617        618        629        628        738        739        750        749  
       618        619        630        629        739        740        751        750  
       619        620        631        630        740        741        752        751  
       620        621        632        631        741        742        753        752  
       621        622        633        632        742        743        754        753  
       622        623        634        633        743        744        755        754  
       623        624        635        634        744        745        756        755  
       624        625        636        635        745        746        757        756  
       625        626        637        636        746        747        758        757  
       626        627        638        637        747        748        759        758  
       628        629        640        639        749        750        761        760  
       629        630        641        640        750        751        762        761  
       630        631        642        641        751        752        763        762  
       631        632        643        642        752        753        764        763  
       632        633        644        643        753        754        765        764  
       633        634        645        644        754        755        766        765  
       634        635        646        645        755        756        767        766  
       635        636        647        646        756        757        768        767  
       636        637        648        647        757        758        769        768  
       637        638        649        648        758        759        770        769  
       639        640        651        650        760        761        772        771  
       640        641        652        651        761        762        773        772  
       641        642        653        652        762        763        774        773  
       642        643        654        653        763        764        775        774  
       643        644        655        654        764        765        776        775  
       644        645        656        655        765        766        777        776  
       645        646        657        656        766        767        778        777  
       646        647        658        657        767        768        779        778  
       647        648        659        658        768        769        780        779  
       648        649        660        659        769        770        781        780  
       650        651        662        661        771        772        783        782  
       651        652        663        662        772        773        784        783  
       652        653        664        663        773        774        785        784  
       653        654        665        664        774        775        786        785  
       654        655        666        665        775        776        787        786  
       655        656        667        666        776        777        788        787  
       656        657        668        667        777        778        789        788  
       657        658        669        668        778        779        790        789  
       658        659        670        669        779        780        791        790  
       659        660        671        670        780        781        792        791  
       661        662        673        672        782        783        794        793  
       662        663        674        673        783        784        795        794  
       663        664        675        674        784        785        796        795  
       664        665        676        675        785        786        797        796  
       665        666        677        676        786        787        798        797  
       666        667        678        677        787        788        799        798  
       667        668        679        678        788        789        800        799  
       668        669        680        679        789        790        801        800  
       669        670        681        680        790        791        802        801  
       670        671        682        681        791        792        803        802  
       672        673        684        683        793        794        805        804  
       673        674        685        684        794        795        806        805  
       674        675        686        685        795        796        807        806  
       675        676        687        686        796        797        808        807  
       676        677        688        687        797        798        809        808  
       677        678        689        688        798        799        810        809  
       678        679        690        689        799        800        811        810  
       679        680        691        690        800        801        812        811  
       680        681        692        691        801        802        813        812  
       681        682        693        692        802        803        814        813  
       683        684        695        694        804        805        816        815  
       684        685        696        695        805        806        817        816  
       685        686        697        696        806        807        818        817  
       686        687        698        697        807        808        819        818  
       687        688        699        698        808        809        820        819  
       688        689        700        699        809        810        821        820  
       689        690        701        700        810        811        822        821  
       690        691        702        701        811        812        823        822  
       691        692        703        702        812        813        824        823  
       692        693        704        703        813        814        825        824  
       694        695        706        705        815        816        827        826  
       695        696        707        706        816        817        828        827  
       696        697        708        707        817        818        829        828  
       697        698        709        708        818        819        830        829  
       698        699        710        709        819        820        831        830  
       699        700        711        710        820        821        832        831  
       700        701        712        711        821        822        833        832  
       701        702        713        712        822        823        834        833  
       702        703        714        713        823        824        835        834  
       703        704        715        714        824        825        836        835  
       705        706        717        716        826        827        838        837  
       706        707        718        717        827        828        839        838  
       707        708        719        718        828        829        840        839  
       708        709        720        719        829        830        841        840  
       709        710        721        720        830        831        842        841  
       710        711        722        721        831        832        843        842  
       711        712        723        722        832        833        844        843  
       712        713        724        723        833        834        845        844  
       713        714        725        724        834        835        846        845  
       714        715        726        725        835        836        847        846  
       727        728        739        738        848        849        860        859  
       728        729        740        739        849        850        861        860  
       729        730        741        740        850        851        862        861  
       730        731        742        741        851        852        863        862  
       731        732        743        742        852        853        864        863  
       732        733        744        743        853        854        865        864  
       733        734        745        744        854        855        866        865  
       734        735        746        745        855        856        867        866  
       735        736        747        746        856        857        868        867  
       736        737        748        747        857        858        869        868  
       738        739        750        749        859        860        871        870  
       739        740        751        750        860        861        872        871  
       740        741        752        751        861        862        873        872  
       741        742        753        752        862        863        874        873  
       742        743        754        753        863        864        875        874  
       743        744        755        754        864        865        876        875  
       744        745        756        755        865        866        877        876  
       745        746        757        756        866        867        878        877  
       746        747        758        757        867        868        879        878  
       747        748        759        758        868        869        880        879  
       749        750        761        760        870        871        882        881  
       750        751        762        761        871        872        883        882  
       751        752        763        762        872        873        884        883  
       752        753        764        763        873        874        885        884  
       753        754        765        764        874        875        886        885  
       754        755        766        765        875        876        887        886  
       755        756        767        766        876        877        888        887  
       756        757        768        767        877        878        889        888  
       757        758        769        768        878        879        890        889  
       758        759        770        769        879        880        891        890  
       760        761        772        771        881        882        893        892  
       761        762        773        772        882        883        894        893  
       762        763        774        773        883        884        895        894  
       763        764        775        774        884        885        896        895  
       764        765        776        775        885        886        897        896  
       765        766        777        776        886        887        898        897  
       766        767        778        777        887        888        899        898  
       767        768        779        778        888        889        900        899  
       768        769        780        779        889        890        901        900  
       769        770        781        780        890        891        902        901  
       771        772        783        782        892        893        904        903  
       772        773        784        783        893        894        905        904  
       773        774        785        784        894        895        906        905  
       774        775        786        785        895        896        907        906  
       775        776        787        786        896        897        908        907  
       776        777        788        787        897        898        909        908  
       777        778        789        788        898        899        910        909  
       778        779        790        789        899        900        911        910  
       779        780        791        790        900        901        912        911  
       780        781        792        791        901        902        913        912  
       782        783        794        793        903        904        915        914  
       783        784        795        794        904        905        916        915  
       784        785        796        795        905        906        917        916  
       785        786        797        796        906        907        918        917  
       786        787        798        797        907        908        919        918  
       787        788        799        798        908        909        920        919  
       788        789        800        799        909        910        921        920  
       789        790        801        800        910        911        922        921  
       790        791        802        801        911        912        923        922  
       791        792        803        802        912        913        924        923  
       793        794        805        804        914        915        926        925  
       794        795        806        805        915        916        927        926  
       795        796        807        806        916        917        928        927  
       796        797        808        807        917        918        929        928  
       797        798        809        808        918        919        930        929  
       798        799        810        809        919        920        931        930  
       799        800        811        810        920        921        932        931  
       800        801        812        811        921        922        933        932  
       801        802        813        812        922        923        934        933  
       802        803        814        813        923        924        935        934  
       804        805        816        815        925        926        937        936  
       805        806        817        816        926        927        938        937  
       806        807        818        817        927        928        939        938  
       807        808        819        818        928        929        940        939  
       808        809        820        819        929        930        941        940  
       809        810        821        820        930        931        942        941  
       810        811        822        821        931        932        943        942  
       811        812        823        822        932        933        944        943  
       812        813        824        823        933        934        945        944  
       813        814        825        824        934        935        946        945  
       815        816        827        826        936        937        948        947  
       816        817        828        827        937        938        949        948  
       817        818        829        828        938        939        950        949  
       818        819        830        829        939        940        951        950  
       819        820        831        830        940        941        952        951  
       820        821        832        831        941        942        953        952  
       821        822        833        832        942        943        954        953  
       822        823        834        833        943        944        955        954  
       823        824        835        834        944        945        956        955  
       824        825        836        835        945        946        957        956  
       826        827        838        837        947        948        959        958  
       827        828        839        838        948        949        960        959  
       828        829        840        839        949        950        961        960  
       829        830        841        840        950        951        962        961  
       830        831        842        841        951        952        963        962  
       831        832        843        842        952        953        964        963  
       832        833        844        843        953        954        965        964  
       833        834        845        844        954        955        966        965  
       834        835        846        845        955        956        967        966  
       835        836        847        846        956        957        968        967  
       848        849        860        859        969        970        981        980  
       849        850        861        860        970        971        982        981  
       850        851        862        861        971        972        983        982  
       851        852        863        862        972        973        984        983  
       852        853        864        863        973        974        985        984  
       853        854        865        864        974        975        986        985  
       854        855        866        865        975        976        987        986  
       855        856        867        866        976        977        988        987  
       856        857        868        867        977        978        989        988  
       857        858        869        868        978        979        990        989  
       859        860        871        870        980        981        992        991  
       860        861        872        871        981        982        993        992  
       861        862        873        872        982        983        994        993  
       862        863        874        873        983        984        995        994  
       863        864        875        874        984        985        996        995  
       864        865        876        875        985        986        997        996  
       865        866        877        876        986        987        998        997  
       866        867        878        877        987        988        999        998  
       867        868        879        878        988        989       1000        999  
       868        869        880        879        989        990       1001       1000  
       870        871        882        881        991        992       1003       1002  
       871        872        883        882        992        993       1004       1003  
       872        873        884        883        993        994       1005       1004  
       873        874        885        884        994        995       1006       1005  
       874        875        886        885        995        996       1007       1006  
       875        876        887        886        996        997       1008       1007  
       876        877        888        887        997        998       1009       1008  
       877        878        889        888        998        999       1010       1009  
       878        879        890        889        999       1000       1011       1010  
       879        880        891        890       1000       1001       1012       1011  
       881        882        893        892       1002       1003       1014       1013  
       882        883        894        893       1003       1004       1015       1014  
       883        884        895        894       1004       1005       1016       1015  
       884        885        896        895       1005       1006       1017       1016  
       885        886        897        896       1006       1007       1018       1017  
       886        887        898        897       1007       1008       1019       1018  
       887        888        899        898       1008       1009       1020       1019  
       888        889        900        899       1009       1010       1021       1020  
       889        890        901        900       1010       1011       1022       1021  
       890        891        902        901       1011       1012       1023       1022  
       892        893        904        903       1013       1014       1025       1024  
       893        894        905        904       1014       1015       1026       1025  
       894        895        906        905       1015       1016       1027       1026  
       895        896        907        906       1016       1017       1028       1027  
       896        897        908        907       1017       1018       1029       1028  
       897        898        909        908       1018       1019       1030       1029  
       898        899        910        909       1019       1020       1031       1030  
       899        900        911        910       1020       1021       1032       1031  
       900        901        912        911       1021       1022       1033       1032  
       901        902        913        912       1022       1023       1034       1033  
       903        904        915        914       1024       1025       1036       1035  
       904        905        916        915       1025       1026       1037       1036  
       905        906        917        916       1026       1027       1038       1037  
       906        907        918        917       1027       1028       1039       1038  
       907        908        919        918       1028       1029       1040       1039  
       908        909        920        919       1029       1030       1041       1040  
       909        910        921        920       1030       1031       1042       1041  
       910        911        922        921       1031       1032       1043       1042  
       911        912        923        922       1032       1033       1044       1043  
       912        913        924        923       1033       1034       1045       1044  
       914        915        926        925       1035       1036       1047       1046  
       915        916        927        926       1036       1037       1048       1047  
       916        917        928        927       1037       1038       1049       1048  
       917        918        929        928       1038       1039       1050       1049  
       918        919        930        929       1039       1040       1051       1050  
       919        920        931        930       1040       1041       1052       1051  
       920        921        932        931       1041       1042       1053       1052  
       921        922        933        932       1042       1043       1054       1053  
       922        923        934        933       1043       1044       1055       1054  
       923        924        935        934       1044       1045       1056       1055  
       925        926        937        936       1046       1047       1058       1057  
       926        927        938        937       1047       1048       1059       1058  
       927        928        939        938       1048       1049       1060       1059  
       928        929        940        939       1049       1050       1061       1060  
       929        930        941        940       1050       1051       1062       1061  
       930        931        942        941       1051       1052       1063       1062  
       931        932        943        942       1052       1053       1064       1063  
       932        933        944        943       1053       1054       1065       1064  
       933        934        945        944       1054       1055       1066       1065  
       934        935        946        945       1055       1056       1067       1066  
       936        937        948        947       1057       1058       1069       1068  
       937        938        949        948       1058       1059       1070       1069  
       938        939        950        949       1059       1060       1071       1070  
       939        940        951        950       1060       1061       1072       1071  
       940        941        952        951       1061       1062       1073       1072  
       941        942        953        952       1062       1063       1074       1073  
       942        943        954        953       1063       1064       1075       1074  
       943        944        955        954       1064       1065       1076       1075  
       944        945        956        955       1065       1066       1077       1076  
       945        946        957        956       1066       1067       1078       1077  
       947        948        959        958       1068       1069       1080       1079  
       948        949        960        959       1069       1070       1081       1080  
       949        950        961        960       1070       1071       1082       1081  
       950        951        962        961       1071       1072       1083       1082  
       951        952        963        962       1072       1073       1084       1083  
       952        953        964        963       1073       1074       1085       1084  
       953        954        965        964       1074       1075       1086       1085  
       954        955        966        965       1075       1076       1087       1086  
       955        956        967        966       1076       1077       1088       1087  
       956        957        968        967       1077       1078       1089       1088  
       969        970        981        980       1090       1091       1102       1101  
       970        971        982        981       1091       1092       1103       1102  
       971        972        983        982       1092       1093       1104       1103  
       972        973        984        983       1093       1094       1105       1104  
       973        974        985        984       1094       1095       1106       1105  
       974        975        986        985       1095       1096       1107       1106  
       975        976        987        986       1096       1097       1108       1107  
       976        977        988        987       1097       1098       1109       1108  
       977        978        989        988       1098       1099       1110       1109  
       978        979        990        989       1099       1100       1111       1110  
       980        981        992        991       1101       1102       1113       1112  
       981        982        993        992       1102       1103       1114       1113  
       982        983        994        993       1103       1104       1115       1114  
       983        984        995        994       1104       1105       1116       1115  
       984        985        996        995       1105       1106       1117       1116  
       985        986        997        996       1106       1107       1118       1117  
       986        987        998        997       1107       1108       1119       1118  
       987        988        999        998       1108       1109       1120       1119  
       988        989       1000        999       1109       1110       1121       1120  
       989        990       1001       1000       1110       1111       1122       1121  
       991        992       1003       1002       1112       1113       1124       1123  
       992        993       1004       1003       1113       1114       1125       1124  
       993        994       1005       1004       1114       1115       1126       1125  
       994        995       1006       1005       1115       1116       1127       1126  
       995        996       1007       1006       1116       1117       1128       1127  
       996        997       1008       1007       1117       1118       1129       1128  
       997        998       1009       1008       1118       1119       1130       1129  
       998        999       1010       1009       1119       1120       1131       1130  
       999       1000       1011       1010       1120       1121       1132       1131  
      1000       1001       1012       1011       1121       1122       1133       1132  
      1002       1003       1014       1013       1123       1124       1135       1134  
      1003       1004       1015       1014       1124       1125       1136       1135  
      1004       1005       1016       1015       1125       1126       1137       1136  
      1005       1006       1017       1016       1126       1127       1138       1137  
      1006       1007       1018       1017       1127       1128       1139       1138  
      1007       1008       1019       1018       1128       1129       1140       1139  
      1008       1009       1020       1019       1129       1130       1141       1140  
      1009       1010       1021       1020       1130       1131       1142       1141  
      1010       1011       1022       1021       1131       1132       1143       1142  
      1011       1012       1023       1022       1132       1133       1144       1143  
      1013       1014       1025       1024       1134       1135       1146       1145  
      1014       1015       1026       1025       1135       1136       1147       1146  
      1015       1016       1027       1026       1136       1137       1148       1147  
      1016       1017       1028       1027       1137       1138       1149       1148  
      1017       1018       1029       1028       1138       1139       1150       1149  
      1018       1019       1030       1029       1139       1140       1151       1150  
      1019       1020       1031       1030       1140       1141       1152       1151  
      1020       1021       1032       1031       1141       1142       1153       1152  
      1021       1022       1033       1032       1142       1143       1154       1153  
      1022       1023       1034       1033       1143       1144       1155       1154  
      1024       1025       1036       1035       1145       1146       1157       1156  
      1025       1026       1037       1036       1146       1147       1158       1157  
      1026       1027       1038       1037       1147       1148       1159       1158  
      1027       1028       1039       1038       1148       1149       1160       1159  
      1028       1029       1040       1039       1149       1150       1161       1160  
      1029       1030       1041       1040       1150       1151       1162       1161  
      1030       1031       1042       1041       1151       1152       1163       1162  
      1031       1032       1043       1042       1152       1153       1164       1163  
      1032       1033       1044       1043       1153       1154       1165       1164  
      1033       1034       1045       1044       1154       1155       1166       1165  
      1035       1036       1047       1046       1156       1157       1168       1167  
      1036       1037       1048       1047       1157       1158       1169       1168  
      1037       1038       1049       1048       1158       1159       1170       1169  
      1038       1039       1050       1049       1159       1160       1171       1170  
      1039       1040       1051       1050       1160       1161       1172       1171  
      1040       1041       1052       1051       1161       1162       1173       1172  
      1041       1042       1053       1052       1162       1163       1174       1173  
      1042       1043       1054       1053       1163       1164       1175       1174  
      1043       1044       1055       1054       1164       1165       1176       1175  
      1044       1045       1056       1055       1165       1166       1177       1176  
      1046       1047       1058       1057       1167       1168       1179       1178  
      1047       1048       1059       1058       1168       1169       1180       1179  
      1048       1049       1060       1059       1169       1170       1181       1180  
      1049       1050       1061       1060       1170       1171       1182       1181  
      1050       1051       1062       1061       1171       1172       1183       1182  
      1051       1052       1063       1062       1172       1173       1184       1183  
      1052       1053       1064       1063       1173       1174       1185       1184  
      1053       1054       1065       1064       1174       1175       1186       1185  
      1054       1055       1066       1065       1175       1176       1187       1186  
      1055       1056       1067       1066       1176       1177       1188       1187  
      1057       1058       1069       1068       1178       1179       1190       1189  
      1058       1059       1070       1069       1179       1180       1191       1190  
      1059       1060       1071       1070       1180       1181       1192       1191  
      1060       1061       1072       1071       1181       1182       1193       1192  
      1061       1062       1073       1072       1182       1183       1194       1193  
      1062       1063       1074       1073       1183       1184       1195       1194  
      1063       1064       1075       1074       1184       1185       1196       1195  
      1064       1065       1076       1075       1185       1186       1197       1196  
      1065       1066       1077       1076       1186       1187       1198       1197  
      1066       1067       1078       1077       1187       1188       1199       1198  
      1068       1069       1080       1079       1189       1190       1201       1200  
      1069       1070       1081       1080       1190       1191       1202       1201  
      1070       1071       1082       1081       1191       1192       1203       1202  
      1071       1072       1083       1082       1192       1193       1204       1203  
      1072       1073       1084       1083       1193       1194       1205       1204  
      1073       1074       1085       1084       1194       1195       1206       1205  
      1074       1075       1086       1085       1195       1196       1207       1206  
      1075       1076       1087       1086       1196       1197       1208       1207  
      1076       1077       1088       1087       1197       1198       1209       1208  
      1077       1078       1089       1088       1198       1199       1210       1209  
      1090       1091       1102       1101       1211       1212       1223       1222  
      1091       1092       1103       1102       1212       1213       1224       1223  
      1092       1093       1104       1103       1213       1214       1225       1224  
      1093       1094       1105       1104       1214       1215       1226       1225  
      1094       1095       1106       1105       1215       1216       1227       1226  
      1095       1096       1107       1106       1216       1217       1228       1227  
      1096       1097       1108       1107       1217       1218       1229       1228  
      1097       1098       1109       1108       1218       1219       1230       1229  
      1098       1099       1110       1109       1219       1220       1231       1230  
      1099       1100       1111       1110       1220       1221       1232       1231  
      1101       1102       1113       1112       1222       1223       1234       1233  
      1102       1103       1114       1113       1223       1224       1235       1234  
      1103       1104       1115       1114       1224       1225       1236       1235  
      1104       1105       1116       1115       1225       1226       1237       1236  
      1105       1106       1117       1116       1226       1227       1238       1237  
      1106       1107       1118       1117       1227       1228       1239       1238  
      1107       1108       1119       1118       1228       1229       1240       1239  
      1108       1109       1120       1119       1229       1230       1241       1240  
      1109       1110       1121       1120       1230       1231       1242       1241  
      1110       1111       1122       1121       1231       1232       1243       1242  
      1112       1113       1124       1123       1233       1234       1245       1244  
      1113       1114       1125       1124       1234       1235       1246       1245  
      1114       1115       1126       1125       1235       1236       1247       1246  
      1115       1116       1127       1126       1236       1237       1248       1247  
      1116       1117       1128       1127       1237       1238       1249       1248  
      1117       1118       1129       1128       1238       1239       1250       1249  
      1118       1119       1130       1129       1239       1240       1251       1250  
      1119       1120       1131       1130       1240       1241       1252       1251  
      1120       1121       1132       1131       1241       1242       1253       1252  
      1121       1122       1133       1132       1242       1243       1254       1253  
      1123       1124       1135       1134       1244       1245       1256       1255  
      1124       1125       1136       1135       1245       1246       1257       1256  
      1125       1126       1137       1136       1246       1247       1258       1257  
      1126       1127       1138       1137       1247       1248       1259       1258  
      1127       1128       1139       1138       1248       1249       1260       1259  
      1128       1129       1140       1139       1249       1250       1261       1260  
      1129       1130       1141       1140       1250       1251       1262       1261  
      1130       1131       1142       1141       1251       1252       1263       1262  
      1131       1132       1143       1142       1252       1253       1264       1263  
      1132       1133       1144       1143       1253       1254       1265       1264  
      1134       1135       1146       1145       1255       1256       1267       1266  
      1135       1136       1147       1146       1256       1257       1268       1267  
      1136       1137       1148       1147       1257       1258       1269       1268  
      1137       1138       1149       1148       1258       1259       1270       1269  
      1138       1139       1150       1149       1259       1260       1271       1270  
      1139       1140       1151       1150       1260       1261       1272       1271  
      1140       1141       1152       1151       1261       1262       1273       1272  
      1141       1142       1153       1152       1262       1263       1274       1273  
      1142       1143       1154       1153       1263       1264       1275       1274  
      1143       1144       1155       1154       1264       1265       1276       1275  
      1145       1146       1157       1156       1266       1267       1278       1277  
      1146       1147       1158       1157       1267       1268       1279       1278  
      1147       1148       1159       1158       1268       1269       1280       1279  
      1148       1149       1160       1159       1269       1270       1281       1280  
      1149       1150       1161       1160       1270       1271       1282       1281  
      1150       1151       1162       1161       1271       1272       1283       1282  
      1151       1152       1163       1162       1272       1273       1284       1283  
      1152       1153       1164       1163       1273       1274       1285       1284  
      1153       1154       1165       1164       1274       1275       1286       1285  
      1154       1155       1166       1165       1275       1276       1287       1286  
      1156       1157       1168       1167       1277       1278       1289       1288  
      1157       1158       1169       1168       1278       1279       1290       1289  
      1158       1159       1170       1169       1279       1280       1291       1290  
      1159       1160       1171       1170       1280       1281       1292       1291  
      1160       1161       1172       1171       1281       1282       1293       1292  
      1161       1162       1173       1172       1282       1283       1294       1293  
      1162       1163       1174       1173       1283       1284       1295       1294  
      1163       1164       1175       1174       1284       1285       1296       1295  
      1164       1165       1176       1175       1285       1286       1297       1296  
      1165       1166       1177       1176       1286       1287       1298       1297  
      1167       1168       1179       1178       1288       1289       1300       1299  
      1168       1169       1180       1179       1289       1290       1301       1300  
      1169       1170       1181       1180       1290       1291       1302       1301  
      1170       1171       1182       1181       1291       1292       1303       1302  
      1171       1172       1183       1182       1292       1293       1304       1303  
      1172       1173       1184       1183       1293       1294       1305       1304  
      1173       1174       1185       1184       1294       1295       1306       1305  
      1174       1175       1186       1185       1295       1296       1307       1306  
      1175       1176       1187       1186       1296       1297       1308       1307  
      1176       1177       1188       1187       1297       1298       1309       1308  
      1178       1179       1190       1189       1299       1300       1311       1310  
      1179       1180       1191       1190       1300       1301       1312       1311  
      1180       1181       1192       1191       1301       1302       1313       1312  
      1181       1182       1193       1192       1302       1303       1314       1313  
      1182       1183       1194       1193       1303       1304       1315       1314  
      1183       1184       1195       1194       1304       1305       1316       1315  
      1184       1185       1196       1195       1305       1306       1317       1316  
      1185       1186       1197       1196       1306       1307       1318       1317  
      1186       1187       1198       1197       1307       1308       1319       1318  
      1187       1188       1199       1198       1308       1309       1320       1319  
      1189       1190       1201       1200       1310       1311       1322       1321  
      1190       1191       1202       1201       1311       1312       1323       1322  
      1191       1192       1203       1202       1312       1313       1324       1323  
      1192       1193       1204       1203       1313       1314       1325       1324  
      1193       1194       1205       1204       1314       1315       1326       1325  
      1194       1195       1206       1205       1315       1316       1327       1326  
      1195       1196       1207       1206       1316       1317       1328       1327  
      1196       1197       1208       1207       1317       1318       1329       1328  
      1197       1198       1209       1208       1318       1319       1330       1329  
      1198       1199       1210       1209       1319       1320       1331       1330  
      1211       1212       1223       1222       1332       1333       1344       1343  
      1212       1213       1224       1223       1333       1334       1345       1344  
      1213       1214       1225       1224       1334       1335       1346       1345  
      1214       1215       1226       1225       1335       1336       1347       1346  
      1215       1216       1227       1226       1336       1337       1348       1347  
      1216       1217       1228       1227       1337       1338       1349       1348  
      1217       1218       1229       1228       1338       1339       1350       1349  
      1218       1219       1230       1229       1339       1340       1351       1350  
      1219       1220       1231       1230       1340       1341       1352       1351  
      1220       1221       1232       1231       1341       1342       1353       1352  
      1222       1223       1234       1233       1343       1344       1355       1354  
      1223       1224       1235       1234       1344       1345       1356       1355  
      1224       1225       1236       1235       1345       1346       1357       1356  
      1225       1226       1237       1236       1346       1347       1358       1357  
      1226       1227       1238       1237       1347       1348       1359       1358  
      1227       1228       1239       1238       1348       1349       1360       1359  
      1228       1229       1240       1239       1349       1350       1361       1360  
      1229       1230       1241       1240       1350       1351       1362       1361  
      1230       1231       1242       1241       1351       1352       1363       1362  
      1231       1232       1243       1242       1352       1353       1364       1363  
      1233       1234       1245       1244       1354       1355       1366       1365  
      1234       1235       1246       1245       1355       1356       1367       1366  
      1235       1236       1247       1246       1356       1357       1368       1367  
      1236       1237       1248       1247       1357       1358       1369       1368  
      1237       1238       1249       1248       1358       1359       1370       1369  
      1238       1239       1250       1249       1359       1360       1371       1370  
      1239       1240       1251       1250       1360       1361       1372       1371  
      1240       1241       1252       1251       1361       1362       1373       1372  
      1241       1242       1253       1252       1362       1363       1374       1373  
      1242       1243       1254       1253       1363       1364       1375       1374  
      1244       1245       1256       1255       1365       1366       1377       1376  
      1245       1246       1257       1256       1366       1367       1378       1377  
      1246       1247       1258       1257       1367       1368       1379       1378  
      1247       1248       1259       1258       1368       1369       1380       1379  
      1248       1249       1260       1259       1369       1370       1381       1380  
      1249       1250       1261       1260       1370       1371       1382       1381  
      1250       1251       1262       1261       1371       1372       1383       1382  
      1251       1252       1263       1262       1372       1373       1384       1383  
      1252       1253       1264       1263       1373       1374       1385       1384  
      1253       1254       1265       1264       1374       1375       1386       1385  
      1255       1256       1267       1266       1376       1377       1388       1387  
      1256       1257       1268       1267       1377       1378       1389       1388  
      1257       1258       1269       1268       1378       1379       1390       1389  
      1258       1259       1270       1269       1379       1380       1391       1390  
      1259       1260       1271       1270       1380       1381       1392       1391  
      1260       1261       1272       1271       1381       1382       1393       1392  
      1261       1262       1273       1272       1382       1383       1394       1393  
      1262       1263       1274       1273       1383       1384       1395       1394  
      1263       1264       1275       1274       1384       1385       1396       1395  
      1264       1265       1276       1275       1385       1386       1397       1396  
      1266       1267       1278       1277       1387       1388       1399       1398  
      1267       1268       1279       1278       1388       1389       1400       1399  
      1268       1269       1280       1279       1389       1390       1401       1400  
      1269       1270       1281       1280       1390       1391       1402       1401  
      1270       1271       1282       1281       1391       1392       1403       1402  
      1271       1272       1283       1282       1392       1393       1404       1403  
      1272       1273       1284       1283       1393       1394       1405       1404  
      1273       1274       1285       1284       1394       1395       1406       1405  
      1274       1275       1286       1285       1395       1396       1407       1406  
      1275       1276       1287       1286       1396       1397       1408       1407  
      1277       1278       1289       1288       1398       1399       1410       1409  
      1278       1279       1290       1289       1399       1400       1411       1410  
      1279       1280       1291       1290       1400       1401       1412       1411  
      1280       1281       1292       1291       1401       1402       1413       1412  
      1281       1282       1293       1292       1402       1403       1414       1413  
      1282       1283       1294       1293       1403       1404       1415       1414  
      1283       1284       1295       1294       1404       1405       1416       1415  
      1284       1285       1296       1295       1405       1406       1417       1416  
      1285       1286       1297       1296       1406       1407       1418       1417  
      1286       1287       1298       1297       1407       1408       1419       1418  
      1288       1289       1300       1299       1409       1410       1421       1420  
      1289       1290       1301       1300       1410       1411       1422       1421  
      1290       1291       1302       1301       1411       1412       1423       1422  
      1291       1292       1303       1302       1412       1413       1424       1423  
      1292       1293       1304       1303       1413       1414       1425       1424  
      1293       1294       1305       1304       1414       1415       1426       1425  
      1294       1295       1306       1305       1415       1416       1427       1426  
      1295       1296       1307       1306       1416       1417       1428       1427  
      1296       1297       1308       1307       1417       1418       1429       1428  
      1297       1298       1309       1308       1418       1419       1430       1429  
      1299       1300       1311       1310       1420       1421       1432       1431  
      1300       1301       1312       1311       1421       1422       1433       1432  
      1301       1302       1313       1312       1422       1423       1434       1433  
      1302       1303       1314       1313       1423       1424       1435       1434  
      1303       1304       1315       1314       1424       1425       1436       1435  
      1304       1305       1316       1315       1425       1426       1437       1436  
      1305       1306       1317       1316       1426       1427       1438       1437  
      1306       1307       1318       1317       1427       1428       1439       1438  
      1307       1308       1319       1318       1428       1429       1440       1439  
      1308       1309       1320       1319       1429       1430       1441       1440  
      1310       1311       1322       1321       1431       1432       1443       1442  
      1311       1312       1323       1322       1432       1433       1444       1443  
      1312       1313       1324       1323       1433       1434       1445       1444  
      1313       1314       1325       1324       1434       1435       1446       1445  
      1314       1315       1326       1325       1435       1436       1447       1446  
      1315       1316       1327       1326       1436       1437       1448       1447  
      1316       1317       1328       1327       1437       1438       1449       1448  
      1317       1318       1329       1328       1438       1439       1450       1449  
      1318       1319       1330       1329       1439       1440       1451       1450  
      1319       1320       1331       1330       1440       1441       1452       1451  
      1332       1333       1344       1343       1453       1454       1465       1464  
      1333       1334       1345       1344       1454       1455       1466       1465  
      1334       1335       1346       1345       1455       1456       1467       1466  
      1335       1336       1347       1346       1456       1457       1468       1467  
      1336       1337       1348       1347       1457       1458       1469       1468  
      1337       1338       1349       1348       1458       1459       1470       1469  
      1338       1339       1350       1349       1459       1460       1471       1470  
      1339       1340       1351       1350       1460       1461       1472       1471  
      1340       1341       1352       1351       1461       1462       1473       1472  
      1341       1342       1353       1352       1462       1463       1474       1473  
      1343       1344       1355       1354       1464       1465       1476       1475  
      1344       1345       1356       1355       1465       1466       1477       1476  
      1345       1346       1357       1356       1466       1467       1478       1477  
      1346       1347       1358       1357       1467       1468       1479       1478  
      1347       1348       1359       1358       1468       1469       1480       1479  
      1348       1349       1360       1359       1469       1470       1481       1480  
      1349       1350       1361       1360       1470       1471       1482       1481  
      1350       1351       1362       1361       1471       1472       1483       1482  
      1351       1352       1363       1362       1472       1473       1484       1483  
      1352       1353       1364       1363       1473       1474       1485       1484  
      1354       1355       1366       1365       1475       1476       1487       1486  
      1355       1356       1367       1366       1476       1477       1488       1487  
      1356       1357       1368       1367       1477       1478       1489       1488  
      1357       1358       1369       1368       1478       1479       1490       1489  
      1358       1359       1370       1369       1479       1480       1491       1490  
      1359       1360       1371       1370       1480       1481       1492       1491  
      1360       1361       1372       1371       1481       1482       1493       1492  
      1361       1362       1373       1372       1482       1483       1494       1493  
      1362       1363       1374       1373       1483       1484       1495       1494  
      1363       1364       1375       1374       1484       1485       1496       1495  
      1365       1366       1377       1376       1486       1487       1498       1497  
      1366       1367       1378       1377       1487       1488       1499       1498  
      1367       1368       1379       1378       1488       1489       1500       1499  
      1368       1369       1380       1379       1489       1490       1501       1500  
      1369       1370       1381       1380       1490       1491       1502       1501  
      1370       1371       1382       1381       1491       1492       1503       1502  
      1371       1372       1383       1382       1492       1493       1504       1503  
      1372       1373       1384       1383       1493       1494       1505       1504  
      1373       1374       1385       1384       1494       1495       1506       1505  
      1374       1375       1386       1385       1495       1496       1507       1506  
      1376       1377       1388       1387       1497       1498       1509       1508  
      1377       1378       1389       1388       1498       1499       1510       1509  
      1378       1379       1390       1389       1499       1500       1511       1510  
      1379       1380       1391       1390       1500       1501       1512       1511  
      1380       1381       1392       1391       1501       1502       1513       1512  
      1381       1382       1393       1392       1502       1503       1514       1513  
      1382       1383       1394       1393       1503       1504       1515       1514  
      1383       1384       1395       1394       1504       1505       1516       1515  
      1384       1385       1396       1395       1505       1506       1517       1516  
      1385       1386       1397       1396       1506       1507       1518       1517  
      1387       1388       1399       1398       1508       1509       1520       1519  
      1388       1389       1400       1399       1509       1510       1521       1520  
      1389       1390       1401       1400       1510       1511       1522       1521  
      1390       1391       1402       1401       1511       1512       1523       1522  
      1391       1392       1403       1402       1512       1513       1524       1523  
      1392       1393       1404       1403       1513       1514       1525       1524  
      1393       1394       1405       1404       1514       1515       1526       1525  
      1394       1395       1406       1405       1515       1516       1527       1526  
      1395       1396       1407       1406       1516       1517       1528       1527  
      1396       1397       1408       1407       1517       1518       1529       1528  
      1398       1399       1410       1409       1519       1520       1531       1530  
      1399       1400       1411       1410       1520       1521       1532       1531  
      1400       1401       1412       1411       1521       1522       1533       1532  
      1401       1402       1413       1412       1522       1523       1534       1533  
      1402       1403       1414       1413       1523       1524       1535       1534  
      1403       1404       1415       1414       1524       1525       1536       1535  
      1404       1405       1416       1415       1525       1526       1537       1536  
      1405       1406       1417       1416       1526       1527       1538       1537  
      1406       1407       1418       1417       1527       1528       1539       1538  
      1407       1408       1419       1418       1528       1529       1540       1539  
      1409       1410       1421       1420       1530       1531       1542       1541  
      1410       1411       1422       1421       1531       1532       1543       1542  
      1411       1412       1423       1422       1532       1533       1544       1543  
      1412       1413       1424       1423       1533       1534       1545       1544  
      1413       1414       1425       1424       1534       1535       1546       1545  
      1414       1415       1426       1425       1535       1536       1547       1546  
      1415       1416       1427       1426       1536       1537       1548       1547  
      1416       1417       1428       1427       1537       1538       1549       1548  
      1417       1418       1429       1428       1538       1539       1550       1549  
      1418       1419       1430       1429       1539       1540       1551       1550  
      1420       1421       1432       1431       1541       1542       1553       1552  
      1421       1422       1433       1432       1542       1543       1554       1553  
      1422       1423       1434       1433       1543       1544       1555       1554  
      1423       1424       1435       1434       1544       1545       1556       1555  
      1424       1425       1436       1435       1545       1546       1557       1556  
      1425       1426       1437       1436       1546       1547       1558       1557  
      1426       1427       1438       1437       1547       1548       1559       1558  
      1427       1428       1439       1438       1548       1549       1560       1559  
      1428       1429       1440       1439       1549       1550       1561       1560  
      1429       1430       1441       1440       1550       1551       1562       1561  
      1431       1432       1443       1442       1552       1553       1564       1563  
      1432       1433       1444       1443       1553       1554       1565       1564  
      1433       1434       1445       1444       1554       1555       1566       1565  
      1434       1435       1446       1445       1555       1556       1567       1566  
      1435       1436       1447       1446       1556       1557       1568       1567  
      1436       1437       1448       1447       1557       1558       1569       1568  
      1437       1438       1449       1448       1558       1559       1570       1569  
      1438       1439       1450       1449       1559       1560       1571       1570  
      1439       1440       1451       1450       1560       1561       1572       1571  
      1440       1441       1452       1451       1561       1562       1573       1572  
      1453       1454       1465       1464       1574       1575       1586       1585  
      1454       1455       1466       1465       1575       1576       1587       1586  
      1455       1456       1467       1466       1576       1577       1588       1587  
      1456       1457       1468       1467       1577       1578       1589       1588  
      1457       1458       1469       1468       1578       1579       1590       1589  
      1458       1459       1470       1469       1579       1580       1591       1590  
      1459       1460       1471       1470       1580       1581       1592       1591  
      1460       1461       1472       1471       1581       1582       1593       1592  
      1461       1462       1473       1472       1582       1583       1594       1593  
      1462       1463       1474       1473       1583       1584       1595       1594  
      1464       1465       1476       1475       1585       1586       1597       1596  
      1465       1466       1477       1476       1586       1587       1598       1597  
      1466       1467       1478       1477       1587       1588       1599       1598  
      1467       1468       1479       1478       1588       1589       1600       1599  
      1468       1469       1480       1479       1589       1590       1601       1600  
      1469       1470       1481       1480       1590       1591       1602       1601  
      1470       1471       1482       1481       1591       1592       1603       1602  
      1471       1472       1483       1482       1592       1593       1604       1603  
      1472       1473       1484       1483       1593       1594       1605       1604  
      1473       1474       1485       1484       1594       1595       1606       1605  
      1475       1476       1487       1486       1596       1597       1608       1607  
      1476       1477       1488       1487       1597       1598       1609       1608  
      1477       1478       1489       1488       1598       1599       1610       1609  
      1478       1479       1490       1489       1599       1600       1611       1610  
      1479       1480       1491       1490       1600       1601       1612       1611  
      1480       1481       1492       1491       1601       1602       1613       1612  
      1481       1482       1493       1492       1602       1603       1614       1613  
      1482       1483       1494       1493       1603       1604       1615       1614  
      1483       1484       1495       1494       1604       1605       1616       1615  
      1484       1485       1496       1495       1605       1606       1617       1616  
      1486       1487       1498       1497       1607       1608       1619       1618  
      1487       1488       1499       1498       1608       1609       1620       1619  
      1488       1489       1500       1499       1609       1610       1621       1620  
      1489       1490       1501       1500       1610       1611       1622       1621  
      1490       1491       1502       1501       1611       1612       1623       1622  
      1491       1492       1503       1502       1612       1613       1624       1623  
      1492       1493       1504       1503       1613       1614       1625       1624  
      1493       1494       1505       1504       1614       1615       1626       1625  
      1494       1495       1506       1505       1615       1616       1627       1626  
      1495       1496       1507       1506       1616       1617       1628       1627  
      1497       1498       1509       1508       1618       1619       1630       1629  
      1498       1499       1510       1509       1619       1620       1631       1630  
      1499       1500       1511       1510       1620       1621       1632       1631  
      1500       1501       1512       1511       1621       1622       1633       1632  
      1501       1502       1513       1512       1622       1623       1634       1633  
      1502       1503       1514       1513       1623       1624       1635       1634  
      1503       1504       1515       1514       1624       1625       1636       1635  
      1504       1505       1516       1515       1625       1626       1637       1636  
      1505       1506       1517       1516       1626       1627       1638       1637  
      1506       1507       1518       1517       1627       1628       1639       1638  
      1508       1509       1520       1519       1629       1630       1641       1640  
      1509       1510       1521       1520       1630       1631       1642       1641  
      1510       1511       1522       1521       1631       1632       1643       1642  
      1511       1512       1523       1522       1632       1633       1644       1643  
      1512       1513       1524       1523       1633       1634       1645       1644  
      1513       1514       1525       1524       1634       1635       1646       1645  
      1514       1515       1526       1525       1635       1636       1647       1646  
      1515       1516       1527       1526       1636       1637       1648       1647  
      1516       1517       1528       1527       1637       1638       1649       1648  
      1517       1518       1529       1528       1638       1639       1650       1649  
      1519       1520       1531       1530       1640       1641       1652       1651  
      1520       1521       1532       1531       1641       1642       1653       1652  
      1521       1522       1533       1532       1642       1643       1654       1653  
      1522       1523       1534       1533       1643       1644       1655       1654  
      1523       1524       1535       1534       1644       1645       1656       1655  
      1524       1525       1536       1535       1645       1646       1657       1656  
      1525       1526       1537       1536       1646       1647       1658       1657  
      1526       1527       1538       1537       1647       1648       1659       1658  
      1527       1528       1539       1538       1648       1649       1660       1659  
      1528       1529       1540       1539       1649       1650       1661       1660  
      1530       1531       1542       1541       1651       1652       1663       1662  
      1531       1532       1543       1542       1652       1653       1664       1663  
      1532       1533       1544       1543       1653       1654       1665       1664  
      1533       1534       1545       1544       1654       1655       1666       1665  
      1534       1535       1546       1545       1655       1656       1667       1666  
      1535       1536       1547       1546       1656       1657       1668       1667  
      1536       1537       1548       1547       1657       1658       1669       1668  
      1537       1538       1549       1548       1658       1659       1670       1669  
      1538       1539       1550       1549       1659       1660       1671       1670  
      1539       1540       1551       1550       1660       1661       1672       1671  
      1541       1542       1553       1552       1662       1663       1674       1673  
      1542       1543       1554       1553       1663       1664       1675       1674  
      1543       1544       1555       1554       1664       1665       1676       1675  
      1544       1545       1556       1555       1665       1666       1677       1676  
      1545       1546       1557       1556       1666       1667       1678       1677  
      1546       1547       1558       1557       1667       1668       1679       1678  
      1547       1548       1559       1558       1668       1669       1680       1679  
      1548       1549       1560       1559       1669       1670       1681       1680  
      1549       1550       1561       1560       1670       1671       1682       1681  
      1550       1551       1562       1561       1671       1672       1683       1682  
      1552       1553       1564       1563       1673       1674       1685       1684  
      1553       1554       1565       1564       1674       1675       1686       1685  
      1554       1555       1566       1565       1675       1676       1687       1686  
      1555       1556       1567       1566       1676       1677       1688       1687  
      1556       1557       1568       1567       1677       1678       1689       1688  
      1557       1558       1569       1568       1678       1679       1690       1689  
      1558       1559       1570       1569       1679       1680       1691       1690  
      1559       1560       1571       1570       1680       1681       1692       1691  
      1560       1561       1572       1571       1681       1682       1693       1692  
      1561       1562       1573       1572       1682       1683       1694       1693  
      1574       1575       1586       1585       1695       1696       1707       1706  
      1575       1576       1587       1586       1696       1697       1708       1707  
      1576       1577       1588       1587       1697       1698       1709       1708  
      1577       1578       1589       1588       1698       1699       1710       1709  
      1578       1579       1590       1589       1699       1700       1711       1710  
      1579       1580       1591       1590       1700       1701       1712       1711  
      1580       1581       1592       1591       1701       1702       1713       1712  
      1581       1582       1593       1592       1702       1703       1714       1713  
      1582       1583       1594       1593       1703       1704       1715       1714  
      1583       1584       1595       1594       1704       1705       1716       1715  
      1585       1586       1597       1596       1706       1707       1718       1717  
      1586       1587       1598       1597       1707       1708       1719       1718  
      1587       1588       1599       1598       1708       1709       1720       1719  
      1588       1589       1600       1599       1709       1710       1721       1720  
      1589       1590       1601       1600       1710       1711       1722       1721  
      1590       1591       1602       1601       1711       1712       1723       1722  
      1591       1592       1603       1602       1712       1713       1724       1723  
      1592       1593       1604       1603       1713       1714       1725       1724  
      1593       1594       1605       1604       1714       1715       1726       1725  
      1594       1595       1606       1605       1715       1716       1727       1726  
      1596       1597       1608       1607       1717       1718       1729       1728  
      1597       1598       1609       1608       1718       1719       1730       1729  
      1598       1599       1610       1609       1719       1720       1731       1730  
      1599       1600       1611       1610       1720       1721       1732       1731  
      1600       1601       1612       1611       1721       1722       1733       1732  
      1601       1602       1613       1612       1722       1723       1734       1733  
      1602       1603       1614       1613       1723       1724       1735       1734  
      1603       1604       1615       1614       1724       1725       1736       1735  
      1604       1605       1616       1615       1725       1726       1737       1736  
      1605       1606       1617       1616       1726       1727       1738       1737  
      1607       1608       1619       1618       1728       1729       1740       1739  
      1608       1609       1620       1619       1729       1730       1741       1740  
      1609       1610       1621       1620       1730       1731       1742       1741  
      1610       1611       1622       1621       1731       1732       1743       1742  
      1611       1612       1623       1622       1732       1733       1744       1743  
      1612       1613       1624       1623       1733       1734       1745       1744  
      1613       1614       1625       1624       1734       1735       1746       1745  
      1614       1615       1626       1625       1735       1736       1747       1746  
      1615       1616       1627       1626       1736       1737       1748       1747  
      1616       1617       1628       1627       1737       1738       1749       1748  
      1618       1619       1630       1629       1739       1740       1751       1750  
      1619       1620       1631       1630       1740       1741       1752       1751  
      1620       1621       1632       1631       1741       1742       1753       1752  
      1621       1622       1633       1632       1742       1743       1754       1753  
      1622       1623       1634       1633       1743       1744       1755       1754  
      1623       1624       1635       1634       1744       1745       1756       1755  
      1624       1625       1636       1635       1745       1746       1757       1756  
      1625       1626       1637       1636       1746       1747       1758       1757  
      1626       1627       1638       1637       1747       1748       1759       1758  
      1627       1628       1639       1638       1748       1749       1760       1759  
      1629       1630       1641       1640       1750       1751       1762       1761  
      1630       1631       1642       1641       1751       1752       1763       1762  
      1631       1632       1643       1642       1752       1753       1764       1763  
      1632       1633       1644       1643       1753       1754       1765       1764  
      1633       1634       1645       1644       1754       1755       1766       1765  
      1634       1635       1646       1645       1755       1756       1767       1766  
      1635       1636       1647       1646       1756       1757       1768       1767  
      1636       1637       1648       1647       1757       1758       1769       1768  
      1637       1638       1649       1648       1758       1759       1770       1769  
      1638       1639       1650       1649       1759       1760       1771       1770  
      1640       1641       1652       1651       1761       1762       1773       1772  
      1641       1642       1653       1652       1762       1763       1774       1773  
      1642       1643       1654       1653       1763       1764       1775       1774  
      1643       1644       1655       1654       1764       1765       1776       1775  
      1644       1645       1656       1655       1765       1766       1777       1776  
      1645       1646       1657       1656       1766       1767       1778       1777  
      1646       1647       1658       1657       1767       1768       1779       1778  
      1647       1648       1659       1658       1768       1769       1780       1779  
      1648       1649       1660       1659       1769       1770       1781       1780  
      1649       1650       1661       1660       1770       1771       1782       1781  
      1651       1652       1663       1662       1772       1773       1784       1783  
      1652       1653       1664       1663       1773       1774       1785       1784  
      1653       1654       1665       1664       1774       1775       1786       1785  
      1654       1655       1666       1665       1775       1776       1787       1786  
      1655       1656       1667       1666       1776       1777       1788       1787  
      1656       1657       1668       1667       1777       1778       1789       1788  
      1657       1658       1669       1668       1778       1779       1790       1789  
      1658       1659       1670       1669       1779       1780       1791       1790  
      1659       1660       1671       1670       1780       1781       1792       1791  
      1660       1661       1672       1671       1781       1782       1793       1792  
      1662       1663       1674       1673       1783       1784       1795       1794  
      1663       1664       1675       1674       1784       1785       1796       1795  
      1664       1665       1676       1675       1785       1786       1797       1796  
      1665       1666       1677       1676       1786       1787       1798       1797  
      1666       1667       1678       1677       1787       1788       1799       1798  
      1667       1668       1679       1678       1788       1789       1800       1799  
      1668       1669       1680       1679       1789       1790       1801       1800  
      1669       1670       1681       1680       1790       1791       1802       1801  
      1670       1671       1682       1681       1791       1792       1803       1802  
      1671       1672       1683       1682       1792       1793       1804       1803  
      1673       1674       1685       1684       1794       1795       1806       1805  
      1674       1675       1686       1685       1795       1796       1807       1806  
      1675       1676       1687       1686       1796       1797       1808       1807  
      1676       1677       1688       1687       1797       1798       1809       1808  
      1677       1678       1689       1688       1798       1799       1810       1809  
      1678       1679       1690       1689       1799       1800       1811       1810  
      1679       1680       1691       1690       1800       1801       1812       1811  
      1680       1681       1692       1691       1801       1802       1813       1812  
      1681       1682       1693       1692       1802       1803       1814       1813  
      1682       1683       1694       1693       1803       1804       1815       1814  
      1695       1696       1707       1706       1816       1817       1828       1827  
      1696       1697       1708       1707       1817       1818       1829       1828  
      1697       1698       1709       1708       1818       1819       1830       1829  
      1698       1699       1710       1709       1819       1820       1831       1830  
      1699       1700       1711       1710       1820       1821       1832       1831  
      1700       1701       1712       1711       1821       1822       1833       1832  
      1701       1702       1713       1712       1822       1823       1834       1833  
      1702       1703       1714       1713       1823       1824       1835       1834  
      1703       1704       1715       1714       1824       1825       1836       1835  
      1704       1705       1716       1715       1825       1826       1837       1836  
      1706       1707       1718       1717       1827       1828       1839       1838  
      1707       1708       1719       1718       1828       1829       1840       1839  
      1708       1709       1720       1719       1829       1830       1841       1840  
      1709       1710       1721       1720       1830       1831       1842       1841  
      1710       1711       1722       1721       1831       1832       1843       1842  
      1711       1712       1723       1722       1832       1833       1844       1843  
      1712       1713       1724       1723       1833       1834       1845       1844  
      1713       1714       1725       1724       1834       1835       1846       1845  
      1714       1715       1726       1725       1835       1836       1847       1846  
      1715       1716       1727       1726       1836       1837       1848       1847  
      1717       1718       1729       1728       1838       1839       1850       1849  
      1718       1719       1730       1729       1839       1840       1851       1850  
      1719       1720       1731       1730       1840       1841       1852       1851  
      1720       1721       1732       1731       1841       1842       1853       1852  
      1721       1722       1733       1732       1842       1843       1854       1853  
      1722       1723       1734       1733       1843       1844       1855       1854  
      1723       1724       1735       1734       1844       1845       1856       1855  
      1724       1725       1736       1735       1845       1846       1857       1856  
      1725       1726       1737       1736       1846       1847       1858       1857  
      1726       1727       1738       1737       1847       1848       1859       1858  
      1728       1729       1740       1739       1849       1850       1861       1860  
      1729       1730       1741       1740       1850       1851       1862       1861  
      1730       1731       1742       1741       1851       1852       1863       1862  
      1731       1732       1743       1742       1852       1853       1864       1863  
      1732       1733       1744       1743       1853       1854       1865       1864  
      1733       1734       1745       1744       1854       1855       1866       1865  
      1734       1735       1746       1745       1855       1856       1867       1866  
      1735       1736       1747       1746       1856       1857       1868       1867  
      1736       1737       1748       1747       1857       1858       1869       1868  
      1737       1738       1749       1748       1858       1859       1870       1869  
      1739       1740       1751       1750       1860       1861       1872       1871  
      1740       1741       1752       1751       1861       1862       1873       1872  
      1741       1742       1753       1752       1862       1863       1874       1873  
      1742       1743       1754       1753       1863       1864       1875       1874  
      1743       1744       1755       1754       1864       1865       1876       1875  
      1744       1745       1756       1755       1865       1866       1877       1876  
      1745       1746       1757       1756       1866       1867       1878       1877  
      1746       1747       1758       1757       1867       1868       1879       1878  
      1747       1748       1759       1758       1868       1869       1880       1879  
      1748       1749       1760       1759       1869       1870       1881       1880  
      1750       1751       1762       1761       1871       1872       1883       1882  
      1751       1752       1763       1762       1872       1873       1884       1883  
      1752       1753       1764       1763       1873       1874       1885       1884  
      1753       1754       1765       1764       1874       1875       1886       1885  
      1754       1755       1766       1765       1875       1876       1887       1886  
      1755       1756       1767       1766       1876       1877       1888       1887  
      1756       1757       1768       1767       1877       1878       1889       1888  
      1757       1758       1769       1768       1878       1879       1890       1889  
      1758       1759       1770       1769       1879       1880       1891       1890  
      1759       1760       1771       1770       1880       1881       1892       1891  
      1761       1762       1773       1772       1882       1883       1894       1893  
      1762       1763       1774       1773       1883       1884       1895       1894  
      1763       1764       1775       1774       1884       1885       1896       1895  
      1764       1765       1776       1775       1885       1886       1897       1896  
      1765       1766       1777       1776       1886       1887       1898       1897  
      1766       1767       1778       1777       1887       1888       1899       1898  
      1767       1768       1779       1778       1888       1889       1900       1899  
      1768       1769       1780       1779       1889       1890       1901       1900  
      1769       1770       1781       1780       1890       1891       1902       1901  
      1770       1771       1782       1781       1891       1892       1903       1902  
      1772       1773       1784       1783       1893       1894       1905       1904  
      1773       1774       1785       1784       1894       1895       1906       1905  
      1774       1775       1786       1785       1895       1896       1907       1906  
      1775       1776       1787       1786       1896       1897       1908       1907  
      1776       1777       1788       1787       1897       1898       1909       1908  
      1777       1778       1789       1788       1898       1899       1910       1909  
      1778       1779       1790       1789       1899       1900       1911       1910  
      1779       1780       1791       1790       1900       1901       1912       1911  
      1780       1781       1792       1791       1901       1902       1913       1912  
      1781       1782       1793       1792       1902       1903       1914       1913  
      1783       1784       1795       1794       1904       1905       1916       1915  
      1784       1785       1796       1795       1905       1906       1917       1916  
      1785       1786       1797       1796       1906       1907       1918       1917  
      1786       1787       1798       1797       1907       1908       1919       1918  
      1787       1788       1799       1798       1908       1909       1920       1919  
      1788       1789       1800       1799       1909       1910       1921       1920  
      1789       1790       1801       1800       1910       1911       1922       1921  
      1790       1791       1802       1801       1911       1912       1923       1922  
      1791       1792       1803       1802       1912       1913       1924       1923  
      1792       1793       1804       1803       1913       1914       1925       1924  
      1794       1795       1806       1805       1915       1916       1927       1926  
      1795       1796       1807       1806       1916       1917       1928       1927  
      1796       1797       1808       1807       1917       1918       1929       1928  
      1797       1798       1809       1808       1918       1919       1930       1929  
      1798       1799       1810       1809       1919       1920       1931       1930  
      1799       1800       1811       1810       1920       1921       1932       1931  
      1800       1801       1812       1811       1921       1922       1933       1932  
      1801       1802       1813       1812       1922       1923       1934       1933  
      1802       1803       1814       1813       1923       1924       1935       1934  
      1803       1804       1815       1814       1924       1925       1936       1935  
      1816       1817       1828       1827       1937       1938       1949       1948  
      1817       1818       1829       1828       1938       1939       1950       1949  
      1818       1819       1830       1829       1939       1940       1951       1950  
      1819       1820       1831       1830       1940       1941       1952       1951  
      1820       1821       1832       1831       1941       1942       1953       1952  
      1821       1822       1833       1832       1942       1943       1954       1953  
      1822       1823       1834       1833       1943       1944       1955       1954  
      1823       1824       1835       1834       1944       1945       1956       1955  
      1824       1825       1836       1835       1945       1946       1957       1956  
      1825       1826       1837       1836       1946       1947       1958       1957  
      1827       1828       1839       1838       1948       1949       1960       1959  
      1828       1829       1840       1839       1949       1950       1961       1960  
      1829       1830       1841       1840       1950       1951       1962       1961  
      1830       1831       1842       1841       1951       1952       1963       1962  
      1831       1832       1843       1842       1952       1953       1964       1963  
      1832       1833       1844       1843       1953       1954       1965       1964  
      1833       1834       1845       1844       1954       1955       1966       1965  
      1834       1835       1846       1845       1955       1956       1967       1966  
      1835       1836       1847       1846       1956       1957       1968       1967  
      1836       1837       1848       1847       1957       1958       1969       1968  
      1838       1839       1850       1849       1959       1960       1971       1970  
      1839       1840       1851       1850       1960       1961       1972       1971  
      1840       1841       1852       1851       1961       1962       1973       1972  
      1841       1842       1853       1852       1962       1963       1974       1973  
      1842       1843       1854       1853       1963       1964       1975       1974  
      1843       1844       1855       1854       1964       1965       1976       1975  
      1844       1845       1856       1855       1965       1966       1977       1976  
      1845       1846       1857       1856       1966       1967       1978       1977  
      1846       1847       1858       1857       1967       1968       1979       1978  
      1847       1848       1859       1858       1968       1969       1980       1979  
      1849       1850       1861       1860       1970       1971       1982       1981  
      1850       1851       1862       1861       1971       1972       1983       1982  
      1851       1852       1863       1862       1972       1973       1984       1983  
      1852       1853       1864       1863       1973       1974       1985       1984  
      1853       1854       1865       1864       1974       1975       1986       1985  
      1854       1855       1866       1865       1975       1976       1987       1986  
      1855       1856       1867       1866       1976       1977       1988       1987  
      1856       1857       1868       1867       1977       1978       1989       1988  
      1857       1858       1869       1868       1978       1979       1990       1989  
      1858       1859       1870       1869       1979       1980       1991       1990  
      1860       1861       1872       1871       1981       1982       1993       1992  
      1861       1862       1873       1872       1982       1983       1994       1993  
      1862       1863       1874       1873       1983       1984       1995       1994  
      1863       1864       1875       1874       1984       1985       1996       1995  
      1864       1865       1876       1875       1985       1986       1997       1996  
      1865       1866       1877       1876       1986       1987       1998       1997  
      1866       1867       1878       1877       1987       1988       1999       1998  
      1867       1868       1879       1878       1988       1989       2000       1999  
      1868       1869       1880       1879       1989       1990       2001       2000  
      1869       1870       1881       1880       1990       1991       2002       2001  
      1871       1872       1883       1882       1992       1993       2004       2003  
      1872       1873       1884       1883       1993       1994       2005       2004  
      1873       1874       1885       1884       1994       1995       2006       2005  
      1874       1875       1886       1885       1995       1996       2007       2006  
      1875       1876       1887       1886       1996       1997       2008       2007  
      1876       1877       1888       1887       1997       1998       2009       2008  
      1877       1878       1889       1888       1998       1999       2010       2009  
      1878       1879       1890       1889       1999       2000       2011       2010  
      1879       1880       1891       1890       2000       2001       2012       2011  
      1880       1881       1892       1891       2001       2002       2013       2012  
      1882       1883       1894       1893       2003       2004       2015       2014  
      1883       1884       1895       1894       2004       2005       2016       2015  
      1884       1885       1896       1895       2005       2006       2017       2016  
      1885       1886       1897       1896       2006       2007       2018       2017  
      1886       1887       1898       1897       2007       2008       2019       2018  
      1887       1888       1899       1898       2008       2009       2020       2019  
      1888       1889       1900       1899       2009       2010       2021       2020  
      1889       1890       1901       1900       2010       2011       2022       2021  
      1890       1891       1902       1901       2011       2012       2023       2022  
      1891       1892       1903       1902       2012       2013       2024       2023  
      1893       1894       1905       1904       2014       2015       2026       2025  
      1894       1895       1906       1905       2015       2016       2027       2026  
      1895       1896       1907       1906       2016       2017       2028       2027  
      1896       1897       1908       1907       2017       2018       2029       2028  
      1897       1898       1909       1908       2018       2019       2030       2029  
      1898       1899       1910       1909       2019       2020       2031       2030  
      1899       1900       1911       1910       2020       2021       2032       2031  
      1900       1901       1912       1911       2021       2022       2033       2032  
      1901       1902       1913       1912       2022       2023       2034       2033  
      1902       1903       1914       1913       2023       2024       2035       2034  
      1904       1905       1916       1915       2025       2026       2037       2036  
      1905       1906       1917       1916       2026       2027       2038       2037  
      1906       1907       1918       1917       2027       2028       2039       2038  
      1907       1908       1919       1918       2028       2029       2040       2039  
      1908       1909       1920       1919       2029       2030       2041       2040  
      1909       1910       1921       1920       2030       2031       2042       2041  
      1910       1911       1922       1921       2031       2032       2043       2042  
      1911       1912       1923       1922       2032       2033       2044       2043  
      1912       1913       1924       1923       2033       2034       2045       2044  
      1913       1914       1925       1924       2034       2035       2046       2045  
      1915       1916       1927       1926       2036       2037       2048       2047  
      1916       1917       1928       1927       2037       2038       2049       2048  
      1917       1918       1929       1928       2038       2039       2050       2049  
      1918       1919       1930       1929       2039       2040       2051       2050  
      1919       1920       1931       1930       2040       2041       2052       2051  
      1920       1921       1932       1931       2041       2042       2053       2052  
      1921       1922       1933       1932       2042       2043       2054       2053  
      1922       1923       1934       1933       2043       2044       2055       2054  
      1923       1924       1935       1934       2044       2045       2056       2055  
      1924       1925       1936       1935       2045       2046       2057       2056  
      1937       1938       1949       1948       2058       2059       2070       2069  
      1938       1939       1950       1949       2059       2060       2071       2070  
      1939       1940       1951       1950       2060       2061       2072       2071  
      1940       1941       1952       1951       2061       2062       2073       2072  
      1941       1942       1953       1952       2062       2063       2074       2073  
      1942       1943       1954       1953       2063       2064       2075       2074  
      1943       1944       1955       1954       2064       2065       2076       2075  
      1944       1945       1956       1955       2065       2066       2077       2076  
      1945       1946       1957       1956       2066       2067       2078       2077  
      1946       1947       1958       1957       2067       2068       2079       2078  
      1948       1949       1960       1959       2069       2070       2081       2080  
      1949       1950       1961       1960       2070       2071       2082       2081  
      1950       1951       1962       1961       2071       2072       2083       2082  
      1951       1952       1963       1962       2072       2073       2084       2083  
      1952       1953       1964       1963       2073       2074       2085       2084  
      1953       1954       1965       1964       2074       2075       2086       2085  
      1954       1955       1966       1965       2075       2076       2087       2086  
      1955       1956       1967       1966       2076       2077       2088       2087  
      1956       1957       1968       1967       2077       2078       2089       2088  
      1957       1958       1969       1968       2078       2079       2090       2089  
      1959       1960       1971       1970       2080       2081       2092       2091  
      1960       1961       1972       1971       2081       2082       2093       2092  
      1961       1962       1973       1972       2082       2083       2094       2093  
      1962       1963       1974       1973       2083       2084       2095       2094  
      1963       1964       1975       1974       2084       2085       2096       2095  
      1964       1965       1976       1975       2085       2086       2097       2096  
      1965       1966       1977       1976       2086       2087       2098       2097  
      1966       1967       1978       1977       2087       2088       2099       2098  
      1967       1968       1979       1978       2088       2089       2100       2099  
      1968       1969       1980       1979       2089       2090       2101       2100  
      1970       1971       1982       1981       2091       2092       2103       2102  
      1971       1972       1983       1982       2092       2093       2104       2103  
      1972       1973       1984       1983       2093       2094       2105       2104  
      1973       1974       1985       1984       2094       2095       2106       2105  
      1974       1975       1986       1985       2095       2096       2107       2106  
      1975       1976       1987       1986       2096       2097       2108       2107  
      1976       1977       1988       1987       2097       2098       2109       2108  
      1977       1978       1989       1988       2098       2099       2110       2109  
      1978       1979       1990       1989       2099       2100       2111       2110  
      1979       1980       1991       1990       2100       2101       2112       2111  
      1981       1982       1993       1992       2102       2103       2114       2113  
      1982       1983       1994       1993       2103       2104       2115       2114  
      1983       1984       1995       1994       2104       2105       2116       2115  
      1984       1985       1996       1995       2105       2106       2117       2116  
      1985       1986       1997       1996       2106       2107       2118       2117  
      1986       1987       1998       1997       2107       2108       2119       2118  
      1987       1988       1999       1998       2108       2109       2120       2119  
      1988       1989       2000       1999       2109       2110       2121       2120  
      1989       1990       2001       2000       2110       2111       2122       2121  
      1990       1991       2002       2001       2111       2112       2123       2122  
      1992       1993       2004       2003       2113       2114       2125       2124  
      1993       1994       2005       2004       2114       2115       2126       2125  
      1994       1995       2006       2005       2115       2116       2127       2126  
      1995       1996       2007       2006       2116       2117       2128       2127  
      1996       1997       2008       2007       2117       2118       2129       2128  
      1997       1998       2009       2008       2118       2119       2130       2129  
      1998       1999       2010       2009       2119       2120       2131       2130  
      1999       2000       2011       2010       2120       2121       2132       2131  
      2000       2001       2012       2011       2121       2122       2133       2132  
      2001       2002       2013       2012       2122       2123       2134       2133  
      2003       2004       2015       2014       2124       2125       2136       2135  
      2004       2005       2016       2015       2125       2126       2137       2136  
      2005       2006       2017       2016       2126       2127       2138       2137  
      2006       2007       2018       2017       2127       2128       2139       2138  
      2007       2008       2019       2018       2128       2129       2140       2139  
      2008       2009       2020       2019       2129       2130       2141       2140  
      2009       2010       2021       2020       2130       2131       2142       2141  
      2010       2011       2022       2021       2131       2132       2143       2142  
      2011       2012       2023       2022       2132       2133       2144       2143  
      2012       2013       2024       2023       2133       2134       2145       2144  
      2014       2015       2026       2025       2135       2136       2147       2146  
      2015       2016       2027       2026       2136       2137       2148       2147  
      2016       2017       2028       2027       2137       2138       2149       2148  
      2017       2018       2029       2028       2138       2139       2150       2149  
      2018       2019       2030       2029       2139       2140       2151       2150  
      2019       2020       2031       2030       2140       2141       2152       2151  
      2020       2021       2032       2031       2141       2142       2153       2152  
      2021       2022       2033       2032       2142       2143       2154       2153  
      2022       2023       2034       2033       2143       2144       2155       2154  
      2023       2024       2035       2034       2144       2145       2156       2155  
      2025       2026       2037       2036       2146       2147       2158       2157  
      2026       2027       2038       2037       2147       2148       2159       2158  
      2027       2028       2039       2038       2148       2149       2160       2159  
      2028       2029       2040       2039       2149       2150       2161       2160  
      2029       2030       2041       2040       2150       2151       2162       2161  
      2030       2031       2042       2041       2151       2152       2163       2162  
      2031       2032       2043       2042       2152       2153       2164       2163  
      2032       2033       2044       2043       2153       2154       2165       2164  
      2033       2034       2045       2044       2154       2155       2166       2165  
      2034       2035       2046       2045       2155       2156       2167       2166  
      2036       2037       2048       2047       2157       2158       2169       2168  
      2037       2038       2049       2048       2158       2159       2170       2169  
      2038       2039       2050       2049       2159       2160       2171       2170  
      2039       2040       2051       2050       2160       2161       2172       2171  
      2040       2041       2052       2051       2161       2162       2173       2172  
      2041       2042       2053       2052       2162       2163       2174       2173  
      2042       2043       2054       2053       2163       2164       2175       2174  
      2043       2044       2055       2054       2164       2165       2176       2175  
      2044       2045       2056       2055       2165       2166       2177       2176  
      2045       2046       2057       2056       2166       2167       2178       2177  
      2058       2059       2070       2069       2179       2180       2191       2190  
      2059       2060       2071       2070       2180       2181       2192       2191  
      2060       2061       2072       2071       2181       2182       2193       2192  
      2061       2062       2073       2072       2182       2183       2194       2193  
      2062       2063       2074       2073       2183       2184       2195       2194  
      2063       2064       2075       2074       2184       2185       2196       2195  
      2064       2065       2076       2075       2185       2186       2197       2196  
      2065       2066       2077       2076       2186       2187       2198       2197  
      2066       2067       2078       2077       2187       2188       2199       2198  
      2067       2068       2079       2078       2188       2189       2200       2199  
      2069       2070       2081       2080       2190       2191       2202       2201  
      2070       2071       2082       2081       2191       2192       2203       2202  
      2071       2072       2083       2082       2192       2193       2204       2203  
      2072       2073       2084       2083       2193       2194       2205       2204  
      2073       2074       2085       2084       2194       2195       2206       2205  
      2074       2075       2086       2085       2195       2196       2207       2206  
      2075       2076       2087       2086       2196       2197       2208       2207  
      2076       2077       2088       2087       2197       2198       2209       2208  
      2077       2078       2089       2088       2198       2199       2210       2209  
      2078       2079       2090       2089       2199       2200       2211       2210  
      2080       2081       2092       2091       2201       2202       2213       2212  
      2081       2082       2093       2092       2202       2203       2214       2213  
      2082       2083       2094       2093       2203       2204       2215       2214  
      2083       2084       2095       2094       2204       2205       2216       2215  
      2084       2085       2096       2095       2205       2206       2217       2216  
      2085       2086       2097       2096       2206       2207       2218       2217  
      2086       2087       2098       2097       2207       2208       2219       2218  
      2087       2088       2099       2098       2208       2209       2220       2219  
      2088       2089       2100       2099       2209       2210       2221       2220  
      2089       2090       2101       2100       2210       2211       2222       2221  
      2091       2092       2103       2102       2212       2213       2224       2223  
      2092       2093       2104       2103       2213       2214       2225       2224  
      2093       2094       2105       2104       2214       2215       2226       2225  
      2094       2095       2106       2105       2215       2216       2227       2226  
      2095       2096       2107       2106       2216       2217       2228       2227  
      2096       2097       2108       2107       2217       2218       2229       2228  
      2097       2098       2109       2108       2218       2219       2230       2229  
      2098       2099       2110       2109       2219       2220       2231       2230  
      2099       2100       2111       2110       2220       2221       2232       2231  
      2100       2101       2112       2111       2221       2222       2233       2232  
      2102       2103       2114       2113       2223       2224       2235       2234  
      2103       2104       2115       2114       2224       2225       2236       2235  
      2104       2105       2116       2115       2225       2226       2237       2236  
      2105       2106       2117       2116       2226       2227       2238       2237  
      2106       2107       2118       2117       2227       2228       2239       2238  
      2107       2108       2119       2118       2228       2229       2240       2239  
      2108       2109       2120       2119       2229       2230       2241       2240  
      2109       2110       2121       2120       2230       2231       2242       2241  
      2110       2111       2122       2121       2231       2232       2243       2242  
      2111       2112       2123       2122       2232       2233       2244       2243  
      2113       2114       2125       2124       2234       2235       2246       2245  
      2114       2115       2126       2125       2235       2236       2247       2246  
      2115       2116       2127       2126       2236       2237       2248       2247  
      2116       2117       2128       2127       2237       2238       2249       2248  
      2117       2118       2129       2128       2238       2239       2250       2249  
      2118       2119       2130       2129       2239       2240       2251       2250  
      2119       2120       2131       2130       2240       2241       2252       2251  
      2120       2121       2132       2131       2241       2242       2253       2252  
      2121       2122       2133       2132       2242       2243       2254       2253  
      2122       2123       2134       2133       2243       2244       2255       2254  
      2124       2125       2136       2135       2245       2246       2257       2256  
      2125       2126       2137       2136       2246       2247       2258       2257  
      2126       2127       2138       2137       2247       2248       2259       2258  
      2127       2128       2139       2138       2248       2249       2260       2259  
      2128       2129       2140       2139       2249       2250       2261       2260  
      2129       2130       2141       2140       2250       2251       2262       2261  
      2130       2131       2142       2141       2251       2252       2263       2262  
      2131       2132       2143       2142       2252       2253       2264       2263  
      2132       2133       2144       2143       2253       2254       2265       2264  
      2133       2134       2145       2144       2254       2255       2266       2265  
      2135       2136       2147       2146       2256       2257       2268       2267  
      2136       2137       2148       2147       2257       2258       2269       2268  
      2137       2138       2149       2148       2258       2259       2270       2269  
      2138       2139       2150       2149       2259       2260       2271       2270  
      2139       2140       2151       2150       2260       2261       2272       2271  
      2140       2141       2152       2151       2261       2262       2273       2272  
      2141       2142       2153       2152       2262       2263       2274       2273  
      2142       2143       2154       2153       2263       2264       2275       2274  
      2143       2144       2155       2154       2264       2265       2276       2275  
      2144       2145       2156       2155       2265       2266       2277       2276  
      2146       2147       2158       2157       2267       2268       2279       2278  
      2147       2148       2159       2158       2268       2269       2280       2279  
      2148       2149       2160       2159       2269       2270       2281       2280  
      2149       2150       2161       2160       2270       2271       2282       2281  
      2150       2151       2162       2161       2271       2272       2283       2282  
      2151       2152       2163       2162       2272       2273       2284       2283  
      2152       2153       2164       2163       2273       2274       2285       2284  
      2153       2154       2165       2164       2274       2275       2286       2285  
      2154       2155       2166       2165       2275       2276       2287       2286  
      2155       2156       2167       2166       2276       2277       2288       2287  
      2157       2158       2169       2168       2278       2279       2290       2289  
      2158       2159       2170       2169       2279       2280       2291       2290  
      2159       2160       2171       2170       2280       2281       2292       2291  
      2160       2161       2172       2171       2281       2282       2293       2292  
      2161       2162       2173       2172       2282       2283       2294       2293  
      2162       2163       2174       2173       2283       2284       2295       2294  
      2163       2164       2175       2174       2284       2285       2296       2295  
      2164       2165       2176       2175       2285       2286       2297       2296  
      2165       2166       2177       2176       2286       2287       2298       2297  
      2166       2167       2178       2177       2287       2288       2299       2298  
      2179       2180       2191       2190       2300       2301       2312       2311  
      2180       2181       2192       2191       2301       2302       2313       2312  
      2181       2182       2193       2192       2302       2303       2314       2313  
      2182       2183       2194       2193       2303       2304       2315       2314  
      2183       2184       2195       2194       2304       2305       2316       2315  
      2184       2185       2196       2195       2305       2306       2317       2316  
      2185       2186       2197       2196       2306       2307       2318       2317  
      2186       2187       2198       2197       2307       2308       2319       2318  
      2187       2188       2199       2198       2308       2309       2320       2319  
      2188       2189       2200       2199       2309       2310       2321       2320  
      2190       2191       2202       2201       2311       2312       2323       2322  
      2191       2192       2203       2202       2312       2313       2324       2323  
      2192       2193       2204       2203       2313       2314       2325       2324  
      2193       2194       2205       2204       2314       2315       2326       2325  
      2194       2195       2206       2205       2315       2316       2327       2326  
      2195       2196       2207       2206       2316       2317       2328       2327  
      2196       2197       2208       2207       2317       2318       2329       2328  
      2197       2198       2209       2208       2318       2319       2330       2329  
      2198       2199       2210       2209       2319       2320       2331       2330  
      2199       2200       2211       2210       2320       2321       2332       2331  
      2201       2202       2213       2212       2322       2323       2334       2333  
      2202       2203       2214       2213       2323       2324       2335       2334  
      2203       2204       2215       2214       2324       2325       2336       2335  
      2204       2205       2216       2215       2325       2326       2337       2336  
      2205       2206       2217       2216       2326       2327       2338       2337  
      2206       2207       2218       2217       2327       2328       2339       2338  
      2207       2208       2219       2218       2328       2329       2340       2339  
      2208       2209       2220       2219       2329       2330       2341       2340  
      2209       2210       2221       2220       2330       2331       2342       2341  
      2210       2211       2222       2221       2331       2332       2343       2342  
      2212       2213       2224       2223       2333       2334       2345       2344  
      2213       2214       2225       2224       2334       2335       2346       2345  
      2214       2215       2226       2225       2335       2336       2347       2346  
      2215       2216       2227       2226       2336       2337       2348       2347  
      2216       2217       2228       2227       2337       2338       2349       2348  
      2217       2218       2229       2228       2338       2339       2350       2349  
      2218       2219       2230       2229       2339       2340       2351       2350  
      2219       2220       2231       2230       2340       2341       2352       2351  
      2220       2221       2232       2231       2341       2342       2353       2352  
      2221       2222       2233       2232       2342       2343       2354       2353  
      2223       2224       2235       2234       2344       2345       2356       2355  
      2224       2225       2236       2235       2345       2346       2357       2356  
      2225       2226       2237       2236       2346       2347       2358       2357  
      2226       2227       2238       2237       2347       2348       2359       2358  
      2227       2228       2239       2238       2348       2349       2360       2359  
      2228       2229       2240       2239       2349       2350       2361       2360  
      2229       2230       2241       2240       2350       2351       2362       2361  
      2230       2231       2242       2241       2351       2352       2363       2362  
      2231       2232       2243       2242       2352       2353       2364       2363  
      2232       2233       2244       2243       2353       2354       2365       2364  
      2234       2235       2246       2245       2355       2356       2367       2366  
      2235       2236       2247       2246       2356       2357       2368       2367  
      2236       2237       2248       2247       2357       2358       2369       2368  
      2237       2238       2249       2248       2358       2359       2370       2369  
      2238       2239       2250       2249       2359       2360       2371       2370  
      2239       2240       2251       2250       2360       2361       2372       2371  
      2240       2241       2252       2251       2361       2362       2373       2372  
      2241       2242       2253       2252       2362       2363       2374       2373  
      2242       2243       2254       2253       2363       2364       2375       2374  
      2243       2244       2255       2254       2364       2365       2376       2375  
      2245       2246       2257       2256       2366       2367       2378       2377  
      2246       2247       2258       2257       2367       2368       2379       2378  
      2247       2248       2259       2258       2368       2369       2380       2379  
      2248       2249       2260       2259       2369       2370       2381       2380  
      2249       2250       2261       2260       2370       2371       2382       2381  
      2250       2251       2262       2261       2371       2372       2383       2382  
      2251       2252       2263       2262       2372       2373       2384       2383  
      2252       2253       2264       2263       2373       2374       2385       2384  
      2253       2254       2265       2264       2374       2375       2386       2385  
      2254       2255       2266       2265       2375       2376       2387       2386  
      2256       2257       2268       2267       2377       2378       2389       2388  
      2257       2258       2269       2268       2378       2379       2390       2389  
      2258       2259       2270       2269       2379       2380       2391       2390  
      2259       2260       2271       2270       2380       2381       2392       2391  
      2260       2261       2272       2271       2381       2382       2393       2392  
      2261       2262       2273       2272       2382       2383       2394       2393  
      2262       2263       2274       2273       2383       2384       2395       2394  
      2263       2264       2275       2274       2384       2385       2396       2395  
      2264       2265       2276       2275       2385       2386       2397       2396  
      2265       2266       2277       2276       2386       2387       2398       2397  
      2267       2268       2279       2278       2388       2389       2400       2399  
      2268       2269       2280       2279       2389       2390       2401       2400  
      2269       2270       2281       2280       2390       2391       2402       2401  
      2270       2271       2282       2281       2391       2392       2403       2402  
      2271       2272       2283       2282       2392       2393       2404       2403  
      2272       2273       2284       2283       2393       2394       2405       2404  
      2273       2274       2285       2284       2394       2395       2406       2405  
      2274       2275       2286       2285       2395       2396       2407       2406  
      2275       2276       2287       2286       2396       2397       2408       2407  
      2276       2277       2288       2287       2397       2398       2409       2408  
      2278       2279       2290       2289       2399       2400       2411       2410  
      2279       2280       2291       2290       2400       2401       2412       2411  
      2280       2281       2292       2291       2401       2402       2413       2412  
      2281       2282       2293       2292       2402       2403       2414       2413  
      2282       2283       2294       2293       2403       2404       2415       2414  
      2283       2284       2295       2294       2404       2405       2416       2415  
      2284       2285       2296       2295       2405       2406       2417       2416  
      2285       2286       2297       2296       2406       2407       2418       2417  
      2286       2287       2298       2297       2407       2408       2419       2418  
      2287       2288       2299       2298       2408       2409       2420       2419  
      2300       2301       2312       2311       2421       2422       2433       2432  
      2301       2302       2313       2312       2422       2423       2434       2433  
      2302       2303       2314       2313       2423       2424       2435       2434  
      2303       2304       2315       2314       2424       2425       2436       2435  
      2304       2305       2316       2315       2425       2426       2437       2436  
      2305       2306       2317       2316       2426       2427       2438       2437  
      2306       2307       2318       2317       2427       2428       2439       2438  
      2307       2308       2319       2318       2428       2429       2440       2439  
      2308       2309       2320       2319       2429       2430       2441       2440  
      2309       2310       2321       2320       2430       2431       2442       2441  
      2311       2312       2323       2322       2432       2433       2444       2443  
      2312       2313       2324       2323       2433       2434       2445       2444  
      2313       2314       2325       2324       2434       2435       2446       2445  
      2314       2315       2326       2325       2435       2436       2447       2446  
      2315       2316       2327       2326       2436       2437       2448       2447  
      2316       2317       2328       2327       2437       2438       2449       2448  
      2317       2318       2329       2328       2438       2439       2450       2449  
      2318       2319       2330       2329       2439       2440       2451       2450  
      2319       2320       2331       2330       2440       2441       2452       2451  
      2320       2321       2332       2331       2441       2442       2453       2452  
      2322       2323       2334       2333       2443       2444       2455       2454  
      2323       2324       2335       2334       2444       2445       2456       2455  
      2324       2325       2336       2335       2445       2446       2457       2456  
      2325       2326       2337       2336       2446       2447       2458       2457  
      2326       2327       2338       2337       2447       2448       2459       2458  
      2327       2328       2339       2338       2448       2449       2460       2459  
      2328       2329       2340       2339       2449       2450       2461       2460  
      2329       2330       2341       2340       2450       2451       2462       2461  
      2330       2331       2342       2341       2451       2452       2463       2462  
      2331       2332       2343       2342       2452       2453       2464       2463  
      2333       2334       2345       2344       2454       2455       2466       2465  
      2334       2335       2346       2345       2455       2456       2467       2466  
      2335       2336       2347       2346       2456       2457       2468       2467  
      2336       2337       2348       2347       2457       2458       2469       2468  
      2337       2338       2349       2348       2458       2459       2470       2469  
      2338       2339       2350       2349       2459       2460       2471       2470  
      2339       2340       2351       2350       2460       2461       2472       2471  
      2340       2341       2352       2351       2461       2462       2473       2472  
      2341       2342       2353       2352       2462       2463       2474       2473  
      2342       2343       2354       2353       2463       2464       2475       2474  
      2344       2345       2356       2355       2465       2466       2477       2476  
      2345       2346       2357       2356       2466       2467       2478       2477  
      2346       2347       2358       2357       2467       2468       2479       2478  
      2347       2348       2359       2358       2468       2469       2480       2479  
      2348       2349       2360       2359       2469       2470       2481       2480  
      2349       2350       2361       2360       2470       2471       2482       2481  
      2350       2351       2362       2361       2471       2472       2483       2482  
      2351       2352       2363       2362       2472       2473       2484       2483  
      2352       2353       2364       2363       2473       2474       2485       2484  
      2353       2354       2365       2364       2474       2475       2486       2485  
      2355       2356       2367       2366       2476       2477       2488       2487  
      2356       2357       2368       2367       2477       2478       2489       2488  
      2357       2358       2369       2368       2478       2479       2490       2489  
      2358       2359       2370       2369       2479       2480       2491       2490  
      2359       2360       2371       2370       2480       2481       2492       2491  
      2360       2361       2372       2371       2481       2482       2493       2492  
      2361       2362       2373       2372       2482       2483       2494       2493  
      2362       2363       2374       2373       2483       2484       2495       2494  
      2363       2364       2375       2374       2484       2485       2496       2495  
      2364       2365       2376       2375       2485       2486       2497       2496  
      2366       2367       2378       2377       2487       2488       2499       2498  
      2367       2368       2379       2378       2488       2489       2500       2499  
      2368       2369       2380       2379       2489       2490       2501       2500  
      2369       2370       2381       2380       2490       2491       2502       2501  
      2370       2371       2382       2381       2491       2492       2503       2502  
      2371       2372       2383       2382       2492       2493       2504       2503  
      2372       2373       2384       2383       2493       2494       2505       2504  
      2373       2374       2385       2384       2494       2495       2506       2505  
      2374       2375       2386       2385       2495       2496       2507       2506  
      2375       2376       2387       2386       2496       2497       2508       2507  
      2377       2378       2389       2388       2498       2499       2510       2509  
      2378       2379       2390       2389       2499       2500       2511       2510  
      2379       2380       2391       2390       2500       2501       2512       2511  
      2380       2381       2392       2391       2501       2502       2513       2512  
      2381       2382       2393       2392       2502       2503       2514       2513  
      2382       2383       2394       2393       2503       2504       2515       2514  
      2383       2384       2395       2394       2504       2505       2516       2515  
      2384       2385       2396       2395       2505       2506       2517       2516  
      2385       2386       2397       2396       2506       2507       2518       2517  
      2386       2387       2398       2397       2507       2508       2519       2518  
      2388       2389       2400       2399       2509       2510       2521       2520  
      2389       2390       2401       2400       2510       2511       2522       2521  
      2390       2391       2402       2401       2511       2512       2523       2522  
      2391       2392       2403       2402       2512       2513       2524       2523  
      2392       2393       2404       2403       2513       2514       2525       2524  
      2393       2394       2405       2404       2514       2515       2526       2525  
      2394       2395       2406       2405       2515       2516       2527       2526  
      2395       2396       2407       2406       2516       2517       2528       2527  
      2396       2397       2408       2407       2517       2518       2529       2528  
      2397       2398       2409       2408       2518       2519       2530       2529  
      2399       2400       2411       2410       2520       2521       2532       2531  
      2400       2401       2412       2411       2521       2522       2533       2532  
      2401       2402       2413       2412       2522       2523       2534       2533  
      2402       2403       2414       2413       2523       2524       2535       2534  
      2403       2404       2415       2414       2524       2525       2536       2535  
      2404       2405       2416       2415       2525       2526       2537       2536  
      2405       2406       2417       2416       2526       2527       2538       2537  
      2406       2407       2418       2417       2527       2528       2539       2538  
      2407       2408       2419       2418       2528       2529       2540       2539  
      2408       2409       2420       2419       2529       2530       2541       2540  
      2421       2422       2433       2432       2542       2543       2554       2553  
      2422       2423       2434       2433       2543       2544       2555       2554  
      2423       2424       2435       2434       2544       2545       2556       2555  
      2424       2425       2436       2435       2545       2546       2557       2556  
      2425       2426       2437       2436       2546       2547       2558       2557  
      2426       2427       2438       2437       2547       2548       2559       2558  
      2427       2428       2439       2438       2548       2549       2560       2559  
      2428       2429       2440       2439       2549       2550       2561       2560  
      2429       2430       2441       2440       2550       2551       2562       2561  
      2430       2431       2442       2441       2551       2552       2563       2562  
      2432       2433       2444       2443       2553       2554       2565       2564  
      2433       2434       2445       2444       2554       2555       2566       2565  
      2434       2435       2446       2445       2555       2556       2567       2566  
      2435       2436       2447       2446       2556       2557       2568       2567  
      2436       2437       2448       2447       2557       2558       2569       2568  
      2437       2438       2449       2448       2558       2559       2570       2569  
      2438       2439       2450       2449       2559       2560       2571       2570  
      2439       2440       2451       2450       2560       2561       2572       2571  
      2440       2441       2452       2451       2561       2562       2573       2572  
      2441       2442       2453       2452       2562       2563       2574       2573  
      2443       2444       2455       2454       2564       2565       2576       2575  
      2444       2445       2456       2455       2565       2566       2577       2576  
      2445       2446       2457       2456       2566       2567       2578       2577  
      2446       2447       2458       2457       2567       2568       2579       2578  
      2447       2448       2459       2458       2568       2569       2580       2579  
      2448       2449       2460       2459       2569       2570       2581       2580  
      2449       2450       2461       2460       2570       2571       2582       2581  
      2450       2451       2462       2461       2571       2572       2583       2582  
      2451       2452       2463       2462       2572       2573       2584       2583  
      2452       2453       2464       2463       2573       2574       2585       2584  
      2454       2455       2466       2465       2575       2576       2587       2586  
      2455       2456       2467       2466       2576       2577       2588       2587  
      2456       2457       2468       2467       2577       2578       2589       2588  
      2457       2458       2469       2468       2578       2579       2590       2589  
      2458       2459       2470       2469       2579       2580       2591       2590  
      2459       2460       2471       2470       2580       2581       2592       2591  
      2460       2461       2472       2471       2581       2582       2593       2592  
      2461       2462       2473       2472       2582       2583       2594       2593  
      2462       2463       2474       2473       2583       2584       2595       2594  
      2463       2464       2475       2474       2584       2585       2596       2595  
      2465       2466       2477       2476       2586       2587       2598       2597  
      2466       2467       2478       2477       2587       2588       2599       2598  
      2467       2468       2479       2478       2588       2589       2600       2599  
      2468       2469       2480       2479       2589       2590       2601       2600  
      2469       2470       2481       2480       2590       2591       2602       2601  
      2470       2471       2482       2481       2591       2592       2603       2602  
      2471       2472       2483       2482       2592       2593       2604       2603  
      2472       2473       2484       2483       2593       2594       2605       2604  
      2473       2474       2485       2484       2594       2595       2606       2605  
      2474       2475       2486       2485       2595       2596       2607       2606  
      2476       2477       2488       2487       2597       2598       2609       2608  
      2477       2478       2489       2488       2598       2599       2610       2609  
      2478       2479       2490       2489       2599       2600       2611       2610  
      2479       2480       2491       2490       2600       2601       2612       2611  
      2480       2481       2492       2491       2601       2602       2613       2612  
      2481       2482       2493       2492       2602       2603       2614       2613  
      2482       2483       2494       2493       2603       2604       2615       2614  
      2483       2484       2495       2494       2604       2605       2616       2615  
      2484       2485       2496       2495       2605       2606       2617       2616  
      2485       2486       2497       2496       2606       2607       2618       2617  
      2487       2488       2499       2498       2608       2609       2620       2619  
      2488       2489       2500       2499       2609       2610       2621       2620  
      2489       2490       2501       2500       2610       2611       2622       2621  
      2490       2491       2502       2501       2611       2612       2623       2622  
      2491       2492       2503       2502       2612       2613       2624       2623  
      2492       2493       2504       2503       2613       2614       2625       2624  
      2493       2494       2505       2504       2614       2615       2626       2625  
      2494       2495       2506       2505       2615       2616       2627       2626  
      2495       2496       2507       2506       2616       2617       2628       2627  
      2496       2497       2508       2507       2617       2618       2629       2628  
      2498       2499       2510       2509       2619       2620       2631       2630  
      2499       2500       2511       2510       2620       2621       2632       2631  
      2500       2501       2512       2511       2621       2622       2633       2632  
      2501       2502       2513       2512       2622       2623       2634       2633  
      2502       2503       2514       2513       2623       2624       2635       2634  
      2503       2504       2515       2514       2624       2625       2636       2635  
      2504       2505       2516       2515       2625       2626       2637       2636  
      2505       2506       2517       2516       2626       2627       2638       2637  
      2506       2507       2518       2517       2627       2628       2639       2638  
      2507       2508       2519       2518       2628       2629       2640       2639  
      2509       2510       2521       2520       2630       2631       2642       2641  
      2510       2511       2522       2521       2631       2632       2643       2642  
      2511       2512       2523       2522       2632       2633       2644       2643  
      2512       2513       2524       2523       2633       2634       2645       2644  
      2513       2514       2525       2524       2634       2635       2646       2645  
      2514       2515       2526       2525       2635       2636       2647       2646  
      2515       2516       2527       2526       2636       2637       2648       2647  
      2516       2517       2528       2527       2637       2638       2649       2648  
      2517       2518       2529       2528       2638       2639       2650       2649  
      2518       2519       2530       2529       2639       2640       2651       2650  
      2520       2521       2532       2531       2641       2642       2653       2652  
      2521       2522       2533       2532       2642       2643       2654       2653  
      2522       2523       2534       2533       2643       2644       2655       2654  
      2523       2524       2535       2534       2644       2645       2656       2655  
      2524       2525       2536       2535       2645       2646       2657       2656  
      2525       2526       2537       2536       2646       2647       2658       2657  
      2526       2527       2538       2537       2647       2648       2659       2658  
      2527       2528       2539       2538       2648       2649       2660       2659  
      2528       2529       2540       2539       2649       2650       2661       2660  
      2529       2530       2541       2540       2650       2651       2662       2661  
      2542       2543       2554       2553       2663       2664       2675       2674  
      2543       2544       2555       2554       2664       2665       2676       2675  
      2544       2545       2556       2555       2665       2666       2677       2676  
      2545       2546       2557       2556       2666       2667       2678       2677  
      2546       2547       2558       2557       2667       2668       2679       2678  
      2547       2548       2559       2558       2668       2669       2680       2679  
      2548       2549       2560       2559       2669       2670       2681       2680  
      2549       2550       2561       2560       2670       2671       2682       2681  
      2550       2551       2562       2561       2671       2672       2683       2682  
      2551       2552       2563       2562       2672       2673       2684       2683  
      2553       2554       2565       2564       2674       2675       2686       2685  
      2554       2555       2566       2565       2675       2676       2687       2686  
      2555       2556       2567       2566       2676       2677       2688       2687  
      2556       2557       2568       2567       2677       2678       2689       2688  
      2557       2558       2569       2568       2678       2679       2690       2689  
      2558       2559       2570       2569       2679       2680       2691       2690  
      2559       2560       2571       2570       2680       2681       2692       2691  
      2560       2561       2572       2571       2681       2682       2693       2692  
      2561       2562       2573       2572       2682       2683       2694       2693  
      2562       2563       2574       2573       2683       2684       2695       2694  
      2564       2565       2576       2575       2685       2686       2697       2696  
      2565       2566       2577       2576       2686       2687       2698       2697  
      2566       2567       2578       2577       2687       2688       2699       2698  
      2567       2568       2579       2578       2688       2689       2700       2699  
      2568       2569       2580       2579       2689       2690       2701       2700  
      2569       2570       2581       2580       2690       2691       2702       2701  
      2570       2571       2582       2581       2691       2692       2703       2702  
      2571       2572       2583       2582       2692       2693       2704       2703  
      2572       2573       2584       2583       2693       2694       2705       2704  
      2573       2574       2585       2584       2694       2695       2706       2705  
      2575       2576       2587       2586       2696       2697       2708       2707  
      2576       2577       2588       2587       2697       2698       2709       2708  
      2577       2578       2589       2588       2698       2699       2710       2709  
      2578       2579       2590       2589       2699       2700       2711       2710  
      2579       2580       2591       2590       2700       2701       2712       2711  
      2580       2581       2592       2591       2701       2702       2713       2712  
      2581       2582       2593       2592       2702       2703       2714       2713  
      2582       2583       2594       2593       2703       2704       2715       2714  
      2583       2584       2595       2594       2704       2705       2716       2715  
      2584       2585       2596       2595       2705       2706       2717       2716  
      2586       2587       2598       2597       2707       2708       2719       2718  
      2587       2588       2599       2598       2708       2709       2720       2719  
      2588       2589       2600       2599       2709       2710       2721       2720  
      2589       2590       2601       2600       2710       2711       2722       2721  
      2590       2591       2602       2601       2711       2712       2723       2722  
      2591       2592       2603       2602       2712       2713       2724       2723  
      2592       2593       2604       2603       2713       2714       2725       2724  
      2593       2594       2605       2604       2714       2715       2726       2725  
      2594       2595       2606       2605       2715       2716       2727       2726  
      2595       2596       2607       2606       2716       2717       2728       2727  
      2597       2598       2609       2608       2718       2719       2730       2729  
      2598       2599       2610       2609       2719       2720       2731       2730  
      2599       2600       2611       2610       2720       2721       2732       2731  
      2600       2601       2612       2611       2721       2722       2733       2732  
      2601       2602       2613       2612       2722       2723       2734       2733  
      2602       2603       2614       2613       2723       2724       2735       2734  
      2603       2604       2615       2614       2724       2725       2736       2735  
      2604       2605       2616       2615       2725       2726       2737       2736  
      2605       2606       2617       2616       2726       2727       2738       2737  
      2606       2607       2618       2617       2727       2728       2739       2738  
      2608       2609       2620       2619       2729       2730       2741       2740  
      2609       2610       2621       2620       2730       2731       2742       2741  
      2610       2611       2622       2621       2731       2732       2743       2742  
      2611       2612       2623       2622       2732       2733       2744       2743  
      2612       2613       2624       2623       2733       2734       2745       2744  
      2613       2614       2625       2624       2734       2735       2746       2745  
      2614       2615       2626       2625       2735       2736       2747       2746  
      2615       2616       2627       2626       2736       2737       2748       2747  
      2616       2617       2628       2627       2737       2738       2749       2748  
      2617       2618       2629       2628       2738       2739       2750       2749  
      2619       2620       2631       2630       2740       2741       2752       2751  
      2620       2621       2632       2631       2741       2742       2753       2752  
      2621       2622       2633       2632       2742       2743       2754       2753  
      2622       2623       2634       2633       2743       2744       2755       2754  
      2623       2624       2635       2634       2744       2745       2756       2755  
      2624       2625       2636       2635       2745       2746       2757       2756  
      2625       2626       2637       2636       2746       2747       2758       2757  
      2626       2627       2638       2637       2747       2748       2759       2758  
      2627       2628       2639       2638       2748       2749       2760       2759  
      2628       2629       2640       2639       2749       2750       2761       2760  
      2630       2631       2642       2641       2751       2752       2763       2762  
      2631       2632       2643       2642       2752       2753       2764       2763  
      2632       2633       2644       2643       2753       2754       2765       2764  
      2633       2634       2645       2644       2754       2755       2766       2765  
      2634       2635       2646       2645       2755       2756       2767       2766  
      2635       2636       2647       2646       2756       2757       2768       2767  
      2636       2637       2648       2647       2757       2758       2769       2768  
      2637       2638       2649       2648       2758       2759       2770       2769  
      2638       2639       2650       2649       2759       2760       2771       2770  
      2639       2640       2651       2650       2760       2761       2772       2771  
      2641       2642       2653       2652       2762       2763       2774       2773  
      2642       2643       2654       2653       2763       2764       2775       2774  
      2643       2644       2655       2654       2764       2765       2776       2775  
      2644       2645       2656       2655       2765       2766       2777       2776  
      2645       2646       2657       2656       2766       2767       2778       2777  
      2646       2647       2658       2657       2767       2768       2779       2778  
      2647       2648       2659       2658       2768       2769       2780       2779  
      2648       2649       2660       2659       2769       2770       2781       2780  
      2649       2650       2661       2660       2770       2771       2782       2781  
      2650       2651       2662       2661       2771       2772       2783       2782  
      2663       2664       2675       2674       2784       2785       2796       2795  
      2664       2665       2676       2675       2785       2786       2797       2796  
      2665       2666       2677       2676       2786       2787       2798       2797  
      2666       2667       2678       2677       2787       2788       2799       2798  
      2667       2668       2679       2678       2788       2789       2800       2799  
      2668       2669       2680       2679       2789       2790       2801       2800  
      2669       2670       2681       2680       2790       2791       2802       2801  
      2670       2671       2682       2681       2791       2792       2803       2802  
      2671       2672       2683       2682       2792       2793       2804       2803  
      2672       2673       2684       2683       2793       2794       2805       2804  
      2674       2675       2686       2685       2795       2796       2807       2806  
      2675       2676       2687       2686       2796       2797       2808       2807  
      2676       2677       2688       2687       2797       2798       2809       2808  
      2677       2678       2689       2688       2798       2799       2810       2809  
      2678       2679       2690       2689       2799       2800       2811       2810  
      2679       2680       2691       2690       2800       2801       2812       2811  
      2680       2681       2692       2691       2801       2802       2813       2812  
      2681       2682       2693       2692       2802       2803       2814       2813  
      2682       2683       2694       2693       2803       2804       2815       2814  
      2683       2684       2695       2694       2804       2805       2816       2815  
      2685       2686       2697       2696       2806       2807       2818       2817  
      2686       2687       2698       2697       2807       2808       2819       2818  
      2687       2688       2699       2698       2808       2809       2820       2819  
      2688       2689       2700       2699       2809       2810       2821       2820  
      2689       2690       2701       2700       2810       2811       2822       2821  
      2690       2691       2702       2701       2811       2812       2823       2822  
      2691       2692       2703       2702       2812       2813       2824       2823  
      2692       2693       2704       2703       2813       2814       2825       2824  
      2693       2694       2705       2704       2814       2815       2826       2825  
      2694       2695       2706       2705       2815       2816       2827       2826  
      2696       2697       2708       2707       2817       2818       2829       2828  
      2697       2698       2709       2708       2818       2819       2830       2829  
      2698       2699       2710       2709       2819       2820       2831       2830  
      2699       2700       2711       2710       2820       2821       2832       2831  
      2700       2701       2712       2711       2821       2822       2833       2832  
      2701       2702       2713       2712       2822       2823       2834       2833  
      2702       2703       2714       2713       2823       2824       2835       2834  
      2703       2704       2715       2714       2824       2825       2836       2835  
      2704       2705       2716       2715       2825       2826       2837       2836  
      2705       2706       2717       2716       2826       2827       2838       2837  
      2707       2708       2719       2718       2828       2829       2840       2839  
      2708       2709       2720       2719       2829       2830       2841       2840  
      2709       2710       2721       2720       2830       2831       2842       2841  
      2710       2711       2722       2721       2831       2832       2843       2842  
      2711       2712       2723       2722       2832       2833       2844       2843  
      2712       2713       2724       2723       2833       2834       2845       2844  
      2713       2714       2725       2724       2834       2835       2846       2845  
      2714       2715       2726       2725       2835       2836       2847       2846  
      2715       2716       2727       2726       2836       2837       2848       2847  
      2716       2717       2728       2727       2837       2838       2849       2848  
      2718       2719       2730       2729       2839       2840       2851       2850  
      2719       2720       2731       2730       2840       2841       2852       2851  
      2720       2721       2732       2731       2841       2842       2853       2852  
      2721       2722       2733       2732       2842       2843       2854       2853  
      2722       2723       2734       2733       2843       2844       2855       2854  
      2723       2724       2735       2734       2844       2845       2856       2855  
      2724       2725       2736       2735       2845       2846       2857       2856  
      2725       2726       2737       2736       2846       2847       2858       2857  
      2726       2727       2738       2737       2847       2848       2859       2858  
      2727       2728       2739       2738       2848       2849       2860       2859  
      2729       2730       2741       2740       2850       2851       2862       2861  
      2730       2731       2742       2741       2851       2852       2863       2862  
      2731       2732       2743       2742       2852       2853       2864       2863  
      2732       2733       2744       2743       2853       2854       2865       2864  
      2733       2734       2745       2744       2854       2855       2866       2865  
      2734       2735       2746       2745       2855       2856       2867       2866  
      2735       2736       2747       2746       2856       2857       2868       2867  
      2736       2737       2748       2747       2857       2858       2869       2868  
      2737       2738       2749       2748       2858       2859       2870       2869  
      2738       2739       2750       2749       2859       2860       2871       2870  
      2740       2741       2752       2751       2861       2862       2873       2872  
      2741       2742       2753       2752       2862       2863       2874       2873  
      2742       2743       2754       2753       2863       2864       2875       2874  
      2743       2744       2755       2754       2864       2865       2876       2875  
      2744       2745       2756       2755       2865       2866       2877       2876  
      2745       2746       2757       2756       2866       2867       2878       2877  
      2746       2747       2758       2757       2867       2868       2879       2878  
      2747       2748       2759       2758       2868       2869       2880       2879  
      2748       2749       2760       2759       2869       2870       2881       2880  
      2749       2750       2761       2760       2870       2871       2882       2881  
      2751       2752       2763       2762       2872       2873       2884       2883  
      2752       2753       2764       2763       2873       2874       2885       2884  
      2753       2754       2765       2764       2874       2875       2886       2885  
      2754       2755       2766       2765       2875       2876       2887       2886  
      2755       2756       2767       2766       2876       2877       2888       2887  
      2756       2757       2768       2767       2877       2878       2889       2888  
      2757       2758       2769       2768       2878       2879       2890       2889  
      2758       2759       2770       2769       2879       2880       2891       2890  
      2759       2760       2771       2770       2880       2881       2892       2891  
      2760       2761       2772       2771       2881       2882       2893       2892  
      2762       2763       2774       2773       2883       2884       2895       2894  
      2763       2764       2775       2774       2884       2885       2896       2895  
      2764       2765       2776       2775       2885       2886       2897       2896  
      2765       2766       2777       2776       2886       2887       2898       2897  
      2766       2767       2778       2777       2887       2888       2899       2898  
      2767       2768       2779       2778       2888       2889       2900       2899  
      2768       2769       2780       2779       2889       2890       2901       2900  
      2769       2770       2781       2780       2890       2891       2902       2901  
      2770       2771       2782       2781       2891       2892       2903       2902  
      2771       2772       2783       2782       2892       2893       2904       2903  
      2784       2785       2796       2795       2905       2906       2917       2916  
      2785       2786       2797       2796       2906       2907       2918       2917  
      2786       2787       2798       2797       2907       2908       2919       2918  
      2787       2788       2799       2798       2908       2909       2920       2919  
      2788       2789       2800       2799       2909       2910       2921       2920  
      2789       2790       2801       2800       2910       2911       2922       2921  
      2790       2791       2802       2801       2911       2912       2923       2922  
      2791       2792       2803       2802       2912       2913       2924       2923  
      2792       2793       2804       2803       2913       2914       2925       2924  
      2793       2794       2805       2804       2914       2915       2926       2925  
      2795       2796       2807       2806       2916       2917       2928       2927  
      2796       2797       2808       2807       2917       2918       2929       2928  
      2797       2798       2809       2808       2918       2919       2930       2929  
      2798       2799       2810       2809       2919       2920       2931       2930  
      2799       2800       2811       2810       2920       2921       2932       2931  
      2800       2801       2812       2811       2921       2922       2933       2932  
      2801       2802       2813       2812       2922       2923       2934       2933  
      2802       2803       2814       2813       2923       2924       2935       2934  
      2803       2804       2815       2814       2924       2925       2936       2935  
      2804       2805       2816       2815       2925       2926       2937       2936  
      2806       2807       2818       2817       2927       2928       2939       2938  
      2807       2808       2819       2818       2928       2929       2940       2939  
      2808       2809       2820       2819       2929       2930       2941       2940  
      2809       2810       2821       2820       2930       2931       2942       2941  
      2810       2811       2822       2821       2931       2932       2943       2942  
      2811       2812       2823       2822       2932       2933       2944       2943  
      2812       2813       2824       2823       2933       2934       2945       2944  
      2813       2814       2825       2824       2934       2935       2946       2945  
      2814       2815       2826       2825       2935       2936       2947       2946  
      2815       2816       2827       2826       2936       2937       2948       2947  
      2817       2818       2829       2828       2938       2939       2950       2949  
      2818       2819       2830       2829       2939       2940       2951       2950  
      2819       2820       2831       2830       2940       2941       2952       2951  
      2820       2821       2832       2831       2941       2942       2953       2952  
      2821       2822       2833       2832       2942       2943       2954       2953  
      2822       2823       2834       2833       2943       2944       2955       2954  
      2823       2824       2835       2834       2944       2945       2956       2955  
      2824       2825       2836       2835       2945       2946       2957       2956  
      2825       2826       2837       2836       2946       2947       2958       2957  
      2826       2827       2838       2837       2947       2948       2959       2958  
      2828       2829       2840       2839       2949       2950       2961       2960  
      2829       2830       2841       2840       2950       2951       2962       2961  
      2830       2831       2842       2841       2951       2952       2963       2962  
      2831       2832       2843       2842       2952       2953       2964       2963  
      2832       2833       2844       2843       2953       2954       2965       2964  
      2833       2834       2845       2844       2954       2955       2966       2965  
      2834       2835       2846       2845       2955       2956       2967       2966  
      2835       2836       2847       2846       2956       2957       2968       2967  
      2836       2837       2848       2847       2957       2958       2969       2968  
      2837       2838       2849       2848       2958       2959       2970       2969  
      2839       2840       2851       2850       2960       2961       2972       2971  
      2840       2841       2852       2851       2961       2962       2973       2972  
      2841       2842       2853       2852       2962       2963       2974       2973  
      2842       2843       2854       2853       2963       2964       2975       2974  
      2843       2844       2855       2854       2964       2965       2976       2975  
      2844       2845       2856       2855       2965       2966       2977       2976  
      2845       2846       2857       2856       2966       2967       2978       2977  
      2846       2847       2858       2857       2967       2968       2979       2978  
      2847       2848       2859       2858       2968       2969       2980       2979  
      2848       2849       2860       2859       2969       2970       2981       2980  
      2850       2851       2862       2861       2971       2972       2983       2982  
      2851       2852       2863       2862       2972       2973       2984       2983  
      2852       2853       2864       2863       2973       2974       2985       2984  
      2853       2854       2865       2864       2974       2975       2986       2985  
      2854       2855       2866       2865       2975       2976       2987       2986  
      2855       2856       2867       2866       2976       2977       2988       2987  
      2856       2857       2868       2867       2977       2978       2989       2988  
      2857       2858       2869       2868       2978       2979       2990       2989  
      2858       2859       2870       2869       2979       2980       2991       2990  
      2859       2860       2871       2870       2980       2981       2992       2991  
      2861       2862       2873       2872       2982       2983       2994       2993  
      2862       2863       2874       2873       2983       2984       2995       2994  
      2863       2864       2875       2874       2984       2985       2996       2995  
      2864       2865       2876       2875       2985       2986       2997       2996  
      2865       2866       2877       2876       2986       2987       2998       2997  
      2866       2867       2878       2877       2987       2988       2999       2998  
      2867       2868       2879       2878       2988       2989       3000       2999  
      2868       2869       2880       2879       2989       2990       3001       3000  
      2869       2870       2881       2880       2990       2991       3002       3001  
      2870       2871       2882       2881       2991       2992       3003       3002  
      2872       2873       2884       2883       2993       2994       3005       3004  
      2873       2874       2885       2884       2994       2995       3006       3005  
      2874       2875       2886       2885       2995       2996       3007       3006  
      2875       2876       2887       2886       2996       2997       3008       3007  
      2876       2877       2888       2887       2997       2998       3009       3008  
      2877       2878       2889       2888       2998       2999       3010       3009  
      2878       2879       2890       2889       2999       3000       3011       3010  
      2879       2880       2891       2890       3000       3001       3012       3011  
      2880       2881       2892       2891       3001       3002       3013       3012  
      2881       2882       2893       2892       3002       3003       3014       3013  
      2883       2884       2895       2894       3004       3005       3016       3015  
      2884       2885       2896       2895       3005       3006       3017       3016  
      2885       2886       2897       2896       3006       3007       3018       3017  
      2886       2887       2898       2897       3007       3008       3019       3018  
      2887       2888       2899       2898       3008       3009       3020       3019  
      2888       2889       2900       2899       3009       3010       3021       3020  
      2889       2890       2901       2900       3010       3011       3022       3021  
      2890       2891       2902       2901       3011       3012       3023       3022  
      2891       2892       2903       2902       3012       3013       3024       3023  
      2892       2893       2904       2903       3013       3014       3025       3024  
      2905       2906       2917       2916       3026       3027       3038       3037  
      2906       2907       2918       2917       3027       3028       3039       3038  
      2907       2908       2919       2918       3028       3029       3040       3039  
      2908       2909       2920       2919       3029       3030       3041       3040  
      2909       2910       2921       2920       3030       3031       3042       3041  
      2910       2911       2922       2921       3031       3032       3043       3042  
      2911       2912       2923       2922       3032       3033       3044       3043  
      2912       2913       2924       2923       3033       3034       3045       3044  
      2913       2914       2925       2924       3034       3035       3046       3045  
      2914       2915       2926       2925       3035       3036       3047       3046  
      2916       2917       2928       2927       3037       3038       3049       3048  
      2917       2918       2929       2928       3038       3039       3050       3049  
      2918       2919       2930       2929       3039       3040       3051       3050  
      2919       2920       2931       2930       3040       3041       3052       3051  
      2920       2921       2932       2931       3041       3042       3053       3052  
      2921       2922       2933       2932       3042       3043       3054       3053  
      2922       2923       2934       2933       3043       3044       3055       3054  
      2923       2924       2935       2934       3044       3045       3056       3055  
      2924       2925       2936       2935       3045       3046       3057       3056  
      2925       2926       2937       2936       3046       3047       3058       3057  
      2927       2928       2939       2938       3048       3049       3060       3059  
      2928       2929       2940       2939       3049       3050       3061       3060  
      2929       2930       2941       2940       3050       3051       3062       3061  
      2930       2931       2942       2941       3051       3052       3063       3062  
      2931       2932       2943       2942       3052       3053       3064       3063  
      2932       2933       2944       2943       3053       3054       3065       3064  
      2933       2934       2945       2944       3054       3055       3066       3065  
      2934       2935       2946       2945       3055       3056       3067       3066  
      2935       2936       2947       2946       3056       3057       3068       3067  
      2936       2937       2948       2947       3057       3058       3069       3068  
      2938       2939       2950       2949       3059       3060       3071       3070  
      2939       2940       2951       2950       3060       3061       3072       3071  
      2940       2941       2952       2951       3061       3062       3073       3072  
      2941       2942       2953       2952       3062       3063       3074       3073  
      2942       2943       2954       2953       3063       3064       3075       3074  
      2943       2944       2955       2954       3064       3065       3076       3075  
      2944       2945       2956       2955       3065       3066       3077       3076  
      2945       2946       2957       2956       3066       3067       3078       3077  
      2946       2947       2958       2957       3067       3068       3079       3078  
      2947       2948       2959       2958       3068       3069       3080       3079  
      2949       2950       2961       2960       3070       3071       3082       3081  
      2950       2951       2962       2961       3071       3072       3083       3082  
      2951       2952       2963       2962       3072       3073       3084       3083  
      2952       2953       2964       2963       3073       3074       3085       3084  
      2953       2954       2965       2964       3074       3075       3086       3085  
      2954       2955       2966       2965       3075       3076       3087       3086  
      2955       2956       2967       2966       3076       3077       3088       3087  
      2956       2957       2968       2967       3077       3078       3089       3088  
      2957       2958       2969       2968       3078       3079       3090       3089  
      2958       2959       2970       2969       3079       3080       3091       3090  
      2960       2961       2972       2971       3081       3082       3093       3092  
      2961       2962       2973       2972       3082       3083       3094       3093  
      2962       2963       2974       2973       3083       3084       3095       3094  
      2963       2964       2975       2974       3084       3085       3096       3095  
      2964       2965       2976       2975       3085       3086       3097       3096  
      2965       2966       2977       2976       3086       3087       3098       3097  
      2966       2967       2978       2977       3087       3088       3099       3098  
      2967       2968       2979       2978       3088       3089       3100       3099  
      2968       2969       2980       2979       3089       3090       3101       3100  
      2969       2970       2981       2980       3090       3091       3102       3101  
      2971       2972       2983       2982       3092       3093       3104       3103  
      2972       2973       2984       2983       3093       3094       3105       3104  
      2973       2974       2985       2984       3094       3095       3106       3105  
      2974       2975       2986       2985       3095       3096       3107       3106  
      2975       2976       2987       2986       3096       3097       3108       3107  
      2976       2977       2988       2987       3097       3098       3109       3108  
      2977       2978       2989       2988       3098       3099       3110       3109  
      2978       2979       2990       2989       3099       3100       3111       3110  
      2979       2980       2991       2990       3100       3101       3112       3111  
      2980       2981       2992       2991       3101       3102       3113       3112  
      2982       2983       2994       2993       3103       3104       3115       3114  
      2983       2984       2995       2994       3104       3105       3116       3115  
      2984       2985       2996       2995       3105       3106       3117       3116  
      2985       2986       2997       2996       3106       3107       3118       3117  
      2986       2987       2998       2997       3107       3108       3119       3118  
      2987       2988       2999       2998       3108       3109       3120       3119  
      2988       2989       3000       2999       3109       3110       3121       3120  
      2989       2990       3001       3000       3110       3111       3122       3121  
      2990       2991       3002       3001       3111       3112       3123       3122  
      2991       2992       3003       3002       3112       3113       3124       3123  
      2993       2994       3005       3004       3114       3115       3126       3125  
      2994       2995       3006       3005       3115       3116       3127       3126  
      2995       2996       3007       3006       3116       3117       3128       3127  
      2996       2997       3008       3007       3117       3118       3129       3128  
      2997       2998       3009       3008       3118       3119       3130       3129  
      2998       2999       3010       3009       3119       3120       3131       3130  
      2999       3000       3011       3010       3120       3121       3132       3131  
      3000       3001       3012       3011       3121       3122       3133       3132  
      3001       3002       3013       3012       3122       3123       3134       3133  
      3002       3003       3014       3013       3123       3124       3135       3134  
      3004       3005       3016       3015       3125       3126       3137       3136  
      3005       3006       3017       3016       3126       3127       3138       3137  
      3006       3007       3018       3017       3127       3128       3139       3138  
      3007       3008       3019       3018       3128       3129       3140       3139  
      3008       3009       3020       3019       3129       3130       3141       3140  
      3009       3010       3021       3020       3130       3131       3142       3141  
      3010       3011       3022       3021       3131       3132       3143       3142  
      3011       3012       3023       3022       3132       3133       3144       3143  
      3012       3013       3024       3023       3133       3134       3145       3144  
      3013       3014       3025       3024       3134       3135       3146       3145  
      3026       3027       3038       3037       3147       3148       3159       3158  
      3027       3028       3039       3038       3148       3149       3160       3159  
      3028       3029       3040       3039       3149       3150       3161       3160  
      3029       3030       3041       3040       3150       3151       3162       3161  
      3030       3031       3042       3041       3151       3152       3163       3162  
      3031       3032       3043       3042       3152       3153       3164       3163  
      3032       3033       3044       3043       3153       3154       3165       3164  
      3033       3034       3045       3044       3154       3155       3166       3165  
      3034       3035       3046       3045       3155       3156       3167       3166  
      3035       3036       3047       3046       3156       3157       3168       3167  
      3037       3038       3049       3048       3158       3159       3170       3169  
      3038       3039       3050       3049       3159       3160       3171       3170  
      3039       3040       3051       3050       3160       3161       3172       3171  
      3040       3041       3052       3051       3161       3162       3173       3172  
      3041       3042       3053       3052       3162       3163       3174       3173  
      3042       3043       3054       3053       3163       3164       3175       3174  
      3043       3044       3055       3054       3164       3165       3176       3175  
      3044       3045       3056       3055       3165       3166       3177       3176  
      3045       3046       3057       3056       3166       3167       3178       3177  
      3046       3047       3058       3057       3167       3168       3179       3178  
      3048       3049       3060       3059       3169       3170       3181       3180  
      3049       3050       3061       3060       3170       3171       3182       3181  
      3050       3051       3062       3061       3171       3172       3183       3182  
      3051       3052       3063       3062       3172       3173       3184       3183  
      3052       3053       3064       3063       3173       3174       3185       3184  
      3053       3054       3065       3064       3174       3175       3186       3185  
      3054       3055       3066       3065       3175       3176       3187       3186  
      3055       3056       3067       3066       3176       3177       3188       3187  
      3056       3057       3068       3067       3177       3178       3189       3188  
      3057       3058       3069       3068       3178       3179       3190       3189  
      3059       3060       3071       3070       3180       3181       3192       3191  
      3060       3061       3072       3071       3181       3182       3193       3192  
      3061       3062       3073       3072       3182       3183       3194       3193  
      3062       3063       3074       3073       3183       3184       3195       3194  
      3063       3064       3075       3074       3184       3185       3196       3195  
      3064       3065       3076       3075       3185       3186       3197       3196  
      3065       3066       3077       3076       3186       3187       3198       3197  
      3066       3067       3078       3077       3187       3188       3199       3198  
      3067       3068       3079       3078       3188       3189       3200       3199  
      3068       3069       3080       3079       3189       3190       3201       3200  
      3070       3071       3082       3081       3191       3192       3203       3202  
      3071       3072       3083       3082       3192       3193       3204       3203  
      3072       3073       3084       3083       3193       3194       3205       3204  
      3073       3074       3085       3084       3194       3195       3206       3205  
      3074       3075       3086       3085       3195       3196       3207       3206  
      3075       3076       3087       3086       3196       3197       3208       3207  
      3076       3077       3088       3087       3197       3198       3209       3208  
      3077       3078       3089       3088       3198       3199       3210       3209  
      3078       3079       3090       3089       3199       3200       3211       3210  
      3079       3080       3091       3090       3200       3201       3212       3211  
      3081       3082       3093       3092       3202       3203       3214       3213  
      3082       3083       3094       3093       3203       3204       3215       3214  
      3083       3084       3095       3094       3204       3205       3216       3215  
      3084       3085       3096       3095       3205       3206       3217       3216  
      3085       3086       3097       3096       3206       3207       3218       3217  
      3086       3087       3098       3097       3207       3208       3219       3218  
      3087       3088       3099       3098       3208       3209       3220       3219  
      3088       3089       3100       3099       3209       3210       3221       3220  
      3089       3090       3101       3100       3210       3211       3222       3221  
      3090       3091       3102       3101       3211       3212       3223       3222  
      3092       3093       3104       3103       3213       3214       3225       3224  
      3093       3094       3105       3104       3214       3215       3226       3225  
      3094       3095       3106       3105       3215       3216       3227       3226  
      3095       3096       3107       3106       3216       3217       3228       3227  
      3096       3097       3108       3107       3217       3218       3229       3228  
      3097       3098       3109       3108       3218       3219       3230       3229  
      3098       3099       3110       3109       3219       3220       3231       3230  
      3099       3100       3111       3110       3220       3221       3232       3231  
      3100       3101       3112       3111       3221       3222       3233       3232  
      3101       3102       3113       3112       3222       3223       3234       3233  
      3103       3104       3115       3114       3224       3225       3236       3235  
      3104       3105       3116       3115       3225       3226       3237       3236  
      3105       3106       3117       3116       3226       3227       3238       3237  
      3106       3107       3118       3117       3227       3228       3239       3238  
      3107       3108       3119       3118       3228       3229       3240       3239  
      3108       3109       3120       3119       3229       3230       3241       3240  
      3109       3110       3121       3120       3230       3231       3242       3241  
      3110       3111       3122       3121       3231       3232       3243       3242  
      3111       3112       3123       3122       3232       3233       3244       3243  
      3112       3113       3124       3123       3233       3234       3245       3244  
      3114       3115       3126       3125       3235       3236       3247       3246  
      3115       3116       3127       3126       3236       3237       3248       3247  
      3116       3117       3128       3127       3237       3238       3249       3248  
      3117       3118       3129       3128       3238       3239       3250       3249  
      3118       3119       3130       3129       3239       3240       3251       3250  
      3119       3120       3131       3130       3240       3241       3252       3251  
      3120       3121       3132       3131       3241       3242       3253       3252  
      3121       3122       3133       3132       3242       3243       3254       3253  
      3122       3123       3134       3133       3243       3244       3255       3254  
      3123       3124       3135       3134       3244       3245       3256       3255  
      3125       3126       3137       3136       3246       3247       3258       3257  
      3126       3127       3138       3137       3247       3248       3259       3258  
      3127       3128       3139       3138       3248       3249       3260       3259  
      3128       3129       3140       3139       3249       3250       3261       3260  
      3129       3130       3141       3140       3250       3251       3262       3261  
      3130       3131       3142       3141       3251       3252       3263       3262  
      3131       3132       3143       3142       3252       3253       3264       3263  
      3132       3133       3144       3143       3253       3254       3265       3264  
      3133       3134       3145       3144       3254       3255       3266       3265  
      3134       3135       3146       3145       3255       3256       3267       3266  
      3147       3148       3159       3158       3268       3269       3280       3279  
      3148       3149       3160       3159       3269       3270       3281       3280  
      3149       3150       3161       3160       3270       3271       3282       3281  
      3150       3151       3162       3161       3271       3272       3283       3282  
      3151       3152       3163       3162       3272       3273       3284       3283  
      3152       3153       3164       3163       3273       3274       3285       3284  
      3153       3154       3165       3164       3274       3275       3286       3285  
      3154       3155       3166       3165       3275       3276       3287       3286  
      3155       3156       3167       3166       3276       3277       3288       3287  
      3156       3157       3168       3167       3277       3278       3289       3288  
      3158       3159       3170       3169       3279       3280       3291       3290  
      3159       3160       3171       3170       3280       3281       3292       3291  
      3160       3161       3172       3171       3281       3282       3293       3292  
      3161       3162       3173       3172       3282       3283       3294       3293  
      3162       3163       3174       3173       3283       3284       3295       3294  
      3163       3164       3175       3174       3284       3285       3296       3295  
      3164       3165       3176       3175       3285       3286       3297       3296  
      3165       3166       3177       3176       3286       3287       3298       3297  
      3166       3167       3178       3177       3287       3288       3299       3298  
      3167       3168       3179       3178       3288       3289       3300       3299  
      3169       3170       3181       3180       3290       3291       3302       3301  
      3170       3171       3182       3181       3291       3292       3303       3302  
      3171       3172       3183       3182       3292       3293       3304       3303  
      3172       3173       3184       3183       3293       3294       3305       3304  
      3173       3174       3185       3184       3294       3295       3306       3305  
      3174       3175       3186       3185       3295       3296       3307       3306  
      3175       3176       3187       3186       3296       3297       3308       3307  
      3176       3177       3188       3187       3297       3298       3309       3308  
      3177       3178       3189       3188       3298       3299       3310       3309  
      3178       3179       3190       3189       3299       3300       3311       3310  
      3180       3181       3192       3191       3301       3302       3313       3312  
      3181       3182       3193       3192       3302       3303       3314       3313  
      3182       3183       3194       3193       3303       3304       3315       3314  
      3183       3184       3195       3194       3304       3305       3316       3315  
      3184       3185       3196       3195       3305       3306       3317       3316  
      3185       3186       3197       3196       3306       3307       3318       3317  
      3186       3187       3198       3197       3307       3308       3319       3318  
      3187       3188       3199       3198       3308       3309       3320       3319  
      3188       3189       3200       3199       3309       3310       3321       3320  
      3189       3190       3201       3200       3310       3311       3322       3321  
      3191       3192       3203       3202       3312       3313       3324       3323  
      3192       3193       3204       3203       3313       3314       3325       3324  
      3193       3194       3205       3204       3314       3315       3326       3325  
      3194       3195       3206       3205       3315       3316       3327       3326  
      3195       3196       3207       3206       3316       3317       3328       3327  
      3196       3197       3208       3207       3317       3318       3329       3328  
      3197       3198       3209       3208       3318       3319       3330       3329  
      3198       3199       3210       3209       3319       3320       3331       3330  
      3199       3200       3211       3210       3320       3321       3332       3331  
      3200       3201       3212       3211       3321       3322       3333       3332  
      3202       3203       3214       3213       3323       3324       3335       3334  
      3203       3204       3215       3214       3324       3325       3336       3335  
      3204       3205       3216       3215       3325       3326       3337       3336  
      3205       3206       3217       3216       3326       3327       3338       3337  
      3206       3207       3218       3217       3327       3328       3339       3338  
      3207       3208       3219       3218       3328       3329       3340       3339  
      3208       3209       3220       3219       3329       3330       3341       3340  
      3209       3210       3221       3220       3330       3331       3342       3341  
      3210       3211       3222       3221       3331       3332       3343       3342  
      3211       3212       3223       3222       3332       3333       3344       3343  
      3213       3214       3225       3224       3334       3335       3346       3345  
      3214       3215       3226       3225       3335       3336       3347       3346  
      3215       3216       3227       3226       3336       3337       3348       3347  
      3216       3217       3228       3227       3337       3338       3349       3348  
      3217       3218       3229       3228       3338       3339       3350       3349  
      3218       3219       3230       3229       3339       3340       3351       3350  
      3219       3220       3231       3230       3340       3341       3352       3351  
      3220       3221       3232       3231       3341       3342       3353       3352  
      3221       3222       3233       3232       3342       3343       3354       3353  
      3222       3223       3234       3233       3343       3344       3355       3354  
      3224       3225       3236       3235       3345       3346       3357       3356  
      3225       3226       3237       3236       3346       3347       3358       3357  
      3226       3227       3238       3237       3347       3348       3359       3358  
      3227       3228       3239       3238       3348       3349       3360       3359  
      3228       3229       3240       3239       3349       3350       3361       3360  
      3229       3230       3241       3240       3350       3351       3362       3361  
      3230       3231       3242       3241       3351       3352       3363       3362  
      3231       3232       3243       3242       3352       3353       3364       3363  
      3232       3233       3244       3243       3353       3354       3365       3364  
      3233       3234       3245       3244       3354       3355       3366       3365  
      3235       3236       3247       3246       3356       3357       3368       3367  
      3236       3237       3248       3247       3357       3358       3369       3368  
      3237       3238       3249       3248       3358       3359       3370       3369  
      3238       3239       3250       3249       3359       3360       3371       3370  
      3239       3240       3251       3250       3360       3361       3372       3371  
      3240       3241       3252       3251       3361       3362       3373       3372  
      3241       3242       3253       3252       3362       3363       3374       3373  
      3242       3243       3254       3253       3363       3364       3375       3374  
      3243       3244       3255       3254       3364       3365       3376       3375  
      3244       3245       3256       3255       3365       3366       3377       3376  
      3246       3247       3258       3257       3367       3368       3379       3378  
      3247       3248       3259       3258       3368       3369       3380       3379  
      3248       3249       3260       3259       3369       3370       3381       3380  
      3249       3250       3261       3260       3370       3371       3382       3381  
      3250       3251       3262       3261       3371       3372       3383       3382  
      3251       3252       3263       3262       3372       3373       3384       3383  
      3252       3253       3264       3263       3373       3374       3385       3384  
      3253       3254       3265       3264       3374       3375       3386       3385  
      3254       3255       3266       3265       3375       3376       3387       3386  
      3255       3256       3267       3266       3376       3377       3388       3387  
      3268       3269       3280       3279       3389       3390       3401       3400  
      3269       3270       3281       3280       3390       3391       3402       3401  
      3270       3271       3282       3281       3391       3392       3403       3402  
      3271       3272       3283       3282       3392       3393       3404       3403  
      3272       3273       3284       3283       3393       3394       3405       3404  
      3273       3274       3285       3284       3394       3395       3406       3405  
      3274       3275       3286       3285       3395       3396       3407       3406  
      3275       3276       3287       3286       3396       3397       3408       3407  
      3276       3277       3288       3287       3397       3398       3409       3408  
      3277       3278       3289       3288       3398       3399       3410       3409  
      3279       3280       3291       3290       3400       3401       3412       3411  
      3280       3281       3292       3291       3401       3402       3413       3412  
      3281       3282       3293       3292       3402       3403       3414       3413  
      3282       3283       3294       3293       3403       3404       3415       3414  
      3283       3284       3295       3294       3404       3405       3416       3415  
      3284       3285       3296       3295       3405       3406       3417       3416  
      3285       3286       3297       3296       3406       3407       3418       3417  
      3286       3287       3298       3297       3407       3408       3419       3418  
      3287       3288       3299       3298       3408       3409       3420       3419  
      3288       3289       3300       3299       3409       3410       3421       3420  
      3290       3291       3302       3301       3411       3412       3423       3422  
      3291       3292       3303       3302       3412       3413       3424       3423  
      3292       3293       3304       3303       3413       3414       3425       3424  
      3293       3294       3305       3304       3414       3415       3426       3425  
      3294       3295       3306       3305       3415       3416       3427       3426  
      3295       3296       3307       3306       3416       3417       3428       3427  
      3296       3297       3308       3307       3417       3418       3429       3428  
      3297       3298       3309       3308       3418       3419       3430       3429  
      3298       3299       3310       3309       3419       3420       3431       3430  
      3299       3300       3311       3310       3420       3421       3432       3431  
      3301       3302       3313       3312       3422       3423       3434       3433  
      3302       3303       3314       3313       3423       3424       3435       3434  
      3303       3304       3315       3314       3424       3425       3436       3435  
      3304       3305       3316       3315       3425       3426       3437       3436  
      3305       3306       3317       3316       3426       3427       3438       3437  
      3306       3307       3318       3317       3427       3428       3439       3438  
      3307       3308       3319       3318       3428       3429       3440       3439  
      3308       3309       3320       3319       3429       3430       3441       3440  
      3309       3310       3321       3320       3430       3431       3442       3441  
      3310       3311       3322       3321       3431       3432       3443       3442  
      3312       3313       3324       3323       3433       3434       3445       3444  
      3313       3314       3325       3324       3434       3435       3446       3445  
      3314       3315       3326       3325       3435       3436       3447       3446  
      3315       3316       3327       3326       3436       3437       3448       3447  
      3316       3317       3328       3327       3437       3438       3449       3448  
      3317       3318       3329       3328       3438       3439       3450       3449  
      3318       3319       3330       3329       3439       3440       3451       3450  
      3319       3320       3331       3330       3440       3441       3452       3451  
      3320       3321       3332       3331       3441       3442       3453       3452  
      3321       3322       3333       3332       3442       3443       3454       3453  
      3323       3324       3335       3334       3444       3445       3456       3455  
      3324       3325       3336       3335       3445       3446       3457       3456  
      3325       3326       3337       3336       3446       3447       3458       3457  
      3326       3327       3338       3337       3447       3448       3459       3458  
      3327       3328       3339       3338       3448       3449       3460       3459  
      3328       3329       3340       3339       3449       3450       3461       3460  
      3329       3330       3341       3340       3450       3451       3462       3461  
      3330       3331       3342       3341       3451       3452       3463       3462  
      3331       3332       3343       3342       3452       3453       3464       3463  
      3332       3333       3344       3343       3453       3454       3465       3464  
      3334       3335       3346       3345       3455       3456       3467       3466  
      3335       3336       3347       3346       3456       3457       3468       3467  
      3336       3337       3348       3347       3457       3458       3469       3468  
      3337       3338       3349       3348       3458       3459       3470       3469  
      3338       3339       3350       3349       3459       3460       3471       3470  
      3339       3340       3351       3350       3460       3461       3472       3471  
      3340       3341       3352       3351       3461       3462       3473       3472  
      3341       3342       3353       3352       3462       3463       3474       3473  
      3342       3343       3354       3353       3463       3464       3475       3474  
      3343       3344       3355       3354       3464       3465       3476       3475  
      3345       3346       3357       3356       3466       3467       3478       3477  
      3346       3347       3358       3357       3467       3468       3479       3478  
      3347       3348       3359       3358       3468       3469       3480       3479  
      3348       3349       3360       3359       3469       3470       3481       3480  
      3349       3350       3361       3360       3470       3471       3482       3481  
      3350       3351       3362       3361       3471       3472       3483       3482  
      3351       3352       3363       3362       3472       3473       3484       3483  
      3352       3353       3364       3363       3473       3474       3485       3484  
      3353       3354       3365       3364       3474       3475       3486       3485  
      3354       3355       3366       3365       3475       3476       3487       3486  
      3356       3357       3368       3367       3477       3478       3489       3488  
      3357       3358       3369       3368       3478       3479       3490       3489  
      3358       3359       3370       3369       3479       3480       3491       3490  
      3359       3360       3371       3370       3480       3481       3492       3491  
      3360       3361       3372       3371       3481       3482       3493       3492  
      3361       3362       3373       3372       3482       3483       3494       3493  
      3362       3363       3374       3373       3483       3484       3495       3494  
      3363       3364       3375       3374       3484       3485       3496       3495  
      3364       3365       3376       3375       3485       3486       3497       3496  
      3365       3366       3377       3376       3486       3487       3498       3497  
      3367       3368       3379       3378       3488       3489       3500       3499  
      3368       3369       3380       3379       3489       3490       3501       3500  
      3369       3370       3381       3380       3490       3491       3502       3501  
      3370       3371       3382       3381       3491       3492       3503       3502  
      3371       3372       3383       3382       3492       3493       3504       3503  
      3372       3373       3384       3383       3493       3494       3505       3504  
      3373       3374       3385       3384       3494       3495       3506       3505  
      3374       3375       3386       3385       3495       3496       3507       3506  
      3375       3376       3387       3386       3496       3497       3508       3507  
      3376       3377       3388       3387       3497       3498       3509       3508  
      3389       3390       3401       3400       3510       3511       3522       3521  
      3390       3391       3402       3401       3511       3512       3523       3522  
      3391       3392       3403       3402       3512       3513       3524       3523  
      3392       3393       3404       3403       3513       3514       3525       3524  
      3393       3394       3405       3404       3514       3515       3526       3525  
      3394       3395       3406       3405       3515       3516       3527       3526  
      3395       3396       3407       3406       3516       3517       3528       3527  
      3396       3397       3408       3407       3517       3518       3529       3528  
      3397       3398       3409       3408       3518       3519       3530       3529  
      3398       3399       3410       3409       3519       3520       3531       3530  
      3400       3401       3412       3411       3521       3522       3533       3532  
      3401       3402       3413       3412       3522       3523       3534       3533  
      3402       3403       3414       3413       3523       3524       3535       3534  
      3403       3404       3415       3414       3524       3525       3536       3535  
      3404       3405       3416       3415       3525       3526       3537       3536  
      3405       3406       3417       3416       3526       3527       3538       3537  
      3406       3407       3418       3417       3527       3528       3539       3538  
      3407       3408       3419       3418       3528       3529       3540       3539  
      3408       3409       3420       3419       3529       3530       3541       3540  
      3409       3410       3421       3420       3530       3531       3542       3541  
      3411       3412       3423       3422       3532       3533       3544       3543  
      3412       3413       3424       3423       3533       3534       3545       3544  
      3413       3414       3425       3424       3534       3535       3546       3545  
      3414       3415       3426       3425       3535       3536       3547       3546  
      3415       3416       3427       3426       3536       3537       3548       3547  
      3416       3417       3428       3427       3537       3538       3549       3548  
      3417       3418       3429       3428       3538       3539       3550       3549  
      3418       3419       3430       3429       3539       3540       3551       3550  
      3419       3420       3431       3430       3540       3541       3552       3551  
      3420       3421       3432       3431       3541       3542       3553       3552  
      3422       3423       3434       3433       3543       3544       3555       3554  
      3423       3424       3435       3434       3544       3545       3556       3555  
      3424       3425       3436       3435       3545       3546       3557       3556  
      3425       3426       3437       3436       3546       3547       3558       3557  
      3426       3427       3438       3437       3547       3548       3559       3558  
      3427       3428       3439       3438       3548       3549       3560       3559  
      3428       3429       3440       3439       3549       3550       3561       3560  
      3429       3430       3441       3440       3550       3551       3562       3561  
      3430       3431       3442       3441       3551       3552       3563       3562  
      3431       3432       3443       3442       3552       3553       3564       3563  
      3433       3434       3445       3444       3554       3555       3566       3565  
      3434       3435       3446       3445       3555       3556       3567       3566  
      3435       3436       3447       3446       3556       3557       3568       3567  
      3436       3437       3448       3447       3557       3558       3569       3568  
      3437       3438       3449       3448       3558       3559       3570       3569  
      3438       3439       3450       3449       3559       3560       3571       3570  
      3439       3440       3451       3450       3560       3561       3572       3571  
      3440       3441       3452       3451       3561       3562       3573       3572  
      3441       3442       3453       3452       3562       3563       3574       3573  
      3442       3443       3454       3453       3563       3564       3575       3574  
      3444       3445       3456       3455       3565       3566       3577       3576  
      3445       3446       3457       3456       3566       3567       3578       3577  
      3446       3447       3458       3457       3567       3568       3579       3578  
      3447       3448       3459       3458       3568       3569       3580       3579  
      3448       3449       3460       3459       3569       3570       3581       3580  
      3449       3450       3461       3460       3570       3571       3582       3581  
      3450       3451       3462       3461       3571       3572       3583       3582  
      3451       3452       3463       3462       3572       3573       3584       3583  
      3452       3453       3464       3463       3573       3574       3585       3584  
      3453       3454       3465       3464       3574       3575       3586       3585  
      3455       3456       3467       3466       3576       3577       3588       3587  
      3456       3457       3468       3467       3577       3578       3589       3588  
      3457       3458       3469       3468       3578       3579       3590       3589  
      3458       3459       3470       3469       3579       3580       3591       3590  
      3459       3460       3471       3470       3580       3581       3592       3591  
      3460       3461       3472       3471       3581       3582       3593       3592  
      3461       3462       3473       3472       3582       3583       3594       3593  
      3462       3463       3474       3473       3583       3584       3595       3594  
      3463       3464       3475       3474       3584       3585       3596       3595  
      3464       3465       3476       3475       3585       3586       3597       3596  
      3466       3467       3478       3477       3587       3588       3599       3598  
      3467       3468       3479       3478       3588       3589       3600       3599  
      3468       3469       3480       3479       3589       3590       3601       3600  
      3469       3470       3481       3480       3590       3591       3602       3601  
      3470       3471       3482       3481       3591       3592       3603       3602  
      3471       3472       3483       3482       3592       3593       3604       3603  
      3472       3473       3484       3483       3593       3594       3605       3604  
      3473       3474       3485       3484       3594       3595       3606       3605  
      3474       3475       3486       3485       3595       3596       3607       3606  
      3475       3476       3487       3486       3596       3597       3608       3607  
      3477       3478       3489       3488       3598       3599       3610       3609  
      3478       3479       3490       3489       3599       3600       3611       3610  
      3479       3480       3491       3490       3600       3601       3612       3611  
      3480       3481       3492       3491       3601       3602       3613       3612  
      3481       3482       3493       3492       3602       3603       3614       3613  
      3482       3483       3494       3493       3603       3604       3615       3614  
      3483       3484       3495       3494       3604       3605       3616       3615  
      3484       3485       3496       3495       3605       3606       3617       3616  
      3485       3486       3497       3496       3606       3607       3618       3617  
      3486       3487       3498       3497       3607       3608       3619       3618  
      3488       3489       3500       3499       3609       3610       3621       3620  
      3489       3490       3501       3500       3610       3611       3622       3621  
      3490       3491       3502       3501       3611       3612       3623       3622  
      3491       3492       3503       3502       3612       3613       3624       3623  
      3492       3493       3504       3503       3613       3614       3625       3624  
      3493       3494       3505       3504       3614       3615       3626       3625  
      3494       3495       3506       3505       3615       3616       3627       3626  
      3495       3496       3507       3506       3616       3617       3628       3627  
      3496       3497       3508       3507       3617       3618       3629       3628  
      3497       3498       3509       3508       3618       3619       3630       3629  
      3510       3511       3522       3521       3631       3632       3643       3642  
      3511       3512       3523       3522       3632       3633       3644       3643  
      3512       3513       3524       3523       3633       3634       3645       3644  
      3513       3514       3525       3524       3634       3635       3646       3645  
      3514       3515       3526       3525       3635       3636       3647       3646  
      3515       3516       3527       3526       3636       3637       3648       3647  
      3516       3517       3528       3527       3637       3638       3649       3648  
      3517       3518       3529       3528       3638       3639       3650       3649  
      3518       3519       3530       3529       3639       3640       3651       3650  
      3519       3520       3531       3530       3640       3641       3652       3651  
      3521       3522       3533       3532       3642       3643       3654       3653  
      3522       3523       3534       3533       3643       3644       3655       3654  
      3523       3524       3535       3534       3644       3645       3656       3655  
      3524       3525       3536       3535       3645       3646       3657       3656  
      3525       3526       3537       3536       3646       3647       3658       3657  
      3526       3527       3538       3537       3647       3648       3659       3658  
      3527       3528       3539       3538       3648       3649       3660       3659  
      3528       3529       3540       3539       3649       3650       3661       3660  
      3529       3530       3541       3540       3650       3651       3662       3661  
      3530       3531       3542       3541       3651       3652       3663       3662  
      3532       3533       3544       3543       3653       3654       3665       3664  
      3533       3534       3545       3544       3654       3655       3666       3665  
      3534       3535       3546       3545       3655       3656       3667       3666  
      3535       3536       3547       3546       3656       3657       3668       3667  
      3536       3537       3548       3547       3657       3658       3669       3668  
      3537       3538       3549       3548       3658       3659       3670       3669  
      3538       3539       3550       3549       3659       3660       3671       3670  
      3539       3540       3551       3550       3660       3661       3672       3671  
      3540       3541       3552       3551       3661       3662       3673       3672  
      3541       3542       3553       3552       3662       3663       3674       3673  
      3543       3544       3555       3554       3664       3665       3676       3675  
      3544       3545       3556       3555       3665       3666       3677       3676  
      3545       3546       3557       3556       3666       3667       3678       3677  
      3546       3547       3558       3557       3667       3668       3679       3678  
      3547       3548       3559       3558       3668       3669       3680       3679  
      3548       3549       3560       3559       3669       3670       3681       3680  
      3549       3550       3561       3560       3670       3671       3682       3681  
      3550       3551       3562       3561       3671       3672       3683       3682  
      3551       3552       3563       3562       3672       3673       3684       3683  
      3552       3553       3564       3563       3673       3674       3685       3684  
      3554       3555       3566       3565       3675       3676       3687       3686  
      3555       3556       3567       3566       3676       3677       3688       3687  
      3556       3557       3568       3567       3677       3678       3689       3688  
      3557       3558       3569       3568       3678       3679       3690       3689  
      3558       3559       3570       3569       3679       3680       3691       3690  
      3559       3560       3571       3570       3680       3681       3692       3691  
      3560       3561       3572       3571       3681       3682       3693       3692  
      3561       3562       3573       3572       3682       3683       3694       3693  
      3562       3563       3574       3573       3683       3684       3695       3694  
      3563       3564       3575       3574       3684       3685       3696       3695  
      3565       3566       3577       3576       3686       3687       3698       3697  
      3566       3567       3578       3577       3687       3688       3699       3698  
      3567       3568       3579       3578       3688       3689       3700       3699  
      3568       3569       3580       3579       3689       3690       3701       3700  
      3569       3570       3581       3580       3690       3691       3702       3701  
      3570       3571       3582       3581       3691       3692       3703       3702  
      3571       3572       3583       3582       3692       3693       3704       3703  
      3572       3573       3584       3583       3693       3694       3705       3704  
      3573       3574       3585       3584       3694       3695       3706       3705  
      3574       3575       3586       3585       3695       3696       3707       3706  
      3576       3577       3588       3587       3697       3698       3709       3708  
      3577       3578       3589       3588       3698       3699       3710       3709  
      3578       3579       3590       3589       3699       3700       3711       3710  
      3579       3580       3591       3590       3700       3701       3712       3711  
      3580       3581       3592       3591       3701       3702       3713       3712  
      3581       3582       3593       3592       3702       3703       3714       3713  
      3582       3583       3594       3593       3703       3704       3715       3714  
      3583       3584       3595       3594       3704       3705       3716       3715  
      3584       3585       3596       3595       3705       3706       3717       3716  
      3585       3586       3597       3596       3706       3707       3718       3717  
      3587       3588       3599       3598       3708       3709       3720       3719  
      3588       3589       3600       3599       3709       3710       3721       3720  
      3589       3590       3601       3600       3710       3711       3722       3721  
      3590       3591       3602       3601       3711       3712       3723       3722  
      3591       3592       3603       3602       3712       3713       3724       3723  
      3592       3593       3604       3603       3713       3714       3725       3724  
      3593       3594       3605       3604       3714       3715       3726       3725  
      3594       3595       3606       3605       3715       3716       3727       3726  
      3595       3596       3607       3606       3716       3717       3728       3727  
      3596       3597       3608       3607       3717       3718       3729       3728  
      3598       3599       3610       3609       3719       3720       3731       3730  
      3599       3600       3611       3610       3720       3721       3732       3731  
      3600       3601       3612       3611       3721       3722       3733       3732  
      3601       3602       3613       3612       3722       3723       3734       3733  
      3602       3603       3614       3613       3723       3724       3735       3734  
      3603       3604       3615       3614       3724       3725       3736       3735  
      3604       3605       3616       3615       3725       3726       3737       3736  
      3605       3606       3617       3616       3726       3727       3738       3737  
      3606       3607       3618       3617       3727       3728       3739       3738  
      3607       3608       3619       3618       3728       3729       3740       3739  
      3609       3610       3621       3620       3730       3731       3742       3741  
      3610       3611       3622       3621       3731       3732       3743       3742  
      3611       3612       3623       3622       3732       3733       3744       3743  
      3612       3613       3624       3623       3733       3734       3745       3744  
      3613       3614       3625       3624       3734       3735       3746       3745  
      3614       3615       3626       3625       3735       3736       3747       3746  
      3615       3616       3627       3626       3736       3737       3748       3747  
      3616       3617       3628       3627       3737       3738       3749       3748  
      3617       3618       3629       3628       3738       3739       3750       3749  
      3618       3619       3630       3629       3739       3740       3751       3750  
      3631       3632       3643       3642       3752       3753       3764       3763  
      3632       3633       3644       3643       3753       3754       3765       3764  
      3633       3634       3645       3644       3754       3755       3766       3765  
      3634       3635       3646       3645       3755       3756       3767       3766  
      3635       3636       3647       3646       3756       3757       3768       3767  
      3636       3637       3648       3647       3757       3758       3769       3768  
      3637       3638       3649       3648       3758       3759       3770       3769  
      3638       3639       3650       3649       3759       3760       3771       3770  
      3639       3640       3651       3650       3760       3761       3772       3771  
      3640       3641       3652       3651       3761       3762       3773       3772  
      3642       3643       3654       3653       3763       3764       3775       3774  
      3643       3644       3655       3654       3764       3765       3776       3775  
      3644       3645       3656       3655       3765       3766       3777       3776  
      3645       3646       3657       3656       3766       3767       3778       3777  
      3646       3647       3658       3657       3767       3768       3779       3778  
      3647       3648       3659       3658       3768       3769       3780       3779  
      3648       3649       3660       3659       3769       3770       3781       3780  
      3649       3650       3661       3660       3770       3771       3782       3781  
      3650       3651       3662       3661       3771       3772       3783       3782  
      3651       3652       3663       3662       3772       3773       3784       3783  
      3653       3654       3665       3664       3774       3775       3786       3785  
      3654       3655       3666       3665       3775       3776       3787       3786  
      3655       3656       3667       3666       3776       3777       3788       3787  
      3656       3657       3668       3667       3777       3778       3789       3788  
      3657       3658       3669       3668       3778       3779       3790       3789  
      3658       3659       3670       3669       3779       3780       3791       3790  
      3659       3660       3671       3670       3780       3781       3792       3791  
      3660       3661       3672       3671       3781       3782       3793       3792  
      3661       3662       3673       3672       3782       3783       3794       3793  
      3662       3663       3674       3673       3783       3784       3795       3794  
      3664       3665       3676       3675       3785       3786       3797       3796  
      3665       3666       3677       3676       3786       3787       3798       3797  
      3666       3667       3678       3677       3787       3788       3799       3798  
      3667       3668       3679       3678       3788       3789       3800       3799  
      3668       3669       3680       3679       3789       3790       3801       3800  
      3669       3670       3681       3680       3790       3791       3802       3801  
      3670       3671       3682       3681       3791       3792       3803       3802  
      3671       3672       3683       3682       3792       3793       3804       3803  
      3672       3673       3684       3683       3793       3794       3805       3804  
      3673       3674       3685       3684       3794       3795       3806       3805  
      3675       3676       3687       3686       3796       3797       3808       3807  
      3676       3677       3688       3687       3797       3798       3809       3808  
      3677       3678       3689       3688       3798       3799       3810       3809  
      3678       3679       3690       3689       3799       3800       3811       3810  
      3679       3680       3691       3690       3800       3801       3812       3811  
      3680       3681       3692       3691       3801       3802       3813       3812  
      3681       3682       3693       3692       3802       3803       3814       3813  
      3682       3683       3694       3693       3803       3804       3815       3814  
      3683       3684       3695       3694       3804       3805       3816       3815  
      3684       3685       3696       3695       3805       3806       3817       3816  
      3686       3687       3698       3697       3807       3808       3819       3818  
      3687       3688       3699       3698       3808       3809       3820       3819  
      3688       3689       3700       3699       3809       3810       3821       3820  
      3689       3690       3701       3700       3810       3811       3822       3821  
      3690       3691       3702       3701       3811       3812       3823       3822  
      3691       3692       3703       3702       3812       3813       3824       3823  
      3692       3693       3704       3703       3813       3814       3825       3824  
      3693       3694       3705       3704       3814       3815       3826       3825  
      3694       3695       3706       3705       3815       3816       3827       3826  
      3695       3696       3707       3706       3816       3817       3828       3827  
      3697       3698       3709       3708       3818       3819       3830       3829  
      3698       3699       3710       3709       3819       3820       3831       3830  
      3699       3700       3711       3710       3820       3821       3832       3831  
      3700       3701       3712       3711       3821       3822       3833       3832  
      3701       3702       3713       3712       3822       3823       3834       3833  
      3702       3703       3714       3713       3823       3824       3835       3834  
      3703       3704       3715       3714       3824       3825       3836       3835  
      3704       3705       3716       3715       3825       3826       3837       3836  
      3705       3706       3717       3716       3826       3827       3838       3837  
      3706       3707       3718       3717       3827       3828       3839       3838  
      3708       3709       3720       3719       3829       3830       3841       3840  
      3709       3710       3721       3720       3830       3831       3842       3841  
      3710       3711       3722       3721       3831       3832       3843       3842  
      3711       3712       3723       3722       3832       3833       3844       3843  
      3712       3713       3724       3723       3833       3834       3845       3844  
      3713       3714       3725       3724       3834       3835       3846       3845  
      3714       3715       3726       3725       3835       3836       3847       3846  
      3715       3716       3727       3726       3836       3837       3848       3847  
      3716       3717       3728       3727       3837       3838       3849       3848  
      3717       3718       3729       3728       3838       3839       3850       3849  
      3719       3720       3731       3730       3840       3841       3852       3851  
      3720       3721       3732       3731       3841       3842       3853       3852  
      3721       3722       3733       3732       3842       3843       3854       3853  
      3722       3723       3734       3733       3843       3844       3855       3854  
      3723       3724       3735       3734       3844       3845       3856       3855  
      3724       3725       3736       3735       3845       3846       3857       3856  
      3725       3726       3737       3736       3846       3847       3858       3857  
      3726       3727       3738       3737       3847       3848       3859       3858  
      3727       3728       3739       3738       3848       3849       3860       3859  
      3728       3729       3740       3739       3849       3850       3861       3860  
      3730       3731       3742       3741       3851       3852       3863       3862  
      3731       3732       3743       3742       3852       3853       3864       3863  
      3732       3733       3744       3743       3853       3854       3865       3864  
      3733       3734       3745       3744       3854       3855       3866       3865  
      3734       3735       3746       3745       3855       3856       3867       3866  
      3735       3736       3747       3746       3856       3857       3868       3867  
      3736       3737       3748       3747       3857       3858       3869       3868  
      3737       3738       3749       3748       3858       3859       3870       3869  
      3738       3739       3750       3749       3859       3860       3871       3870  
      3739       3740       3751       3750       3860       3861       3872       3871  
      3752       3753       3764       3763       3873       3874       3885       3884  
      3753       3754       3765       3764       3874       3875       3886       3885  
      3754       3755       3766       3765       3875       3876       3887       3886  
      3755       3756       3767       3766       3876       3877       3888       3887  
      3756       3757       3768       3767       3877       3878       3889       3888  
      3757       3758       3769       3768       3878       3879       3890       3889  
      3758       3759       3770       3769       3879       3880       3891       3890  
      3759       3760       3771       3770       3880       3881       3892       3891  
      3760       3761       3772       3771       3881       3882       3893       3892  
      3761       3762       3773       3772       3882       3883       3894       3893  
      3763       3764       3775       3774       3884       3885       3896       3895  
      3764       3765       3776       3775       3885       3886       3897       3896  
      3765       3766       3777       3776       3886       3887       3898       3897  
      3766       3767       3778       3777       3887       3888       3899       3898  
      3767       3768       3779       3778       3888       3889       3900       3899  
      3768       3769       3780       3779       3889       3890       3901       3900  
      3769       3770       3781       3780       3890       3891       3902       3901  
      3770       3771       3782       3781       3891       3892       3903       3902  
      3771       3772       3783       3782       3892       3893       3904       3903  
      3772       3773       3784       3783       3893       3894       3905       3904  
      3774       3775       3786       3785       3895       3896       3907       3906  
      3775       3776       3787       3786       3896       3897       3908       3907  
      3776       3777       3788       3787       3897       3898       3909       3908  
      3777       3778       3789       3788       3898       3899       3910       3909  
      3778       3779       3790       3789       3899       3900       3911       3910  
      3779       3780       3791       3790       3900       3901       3912       3911  
      3780       3781       3792       3791       3901       3902       3913       3912  
      3781       3782       3793       3792       3902       3903       3914       3913  
      3782       3783       3794       3793       3903       3904       3915       3914  
      3783       3784       3795       3794       3904       3905       3916       3915  
      3785       3786       3797       3796       3906       3907       3918       3917  
      3786       3787       3798       3797       3907       3908       3919       3918  
      3787       3788       3799       3798       3908       3909       3920       3919  
      3788       3789       3800       3799       3909       3910       3921       3920  
      3789       3790       3801       3800       3910       3911       3922       3921  
      3790       3791       3802       3801       3911       3912       3923       3922  
      3791       3792       3803       3802       3912       3913       3924       3923  
      3792       3793       3804       3803       3913       3914       3925       3924  
      3793       3794       3805       3804       3914       3915       3926       3925  
      3794       3795       3806       3805       3915       3916       3927       3926  
      3796       3797       3808       3807       3917       3918       3929       3928  
      3797       3798       3809       3808       3918       3919       3930       3929  
      3798       3799       3810       3809       3919       3920       3931       3930  
      3799       3800       3811       3810       3920       3921       3932       3931  
      3800       3801       3812       3811       3921       3922       3933       3932  
      3801       3802       3813       3812       3922       3923       3934       3933  
      3802       3803       3814       3813       3923       3924       3935       3934  
      3803       3804       3815       3814       3924       3925       3936       3935  
      3804       3805       3816       3815       3925       3926       3937       3936  
      3805       3806       3817       3816       3926       3927       3938       3937  
      3807       3808       3819       3818       3928       3929       3940       3939  
      3808       3809       3820       3819       3929       3930       3941       3940  
      3809       3810       3821       3820       3930       3931       3942       3941  
      3810       3811       3822       3821       3931       3932       3943       3942  
      3811       3812       3823       3822       3932       3933       3944       3943  
      3812       3813       3824       3823       3933       3934       3945       3944  
      3813       3814       3825       3824       3934       3935       3946       3945  
      3814       3815       3826       3825       3935       3936       3947       3946  
      3815       3816       3827       3826       3936       3937       3948       3947  
      3816       3817       3828       3827       3937       3938       3949       3948  
      3818       3819       3830       3829       3939       3940       3951       3950  
      3819       3820       3831       3830       3940       3941       3952       3951  
      3820       3821       3832       3831       3941       3942       3953       3952  
      3821       3822       3833       3832       3942       3943       3954       3953  
      3822       3823       3834       3833       3943       3944       3955       3954  
      3823       3824       3835       3834       3944       3945       3956       3955  
      3824       3825       3836       3835       3945       3946       3957       3956  
      3825       3826       3837       3836       3946       3947       3958       3957  
      3826       3827       3838       3837       3947       3948       3959       3958  
      3827       3828       3839       3838       3948       3949       3960       3959  
      3829       3830       3841       3840       3950       3951       3962       3961  
      3830       3831       3842       3841       3951       3952       3963       3962  
      3831       3832       3843       3842       3952       3953       3964       3963  
      3832       3833       3844       3843       3953       3954       3965       3964  
      3833       3834       3845       3844       3954       3955       3966       3965  
      3834       3835       3846       3845       3955       3956       3967       3966  
      3835       3836       3847       3846       3956       3957       3968       3967  
      3836       3837       3848       3847       3957       3958       3969       3968  
      3837       3838       3849       3848       3958       3959       3970       3969  
      3838       3839       3850       3849       3959       3960       3971       3970  
      3840       3841       3852       3851       3961       3962       3973       3972  
      3841       3842       3853       3852       3962       3963       3974       3973  
      3842       3843       3854       3853       3963       3964       3975       3974  
      3843       3844       3855       3854       3964       3965       3976       3975  
      3844       3845       3856       3855       3965       3966       3977       3976  
      3845       3846       3857       3856       3966       3967       3978       3977  
      3846       3847       3858       3857       3967       3968       3979       3978  
      3847       3848       3859       3858       3968       3969       3980       3979  
      3848       3849       3860       3859       3969       3970       3981       3980  
      3849       3850       3861       3860       3970       3971       3982       3981  
      3851       3852       3863       3862       3972       3973       3984       3983  
      3852       3853       3864       3863       3973       3974       3985       3984  
      3853       3854       3865       3864       3974       3975       3986       3985  
      3854       3855       3866       3865       3975       3976       3987       3986  
      3855       3856       3867       3866       3976       3977       3988       3987  
      3856       3857       3868       3867       3977       3978       3989       3988  
      3857       3858       3869       3868       3978       3979       3990       3989  
      3858       3859       3870       3869       3979       3980       3991       3990  
      3859       3860       3871       3870       3980       3981       3992       3991  
      3860       3861       3872       3871       3981       3982       3993       3992  
      3873       3874       3885       3884       3994       3995       4006       4005  
      3874       3875       3886       3885       3995       3996       4007       4006  
      3875       3876       3887       3886       3996       3997       4008       4007  
      3876       3877       3888       3887       3997       3998       4009       4008  
      3877       3878       3889       3888       3998       3999       4010       4009  
      3878       3879       3890       3889       3999       4000       4011       4010  
      3879       3880       3891       3890       4000       4001       4012       4011  
      3880       3881       3892       3891       4001       4002       4013       4012  
      3881       3882       3893       3892       4002       4003       4014       4013  
      3882       3883       3894       3893       4003       4004       4015       4014  
      3884       3885       3896       3895       4005       4006       4017       4016  
      3885       3886       3897       3896       4006       4007       4018       4017  
      3886       3887       3898       3897       4007       4008       4019       4018  
      3887       3888       3899       3898       4008       4009       4020       4019  
      3888       3889       3900       3899       4009       4010       4021       4020  
      3889       3890       3901       3900       4010       4011       4022       4021  
      3890       3891       3902       3901       4011       4012       4023       4022  
      3891       3892       3903       3902       4012       4013       4024       4023  
      3892       3893       3904       3903       4013       4014       4025       4024  
      3893       3894       3905       3904       4014       4015       4026       4025  
      3895       3896       3907       3906       4016       4017       4028       4027  
      3896       3897       3908       3907       4017       4018       4029       4028  
      3897       3898       3909       3908       4018       4019       4030       4029  
      3898       3899       3910       3909       4019       4020       4031       4030  
      3899       3900       3911       3910       4020       4021       4032       4031  
      3900       3901       3912       3911       4021       4022       4033       4032  
      3901       3902       3913       3912       4022       4023       4034       4033  
      3902       3903       3914       3913       4023       4024       4035       4034  
      3903       3904       3915       3914       4024       4025       4036       4035  
      3904       3905       3916       3915       4025       4026       4037       4036  
      3906       3907       3918       3917       4027       4028       4039       4038  
      3907       3908       3919       3918       4028       4029       4040       4039  
      3908       3909       3920       3919       4029       4030       4041       4040  
      3909       3910       3921       3920       4030       4031       4042       4041  
      3910       3911       3922       3921       4031       4032       4043       4042  
      3911       3912       3923       3922       4032       4033       4044       4043  
      3912       3913       3924       3923       4033       4034       4045       4044  
      3913       3914       3925       3924       4034       4035       4046       4045  
      3914       3915       3926       3925       4035       4036       4047       4046  
      3915       3916       3927       3926       4036       4037       4048       4047  
      3917       3918       3929       3928       4038       4039       4050       4049  
      3918       3919       3930       3929       4039       4040       4051       4050  
      3919       3920       3931       3930       4040       4041       4052       4051  
      3920       3921       3932       3931       4041       4042       4053       4052  
      3921       3922       3933       3932       4042       4043       4054       4053  
      3922       3923       3934       3933       4043       4044       4055       4054  
      3923       3924       3935       3934       4044       4045       4056       4055  
      3924       3925       3936       3935       4045       4046       4057       4056  
      3925       3926       3937       3936       4046       4047       4058       4057  
      3926       3927       3938       3937       4047       4048       4059       4058  
      3928       3929       3940       3939       4049       4050       4061       4060  
      3929       3930       3941       3940       4050       4051       4062       4061  
      3930       3931       3942       3941       4051       4052       4063       4062  
      3931       3932       3943       3942       4052       4053       4064       4063  
      3932       3933       3944       3943       4053       4054       4065       4064  
      3933       3934       3945       3944       4054       4055       4066       4065  
      3934       3935       3946       3945       4055       4056       4067       4066  
      3935       3936       3947       3946       4056       4057       4068       4067  
      3936       3937       3948       3947       4057       4058       4069       4068  
      3937       3938       3949       3948       4058       4059       4070       4069  
      3939       3940       3951       3950       4060       4061       4072       4071  
      3940       3941       3952       3951       4061       4062       4073       4072  
      3941       3942       3953       3952       4062       4063       4074       4073  
      3942       3943       3954       3953       4063       4064       4075       4074  
      3943       3944       3955       3954       4064       4065       4076       4075  
      3944       3945       3956       3955       4065       4066       4077       4076  
      3945       3946       3957       3956       4066       4067       4078       4077  
      3946       3947       3958       3957       4067       4068       4079       4078  
      3947       3948       3959       3958       4068       4069       4080       4079  
      3948       3949       3960       3959       4069       4070       4081       4080  
      3950       3951       3962       3961       4071       4072       4083       4082  
      3951       3952       3963       3962       4072       4073       4084       4083  
      3952       3953       3964       3963       4073       4074       4085       4084  
      3953       3954       3965       3964       4074       4075       4086       4085  
      3954       3955       3966       3965       4075       4076       4087       4086  
      3955       3956       3967       3966       4076       4077       4088       4087  
      3956       3957       3968       3967       4077       4078       4089       4088  
      3957       3958       3969       3968       4078       4079       4090       4089  
      3958       3959       3970       3969       4079       4080       4091       4090  
      3959       3960       3971       3970       4080       4081       4092       4091  
      3961       3962       3973       3972       4082       4083       4094       4093  
      3962       3963       3974       3973       4083       4084       4095       4094  
      3963       3964       3975       3974       4084       4085       4096       4095  
      3964       3965       3976       3975       4085       4086       4097       4096  
      3965       3966       3977       3976       4086       4087       4098       4097  
      3966       3967       3978       3977       4087       4088       4099       4098  
      3967       3968       3979       3978       4088       4089       4100       4099  
      3968       3969       3980       3979       4089       4090       4101       4100  
      3969       3970       3981       3980       4090       4091       4102       4101  
      3970       3971       3982       3981       4091       4092       4103       4102  
      3972       3973       3984       3983       4093       4094       4105       4104  
      3973       3974       3985       3984       4094       4095       4106       4105  
      3974       3975       3986       3985       4095       4096       4107       4106  
      3975       3976       3987       3986       4096       4097       4108       4107  
      3976       3977       3988       3987       4097       4098       4109       4108  
      3977       3978       3989       3988       4098       4099       4110       4109  
      3978       3979       3990       3989       4099       4100       4111       4110  
      3979       3980       3991       3990       4100       4101       4112       4111  
      3980       3981       3992       3991       4101       4102       4113       4112  
      3981       3982       3993       3992       4102       4103       4114       4113  
      3994       3995       4006       4005       4115       4116       4127       4126  
      3995       3996       4007       4006       4116       4117       4128       4127  
      3996       3997       4008       4007       4117       4118       4129       4128  
      3997       3998       4009       4008       4118       4119       4130       4129  
      3998       3999       4010       4009       4119       4120       4131       4130  
      3999       4000       4011       4010       4120       4121       4132       4131  
      4000       4001       4012       4011       4121       4122       4133       4132  
      4001       4002       4013       4012       4122       4123       4134       4133  
      4002       4003       4014       4013       4123       4124       4135       4134  
      4003       4004       4015       4014       4124       4125       4136       4135  
      4005       4006       4017       4016       4126       4127       4138       4137  
      4006       4007       4018       4017       4127       4128       4139       4138  
      4007       4008       4019       4018       4128       4129       4140       4139  
      4008       4009       4020       4019       4129       4130       4141       4140  
      4009       4010       4021       4020       4130       4131       4142       4141  
      4010       4011       4022       4021       4131       4132       4143       4142  
      4011       4012       4023       4022       4132       4133       4144       4143  
      4012       4013       4024       4023       4133       4134       4145       4144  
      4013       4014       4025       4024       4134       4135       4146       4145  
      4014       4015       4026       4025       4135       4136       4147       4146  
      4016       4017       4028       4027       4137       4138       4149       4148  
      4017       4018       4029       4028       4138       4139       4150       4149  
      4018       4019       4030       4029       4139       4140       4151       4150  
      4019       4020       4031       4030       4140       4141       4152       4151  
      4020       4021       4032       4031       4141       4142       4153       4152  
      4021       4022       4033       4032       4142       4143       4154       4153  
      4022       4023       4034       4033       4143       4144       4155       4154  
      4023       4024       4035       4034       4144       4145       4156       4155  
      4024       4025       4036       4035       4145       4146       4157       4156  
      4025       4026       4037       4036       4146       4147       4158       4157  
      4027       4028       4039       4038       4148       4149       4160       4159  
      4028       4029       4040       4039       4149       4150       4161       4160  
      4029       4030       4041       4040       4150       4151       4162       4161  
      4030       4031       4042       4041       4151       4152       4163       4162  
      4031       4032       4043       4042       4152       4153       4164       4163  
      4032       4033       4044       4043       4153       4154       4165       4164  
      4033       4034       4045       4044       4154       4155       4166       4165  
      4034       4035       4046       4045       4155       4156       4167       4166  
      4035       4036       4047       4046       4156       4157       4168       4167  
      4036       4037       4048       4047       4157       4158       4169       4168  
      4038       4039       4050       4049       4159       4160       4171       4170  
      4039       4040       4051       4050       4160       4161       4172       4171  
      4040       4041       4052       4051       4161       4162       4173       4172  
      4041       4042       4053       4052       4162       4163       4174       4173  
      4042       4043       4054       4053       4163       4164       4175       4174  
      4043       4044       4055       4054       4164       4165       4176       4175  
      4044       4045       4056       4055       4165       4166       4177       4176  
      4045       4046       4057       4056       4166       4167       4178       4177  
      4046       4047       4058       4057       4167       4168       4179       4178  
      4047       4048       4059       4058       4168       4169       4180       4179  
      4049       4050       4061       4060       4170       4171       4182       4181  
      4050       4051       4062       4061       4171       4172       4183       4182  
      4051       4052       4063       4062       4172       4173       4184       4183  
      4052       4053       4064       4063       4173       4174       4185       4184  
      4053       4054       4065       4064       4174       4175       4186       4185  
      4054       4055       4066       4065       4175       4176       4187       4186  
      4055       4056       4067       4066       4176       4177       4188       4187  
      4056       4057       4068       4067       4177       4178       4189       4188  
      4057       4058       4069       4068       4178       4179       4190       4189  
      4058       4059       4070       4069       4179       4180       4191       4190  
      4060       4061       4072       4071       4181       4182       4193       4192  
      4061       4062       4073       4072       4182       4183       4194       4193  
      4062       4063       4074       4073       4183       4184       4195       4194  
      4063       4064       4075       4074       4184       4185       4196       4195  
      4064       4065       4076       4075       4185       4186       4197       4196  
      4065       4066       4077       4076       4186       4187       4198       4197  
      4066       4067       4078       4077       4187       4188       4199       4198  
      4067       4068       4079       4078       4188       4189       4200       4199  
      4068       4069       4080       4079       4189       4190       4201       4200  
      4069       4070       4081       4080       4190       4191       4202       4201  
      4071       4072       4083       4082       4192       4193       4204       4203  
      4072       4073       4084       4083       4193       4194       4205       4204  
      4073       4074       4085       4084       4194       4195       4206       4205  
      4074       4075       4086       4085       4195       4196       4207       4206  
      4075       4076       4087       4086       4196       4197       4208       4207  
      4076       4077       4088       4087       4197       4198       4209       4208  
      4077       4078       4089       4088       4198       4199       4210       4209  
      4078       4079       4090       4089       4199       4200       4211       4210  
      4079       4080       4091       4090       4200       4201       4212       4211  
      4080       4081       4092       4091       4201       4202       4213       4212  
      4082       4083       4094       4093       4203       4204       4215       4214  
      4083       4084       4095       4094       4204       4205       4216       4215  
      4084       4085       4096       4095       4205       4206       4217       4216  
      4085       4086       4097       4096       4206       4207       4218       4217  
      4086       4087       4098       4097       4207       4208       4219       4218  
      4087       4088       4099       4098       4208       4209       4220       4219  
      4088       4089       4100       4099       4209       4210       4221       4220  
      4089       4090       4101       4100       4210       4211       4222       4221  
      4090       4091       4102       4101       4211       4212       4223       4222  
      4091       4092       4103       4102       4212       4213       4224       4223  
      4093       4094       4105       4104       4214       4215       4226       4225  
      4094       4095       4106       4105       4215       4216       4227       4226  
      4095       4096       4107       4106       4216       4217       4228       4227  
      4096       4097       4108       4107       4217       4218       4229       4228  
      4097       4098       4109       4108       4218       4219       4230       4229  
      4098       4099       4110       4109       4219       4220       4231       4230  
      4099       4100       4111       4110       4220       4221       4232       4231  
      4100       4101       4112       4111       4221       4222       4233       4232  
      4101       4102       4113       4112       4222       4223       4234       4233  
      4102       4103       4114       4113       4223       4224       4235       4234  
      4115       4116       4127       4126       4236       4237       4248       4247  
      4116       4117       4128       4127       4237       4238       4249       4248  
      4117       4118       4129       4128       4238       4239       4250       4249  
      4118       4119       4130       4129       4239       4240       4251       4250  
      4119       4120       4131       4130       4240       4241       4252       4251  
      4120       4121       4132       4131       4241       4242       4253       4252  
      4121       4122       4133       4132       4242       4243       4254       4253  
      4122       4123       4134       4133       4243       4244       4255       4254  
      4123       4124       4135       4134       4244       4245       4256       4255  
      4124       4125       4136       4135       4245       4246       4257       4256  
      4126       4127       4138       4137       4247       4248       4259       4258  
      4127       4128       4139       4138       4248       4249       4260       4259  
      4128       4129       4140       4139       4249       4250       4261       4260  
      4129       4130       4141       4140       4250       4251       4262       4261  
      4130       4131       4142       4141       4251       4252       4263       4262  
      4131       4132       4143       4142       4252       4253       4264       4263  
      4132       4133       4144       4143       4253       4254       4265       4264  
      4133       4134       4145       4144       4254       4255       4266       4265  
      4134       4135       4146       4145       4255       4256       4267       4266  
      4135       4136       4147       4146       4256       4257       4268       4267  
      4137       4138       4149       4148       4258       4259       4270       4269  
      4138       4139       4150       4149       4259       4260       4271       4270  
      4139       4140       4151       4150       4260       4261       4272       4271  
      4140       4141       4152       4151       4261       4262       4273       4272  
      4141       4142       4153       4152       4262       4263       4274       4273  
      4142       4143       4154       4153       4263       4264       4275       4274  
      4143       4144       4155       4154       4264       4265       4276       4275  
      4144       4145       4156       4155       4265       4266       4277       4276  
      4145       4146       4157       4156       4266       4267       4278       4277  
      4146       4147       4158       4157       4267       4268       4279       4278  
      4148       4149       4160       4159       4269       4270       4281       4280  
      4149       4150       4161       4160       4270       4271       4282       4281  
      4150       4151       4162       4161       4271       4272       4283       4282  
      4151       4152       4163       4162       4272       4273       4284       4283  
      4152       4153       4164       4163       4273       4274       4285       4284  
      4153       4154       4165       4164       4274       4275       4286       4285  
      4154       4155       4166       4165       4275       4276       4287       4286  
      4155       4156       4167       4166       4276       4277       4288       4287  
      4156       4157       4168       4167       4277       4278       4289       4288  
      4157       4158       4169       4168       4278       4279       4290       4289  
      4159       4160       4171       4170       4280       4281       4292       4291  
      4160       4161       4172       4171       4281       4282       4293       4292  
      4161       4162       4173       4172       4282       4283       4294       4293  
      4162       4163       4174       4173       4283       4284       4295       4294  
      4163       4164       4175       4174       4284       4285       4296       4295  
      4164       4165       4176       4175       4285       4286       4297       4296  
      4165       4166       4177       4176       4286       4287       4298       4297  
      4166       4167       4178       4177       4287       4288       4299       4298  
      4167       4168       4179       4178       4288       4289       4300       4299  
      4168       4169       4180       4179       4289       4290       4301       4300  
      4170       4171       4182       4181       4291       4292       4303       4302  
      4171       4172       4183       4182       4292       4293       4304       4303  
      4172       4173       4184       4183       4293       4294       4305       4304  
      4173       4174       4185       4184       4294       4295       4306       4305  
      4174       4175       4186       4185       4295       4296       4307       4306  
      4175       4176       4187       4186       4296       4297       4308       4307  
      4176       4177       4188       4187       4297       4298       4309       4308  
      4177       4178       4189       4188       4298       4299       4310       4309  
      4178       4179       4190       4189       4299       4300       4311       4310  
      4179       4180       4191       4190       4300       4301       4312       4311  
      4181       4182       4193       4192       4302       4303       4314       4313  
      4182       4183       4194       4193       4303       4304       4315       4314  
      4183       4184       4195       4194       4304       4305       4316       4315  
      4184       4185       4196       4195       4305       4306       4317       4316  
      4185       4186       4197       4196       4306       4307       4318       4317  
      4186       4187       4198       4197       4307       4308       4319       4318  
      4187       4188       4199       4198       4308       4309       4320       4319  
      4188       4189       4200       4199       4309       4310       4321       4320  
      4189       4190       4201       4200       4310       4311       4322       4321  
      4190       4191       4202       4201       4311       4312       4323       4322  
      4192       4193       4204       4203       4313       4314       4325       4324  
      4193       4194       4205       4204       4314       4315       4326       4325  
      4194       4195       4206       4205       4315       4316       4327       4326  
      4195       4196       4207       4206       4316       4317       4328       4327  
      4196       4197       4208       4207       4317       4318       4329       4328  
      4197       4198       4209       4208       4318       4319       4330       4329  
      4198       4199       4210       4209       4319       4320       4331       4330  
      4199       4200       4211       4210       4320       4321       4332       4331  
      4200       4201       4212       4211       4321       4322       4333       4332  
      4201       4202       4213       4212       4322       4323       4334       4333  
      4203       4204       4215       4214       4324       4325       4336       4335  
      4204       4205       4216       4215       4325       4326       4337       4336  
      4205       4206       4217       4216       4326       4327       4338       4337  
      4206       4207       4218       4217       4327       4328       4339       4338  
      4207       4208       4219       4218       4328       4329       4340       4339  
      4208       4209       4220       4219       4329       4330       4341       4340  
      4209       4210       4221       4220       4330       4331       4342       4341  
      4210       4211       4222       4221       4331       4332       4343       4342  
      4211       4212       4223       4222       4332       4333       4344       4343  
      4212       4213       4224       4223       4333       4334       4345       4344  
      4214       4215       4226       4225       4335       4336       4347       4346  
      4215       4216       4227       4226       4336       4337       4348       4347  
      4216       4217       4228       4227       4337       4338       4349       4348  
      4217       4218       4229       4228       4338       4339       4350       4349  
      4218       4219       4230       4229       4339       4340       4351       4350  
      4219       4220       4231       4230       4340       4341       4352       4351  
      4220       4221       4232       4231       4341       4342       4353       4352  
      4221       4222       4233       4232       4342       4343       4354       4353  
      4222       4223       4234       4233       4343       4344       4355       4354  
      4223       4224       4235       4234       4344       4345       4356       4355  
      4236       4237       4248       4247       4357       4358       4369       4368  
      4237       4238       4249       4248       4358       4359       4370       4369  
      4238       4239       4250       4249       4359       4360       4371       4370  
      4239       4240       4251       4250       4360       4361       4372       4371  
      4240       4241       4252       4251       4361       4362       4373       4372  
      4241       4242       4253       4252       4362       4363       4374       4373  
      4242       4243       4254       4253       4363       4364       4375       4374  
      4243       4244       4255       4254       4364       4365       4376       4375  
      4244       4245       4256       4255       4365       4366       4377       4376  
      4245       4246       4257       4256       4366       4367       4378       4377  
      4247       4248       4259       4258       4368       4369       4380       4379  
      4248       4249       4260       4259       4369       4370       4381       4380  
      4249       4250       4261       4260       4370       4371       4382       4381  
      4250       4251       4262       4261       4371       4372       4383       4382  
      4251       4252       4263       4262       4372       4373       4384       4383  
      4252       4253       4264       4263       4373       4374       4385       4384  
      4253       4254       4265       4264       4374       4375       4386       4385  
      4254       4255       4266       4265       4375       4376       4387       4386  
      4255       4256       4267       4266       4376       4377       4388       4387  
      4256       4257       4268       4267       4377       4378       4389       4388  
      4258       4259       4270       4269       4379       4380       4391       4390  
      4259       4260       4271       4270       4380       4381       4392       4391  
      4260       4261       4272       4271       4381       4382       4393       4392  
      4261       4262       4273       4272       4382       4383       4394       4393  
      4262       4263       4274       4273       4383       4384       4395       4394  
      4263       4264       4275       4274       4384       4385       4396       4395  
      4264       4265       4276       4275       4385       4386       4397       4396  
      4265       4266       4277       4276       4386       4387       4398       4397  
      4266       4267       4278       4277       4387       4388       4399       4398  
      4267       4268       4279       4278       4388       4389       4400       4399  
      4269       4270       4281       4280       4390       4391       4402       4401  
      4270       4271       4282       4281       4391       4392       4403       4402  
      4271       4272       4283       4282       4392       4393       4404       4403  
      4272       4273       4284       4283       4393       4394       4405       4404  
      4273       4274       4285       4284       4394       4395       4406       4405  
      4274       4275       4286       4285       4395       4396       4407       4406  
      4275       4276       4287       4286       4396       4397       4408       4407  
      4276       4277       4288       4287       4397       4398       4409       4408  
      4277       4278       4289       4288       4398       4399       4410       4409  
      4278       4279       4290       4289       4399       4400       4411       4410  
      4280       4281       4292       4291       4401       4402       4413       4412  
      4281       4282       4293       4292       4402       4403       4414       4413  
      4282       4283       4294       4293       4403       4404       4415       4414  
      4283       4284       4295       4294       4404       4405       4416       4415  
      4284       4285       4296       4295       4405       4406       4417       4416  
      4285       4286       4297       4296       4406       4407       4418       4417  
      4286       4287       4298       4297       4407       4408       4419       4418  
      4287       4288       4299       4298       4408       4409       4420       4419  
      4288       4289       4300       4299       4409       4410       4421       4420  
      4289       4290       4301       4300       4410       4411       4422       4421  
      4291       4292       4303       4302       4412       4413       4424       4423  
      4292       4293       4304       4303       4413       4414       4425       4424  
      4293       4294       4305       4304       4414       4415       4426       4425  
      4294       4295       4306       4305       4415       4416       4427       4426  
      4295       4296       4307       4306       4416       4417       4428       4427  
      4296       4297       4308       4307       4417       4418       4429       4428  
      4297       4298       4309       4308       4418       4419       4430       4429  
      4298       4299       4310       4309       4419       4420       4431       4430  
      4299       4300       4311       4310       4420       4421       4432       4431  
      4300       4301       4312       4311       4421       4422       4433       4432  
      4302       4303       4314       4313       4423       4424       4435       4434  
      4303       4304       4315       4314       4424       4425       4436       4435  
      4304       4305       4316       4315       4425       4426       4437       4436  
      4305       4306       4317       4316       4426       4427       4438       4437  
      4306       4307       4318       4317       4427       4428       4439       4438  
      4307       4308       4319       4318       4428       4429       4440       4439  
      4308       4309       4320       4319       4429       4430       4441       4440  
      4309       4310       4321       4320       4430       4431       4442       4441  
      4310       4311       4322       4321       4431       4432       4443       4442  
      4311       4312       4323       4322       4432       4433       4444       4443  
      4313       4314       4325       4324       4434       4435       4446       4445  
      4314       4315       4326       4325       4435       4436       4447       4446  
      4315       4316       4327       4326       4436       4437       4448       4447  
      4316       4317       4328       4327       4437       4438       4449       4448  
      4317       4318       4329       4328       4438       4439       4450       4449  
      4318       4319       4330       4329       4439       4440       4451       4450  
      4319       4320       4331       4330       4440       4441       4452       4451  
      4320       4321       4332       4331       4441       4442       4453       4452  
      4321       4322       4333       4332       4442       4443       4454       4453  
      4322       4323       4334       4333       4443       4444       4455       4454  
      4324       4325       4336       4335       4445       4446       4457       4456  
      4325       4326       4337       4336       4446       4447       4458       4457  
      4326       4327       4338       4337       4447       4448       4459       4458  
      4327       4328       4339       4338       4448       4449       4460       4459  
      4328       4329       4340       4339       4449       4450       4461       4460  
      4329       4330       4341       4340       4450       4451       4462       4461  
      4330       4331       4342       4341       4451       4452       4463       4462  
      4331       4332       4343       4342       4452       4453       4464       4463  
      4332       4333       4344       4343       4453       4454       4465       4464  
      4333       4334       4345       4344       4454       4455       4466       4465  
      4335       4336       4347       4346       4456       4457       4468       4467  
      4336       4337       4348       4347       4457       4458       4469       4468  
      4337       4338       4349       4348       4458       4459       4470       4469  
      4338       4339       4350       4349       4459       4460       4471       4470  
      4339       4340       4351       4350       4460       4461       4472       4471  
      4340       4341       4352       4351       4461       4462       4473       4472  
      4341       4342       4353       4352       4462       4463       4474       4473  
      4342       4343       4354       4353       4463       4464       4475       4474  
      4343       4344       4355       4354       4464       4465       4476       4475  
      4344       4345       4356       4355       4465       4466       4477       4476  
      4357       4358       4369       4368       4478       4479       4490       4489  
      4358       4359       4370       4369       4479       4480       4491       4490  
      4359       4360       4371       4370       4480       4481       4492       4491  
      4360       4361       4372       4371       4481       4482       4493       4492  
      4361       4362       4373       4372       4482       4483       4494       4493  
      4362       4363       4374       4373       4483       4484       4495       4494  
      4363       4364       4375       4374       4484       4485       4496       4495  
      4364       4365       4376       4375       4485       4486       4497       4496  
      4365       4366       4377       4376       4486       4487       4498       4497  
      4366       4367       4378       4377       4487       4488       4499       4498  
      4368       4369       4380       4379       4489       4490       4501       4500  
      4369       4370       4381       4380       4490       4491       4502       4501  
      4370       4371       4382       4381       4491       4492       4503       4502  
      4371       4372       4383       4382       4492       4493       4504       4503  
      4372       4373       4384       4383       4493       4494       4505       4504  
      4373       4374       4385       4384       4494       4495       4506       4505  
      4374       4375       4386       4385       4495       4496       4507       4506  
      4375       4376       4387       4386       4496       4497       4508       4507  
      4376       4377       4388       4387       4497       4498       4509       4508  
      4377       4378       4389       4388       4498       4499       4510       4509  
      4379       4380       4391       4390       4500       4501       4512       4511  
      4380       4381       4392       4391       4501       4502       4513       4512  
      4381       4382       4393       4392       4502       4503       4514       4513  
      4382       4383       4394       4393       4503       4504       4515       4514  
      4383       4384       4395       4394       4504       4505       4516       4515  
      4384       4385       4396       4395       4505       4506       4517       4516  
      4385       4386       4397       4396       4506       4507       4518       4517  
      4386       4387       4398       4397       4507       4508       4519       4518  
      4387       4388       4399       4398       4508       4509       4520       4519  
      4388       4389       4400       4399       4509       4510       4521       4520  
      4390       4391       4402       4401       4511       4512       4523       4522  
      4391       4392       4403       4402       4512       4513       4524       4523  
      4392       4393       4404       4403       4513       4514       4525       4524  
      4393       4394       4405       4404       4514       4515       4526       4525  
      4394       4395       4406       4405       4515       4516       4527       4526  
      4395       4396       4407       4406       4516       4517       4528       4527  
      4396       4397       4408       4407       4517       4518       4529       4528  
      4397       4398       4409       4408       4518       4519       4530       4529  
      4398       4399       4410       4409       4519       4520       4531       4530  
      4399       4400       4411       4410       4520       4521       4532       4531  
      4401       4402       4413       4412       4522       4523       4534       4533  
      4402       4403       4414       4413       4523       4524       4535       4534  
      4403       4404       4415       4414       4524       4525       4536       4535  
      4404       4405       4416       4415       4525       4526       4537       4536  
      4405       4406       4417       4416       4526       4527       4538       4537  
      4406       4407       4418       4417       4527       4528       4539       4538  
      4407       4408       4419       4418       4528       4529       4540       4539  
      4408       4409       4420       4419       4529       4530       4541       4540  
      4409       4410       4421       4420       4530       4531       4542       4541  
      4410       4411       4422       4421       4531       4532       4543       4542  
      4412       4413       4424       4423       4533       4534       4545       4544  
      4413       4414       4425       4424       4534       4535       4546       4545  
      4414       4415       4426       4425       4535       4536       4547       4546  
      4415       4416       4427       4426       4536       4537       4548       4547  
      4416       4417       4428       4427       4537       4538       4549       4548  
      4417       4418       4429       4428       4538       4539       4550       4549  
      4418       4419       4430       4429       4539       4540       4551       4550  
      4419       4420       4431       4430       4540       4541       4552       4551  
      4420       4421       4432       4431       4541       4542       4553       4552  
      4421       4422       4433       4432       4542       4543       4554       4553  
      4423       4424       4435       4434       4544       4545       4556       4555  
      4424       4425       4436       4435       4545       4546       4557       4556  
      4425       4426       4437       4436       4546       4547       4558       4557  
      4426       4427       4438       4437       4547       4548       4559       4558  
      4427       4428       4439       4438       4548       4549       4560       4559  
      4428       4429       4440       4439       4549       4550       4561       4560  
      4429       4430       4441       4440       4550       4551       4562       4561  
      4430       4431       4442       4441       4551       4552       4563       4562  
      4431       4432       4443       4442       4552       4553       4564       4563  
      4432       4433       4444       4443       4553       4554       4565       4564  
      4434       4435       4446       4445       4555       4556       4567       4566  
      4435       4436       4447       4446       4556       4557       4568       4567  
      4436       4437       4448       4447       4557       4558       4569       4568  
      4437       4438       4449       4448       4558       4559       4570       4569  
      4438       4439       4450       4449       4559       4560       4571       4570  
      4439       4440       4451       4450       4560       4561       4572       4571  
      4440       4441       4452       4451       4561       4562       4573       4572  
      4441       4442       4453       4452       4562       4563       4574       4573  
      4442       4443       4454       4453       4563       4564       4575       4574  
      4443       4444       4455       4454       4564       4565       4576       4575  
      4445       4446       4457       4456       4566       4567       4578       4577  
      4446       4447       4458       4457       4567       4568       4579       4578  
      4447       4448       4459       4458       4568       4569       4580       4579  
      4448       4449       4460       4459       4569       4570       4581       4580  
      4449       4450       4461       4460       4570       4571       4582       4581  
      4450       4451       4462       4461       4571       4572       4583       4582  
      4451       4452       4463       4462       4572       4573       4584       4583  
      4452       4453       4464       4463       4573       4574       4585       4584  
      4453       4454       4465       4464       4574       4575       4586       4585  
      4454       4455       4466       4465       4575       4576       4587       4586  
      4456       4457       4468       4467       4577       4578       4589       4588  
      4457       4458       4469       4468       4578       4579       4590       4589  
      4458       4459       4470       4469       4579       4580       4591       4590  
      4459       4460       4471       4470       4580       4581       4592       4591  
      4460       4461       4472       4471       4581       4582       4593       4592  
      4461       4462       4473       4472       4582       4583       4594       4593  
      4462       4463       4474       4473       4583       4584       4595       4594  
      4463       4464       4475       4474       4584       4585       4596       4595  
      4464       4465       4476       4475       4585       4586       4597       4596  
      4465       4466       4477       4476       4586       4587       4598       4597  
      4478       4479       4490       4489       4599       4600       4611       4610  
      4479       4480       4491       4490       4600       4601       4612       4611  
      4480       4481       4492       4491       4601       4602       4613       4612  
      4481       4482       4493       4492       4602       4603       4614       4613  
      4482       4483       4494       4493       4603       4604       4615       4614  
      4483       4484       4495       4494       4604       4605       4616       4615  
      4484       4485       4496       4495       4605       4606       4617       4616  
      4485       4486       4497       4496       4606       4607       4618       4617  
      4486       4487       4498       4497       4607       4608       4619       4618  
      4487       4488       4499       4498       4608       4609       4620       4619  
      4489       4490       4501       4500       4610       4611       4622       4621  
      4490       4491       4502       4501       4611       4612       4623       4622  
      4491       4492       4503       4502       4612       4613       4624       4623  
      4492       4493       4504       4503       4613       4614       4625       4624  
      4493       4494       4505       4504       4614       4615       4626       4625  
      4494       4495       4506       4505       4615       4616       4627       4626  
      4495       4496       4507       4506       4616       4617       4628       4627  
      4496       4497       4508       4507       4617       4618       4629       4628  
      4497       4498       4509       4508       4618       4619       4630       4629  
      4498       4499       4510       4509       4619       4620       4631       4630  
      4500       4501       4512       4511       4621       4622       4633       4632  
      4501       4502       4513       4512       4622       4623       4634       4633  
      4502       4503       4514       4513       4623       4624       4635       4634  
      4503       4504       4515       4514       4624       4625       4636       4635  
      4504       4505       4516       4515       4625       4626       4637       4636  
      4505       4506       4517       4516       4626       4627       4638       4637  
      4506       4507       4518       4517       4627       4628       4639       4638  
      4507       4508       4519       4518       4628       4629       4640       4639  
      4508       4509       4520       4519       4629       4630       4641       4640  
      4509       4510       4521       4520       4630       4631       4642       4641  
      4511       4512       4523       4522       4632       4633       4644       4643  
      4512       4513       4524       4523       4633       4634       4645       4644  
      4513       4514       4525       4524       4634       4635       4646       4645  
      4514       4515       4526       4525       4635       4636       4647       4646  
      4515       4516       4527       4526       4636       4637       4648       4647  
      4516       4517       4528       4527       4637       4638       4649       4648  
      4517       4518       4529       4528       4638       4639       4650       4649  
      4518       4519       4530       4529       4639       4640       4651       4650  
      4519       4520       4531       4530       4640       4641       4652       4651  
      4520       4521       4532       4531       4641       4642       4653       4652  
      4522       4523       4534       4533       4643       4644       4655       4654  
      4523       4524       4535       4534       4644       4645       4656       4655  
      4524       4525       4536       4535       4645       4646       4657       4656  
      4525       4526       4537       4536       4646       4647       4658       4657  
      4526       4527       4538       4537       4647       4648       4659       4658  
      4527       4528       4539       4538       4648       4649       4660       4659  
      4528       4529       4540       4539       4649       4650       4661       4660  
      4529       4530       4541       4540       4650       4651       4662       4661  
      4530       4531       4542       4541       4651       4652       4663       4662  
      4531       4532       4543       4542       4652       4653       4664       4663  
      4533       4534       4545       4544       4654       4655       4666       4665  
      4534       4535       4546       4545       4655       4656       4667       4666  
      4535       4536       4547       4546       4656       4657       4668       4667  
      4536       4537       4548       4547       4657       4658       4669       4668  
      4537       4538       4549       4548       4658       4659       4670       4669  
      4538       4539       4550       4549       4659       4660       4671       4670  
      4539       4540       4551       4550       4660       4661       4672       4671  
      4540       4541       4552       4551       4661       4662       4673       4672  
      4541       4542       4553       4552       4662       4663       4674       4673  
      4542       4543       4554       4553       4663       4664       4675       4674  
      4544       4545       4556       4555       4665       4666       4677       4676  
      4545       4546       4557       4556       4666       4667       4678       4677  
      4546       4547       4558       4557       4667       4668       4679       4678  
      4547       4548       4559       4558       4668       4669       4680       4679  
      4548       4549       4560       4559       4669       4670       4681       4680  
      4549       4550       4561       4560       4670       4671       4682       4681  
      4550       4551       4562       4561       4671       4672       4683       4682  
      4551       4552       4563       4562       4672       4673       4684       4683  
      4552       4553       4564       4563       4673       4674       4685       4684  
      4553       4554       4565       4564       4674       4675       4686       4685  
      4555       4556       4567       4566       4676       4677       4688       4687  
      4556       4557       4568       4567       4677       4678       4689       4688  
      4557       4558       4569       4568       4678       4679       4690       4689  
      4558       4559       4570       4569       4679       4680       4691       4690  
      4559       4560       4571       4570       4680       4681       4692       4691  
      4560       4561       4572       4571       4681       4682       4693       4692  
      4561       4562       4573       4572       4682       4683       4694       4693  
      4562       4563       4574       4573       4683       4684       4695       4694  
      4563       4564       4575       4574       4684       4685       4696       4695  
      4564       4565       4576       4575       4685       4686       4697       4696  
      4566       4567       4578       4577       4687       4688       4699       4698  
      4567       4568       4579       4578       4688       4689       4700       4699  
      4568       4569       4580       4579       4689       4690       4701       4700  
      4569       4570       4581       4580       4690       4691       4702       4701  
      4570       4571       4582       4581       4691       4692       4703       4702  
      4571       4572       4583       4582       4692       4693       4704       4703  
      4572       4573       4584       4583       4693       4694       4705       4704  
      4573       4574       4585       4584       4694       4695       4706       4705  
      4574       4575       4586       4585       4695       4696       4707       4706  
      4575       4576       4587       4586       4696       4697       4708       4707  
      4577       4578       4589       4588       4698       4699       4710       4709  
      4578       4579       4590       4589       4699       4700       4711       4710  
      4579       4580       4591       4590       4700       4701       4712       4711  
      4580       4581       4592       4591       4701       4702       4713       4712  
      4581       4582       4593       4592       4702       4703       4714       4713  
      4582       4583       4594       4593       4703       4704       4715       4714  
      4583       4584       4595       4594       4704       4705       4716       4715  
      4584       4585       4596       4595       4705       4706       4717       4716  
      4585       4586       4597       4596       4706       4707       4718       4717  
      4586       4587       4598       4597       4707       4708       4719       4718  
      4599       4600       4611       4610       4720       4721       4732       4731  
      4600       4601       4612       4611       4721       4722       4733       4732  
      4601       4602       4613       4612       4722       4723       4734       4733  
      4602       4603       4614       4613       4723       4724       4735       4734  
      4603       4604       4615       4614       4724       4725       4736       4735  
      4604       4605       4616       4615       4725       4726       4737       4736  
      4605       4606       4617       4616       4726       4727       4738       4737  
      4606       4607       4618       4617       4727       4728       4739       4738  
      4607       4608       4619       4618       4728       4729       4740       4739  
      4608       4609       4620       4619       4729       4730       4741       4740  
      4610       4611       4622       4621       4731       4732       4743       4742  
      4611       4612       4623       4622       4732       4733       4744       4743  
      4612       4613       4624       4623       4733       4734       4745       4744  
      4613       4614       4625       4624       4734       4735       4746       4745  
      4614       4615       4626       4625       4735       4736       4747       4746  
      4615       4616       4627       4626       4736       4737       4748       4747  
      4616       4617       4628       4627       4737       4738       4749       4748  
      4617       4618       4629       4628       4738       4739       4750       4749  
      4618       4619       4630       4629       4739       4740       4751       4750  
      4619       4620       4631       4630       4740       4741       4752       4751  
      4621       4622       4633       4632       4742       4743       4754       4753  
      4622       4623       4634       4633       4743       4744       4755       4754  
      4623       4624       4635       4634       4744       4745       4756       4755  
      4624       4625       4636       4635       4745       4746       4757       4756  
      4625       4626       4637       4636       4746       4747       4758       4757  
      4626       4627       4638       4637       4747       4748       4759       4758  
      4627       4628       4639       4638       4748       4749       4760       4759  
      4628       4629       4640       4639       4749       4750       4761       4760  
      4629       4630       4641       4640       4750       4751       4762       4761  
      4630       4631       4642       4641       4751       4752       4763       4762  
      4632       4633       4644       4643       4753       4754       4765       4764  
      4633       4634       4645       4644       4754       4755       4766       4765  
      4634       4635       4646       4645       4755       4756       4767       4766  
      4635       4636       4647       4646       4756       4757       4768       4767  
      4636       4637       4648       4647       4757       4758       4769       4768  
      4637       4638       4649       4648       4758       4759       4770       4769  
      4638       4639       4650       4649       4759       4760       4771       4770  
      4639       4640       4651       4650       4760       4761       4772       4771  
      4640       4641       4652       4651       4761       4762       4773       4772  
      4641       4642       4653       4652       4762       4763       4774       4773  
      4643       4644       4655       4654       4764       4765       4776       4775  
      4644       4645       4656       4655       4765       4766       4777       4776  
      4645       4646       4657       4656       4766       4767       4778       4777  
      4646       4647       4658       4657       4767       4768       4779       4778  
      4647       4648       4659       4658       4768       4769       4780       4779  
      4648       4649       4660       4659       4769       4770       4781       4780  
      4649       4650       4661       4660       4770       4771       4782       4781  
      4650       4651       4662       4661       4771       4772       4783       4782  
      4651       4652       4663       4662       4772       4773       4784       4783  
      4652       4653       4664       4663       4773       4774       4785       4784  
      4654       4655       4666       4665       4775       4776       4787       4786  
      4655       4656       4667       4666       4776       4777       4788       4787  
      4656       4657       4668       4667       4777       4778       4789       4788  
      4657       4658       4669       4668       4778       4779       4790       4789  
      4658       4659       4670       4669       4779       4780       4791       4790  
      4659       4660       4671       4670       4780       4781       4792       4791  
      4660       4661       4672       4671       4781       4782       4793       4792  
      4661       4662       4673       4672       4782       4783       4794       4793  
      4662       4663       4674       4673       4783       4784       4795       4794  
      4663       4664       4675       4674       4784       4785       4796       4795  
      4665       4666       4677       4676       4786       4787       4798       4797  
      4666       4667       4678       4677       4787       4788       4799       4798  
      4667       4668       4679       4678       4788       4789       4800       4799  
      4668       4669       4680       4679       4789       4790       4801       4800  
      4669       4670       4681       4680       4790       4791       4802       4801  
      4670       4671       4682       4681       4791       4792       4803       4802  
      4671       4672       4683       4682       4792       4793       4804       4803  
      4672       4673       4684       4683       4793       4794       4805       4804  
      4673       4674       4685       4684       4794       4795       4806       4805  
      4674       4675       4686       4685       4795       4796       4807       4806  
      4676       4677       4688       4687       4797       4798       4809       4808  
      4677       4678       4689       4688       4798       4799       4810       4809  
      4678       4679       4690       4689       4799       4800       4811       4810  
      4679       4680       4691       4690       4800       4801       4812       4811  
      4680       4681       4692       4691       4801       4802       4813       4812  
      4681       4682       4693       4692       4802       4803       4814       4813  
      4682       4683       4694       4693       4803       4804       4815       4814  
      4683       4684       4695       4694       4804       4805       4816       4815  
      4684       4685       4696       4695       4805       4806       4817       4816  
      4685       4686       4697       4696       4806       4807       4818       4817  
      4687       4688       4699       4698       4808       4809       4820       4819  
      4688       4689       4700       4699       4809       4810       4821       4820  
      4689       4690       4701       4700       4810       4811       4822       4821  
      4690       4691       4702       4701       4811       4812       4823       4822  
      4691       4692       4703       4702       4812       4813       4824       4823  
      4692       4693       4704       4703       4813       4814       4825       4824  
      4693       4694       4705       4704       4814       4815       4826       4825  
      4694       4695       4706       4705       4815       4816       4827       4826  
      4695       4696       4707       4706       4816       4817       4828       4827  
      4696       4697       4708       4707       4817       4818       4829       4828  
      4698       4699       4710       4709       4819       4820       4831       4830  
      4699       4700       4711       4710       4820       4821       4832       4831  
      4700       4701       4712       4711       4821       4822       4833       4832  
      4701       4702       4713       4712       4822       4823       4834       4833  
      4702       4703       4714       4713       4823       4824       4835       4834  
      4703       4704       4715       4714       4824       4825       4836       4835  
      4704       4705       4716       4715       4825       4826       4837       4836  
      4705       4706       4717       4716       4826       4827       4838       4837  
      4706       4707       4718       4717       4827       4828       4839       4838  
      4707       4708       4719       4718       4828       4829       4840       4839  
      4720       4721       4732       4731       4841       4842       4853       4852  
      4721       4722       4733       4732       4842       4843       4854       4853  
      4722       4723       4734       4733       4843       4844       4855       4854  
      4723       4724       4735       4734       4844       4845       4856       4855  
      4724       4725       4736       4735       4845       4846       4857       4856  
      4725       4726       4737       4736       4846       4847       4858       4857  
      4726       4727       4738       4737       4847       4848       4859       4858  
      4727       4728       4739       4738       4848       4849       4860       4859  
      4728       4729       4740       4739       4849       4850       4861       4860  
      4729       4730       4741       4740       4850       4851       4862       4861  
      4731       4732       4743       4742       4852       4853       4864       4863  
      4732       4733       4744       4743       4853       4854       4865       4864  
      4733       4734       4745       4744       4854       4855       4866       4865  
      4734       4735       4746       4745       4855       4856       4867       4866  
      4735       4736       4747       4746       4856       4857       4868       4867  
      4736       4737       4748       4747       4857       4858       4869       4868  
      4737       4738       4749       4748       4858       4859       4870       4869  
      4738       4739       4750       4749       4859       4860       4871       4870  
      4739       4740       4751       4750       4860       4861       4872       4871  
      4740       4741       4752       4751       4861       4862       4873       4872  
      4742       4743       4754       4753       4863       4864       4875       4874  
      4743       4744       4755       4754       4864       4865       4876       4875  
      4744       4745       4756       4755       4865       4866       4877       4876  
      4745       4746       4757       4756       4866       4867       4878       4877  
      4746       4747       4758       4757       4867       4868       4879       4878  
      4747       4748       4759       4758       4868       4869       4880       4879  
      4748       4749       4760       4759       4869       4870       4881       4880  
      4749       4750       4761       4760       4870       4871       4882       4881  
      4750       4751       4762       4761       4871       4872       4883       4882  
      4751       4752       4763       4762       4872       4873       4884       4883  
      4753       4754       4765       4764       4874       4875       4886       4885  
      4754       4755       4766       4765       4875       4876       4887       4886  
      4755       4756       4767       4766       4876       4877       4888       4887  
      4756       4757       4768       4767       4877       4878       4889       4888  
      4757       4758       4769       4768       4878       4879       4890       4889  
      4758       4759       4770       4769       4879       4880       4891       4890  
      4759       4760       4771       4770       4880       4881       4892       4891  
      4760       4761       4772       4771       4881       4882       4893       4892  
      4761       4762       4773       4772       4882       4883       4894       4893  
      4762       4763       4774       4773       4883       4884       4895       4894  
      4764       4765       4776       4775       4885       4886       4897       4896  
      4765       4766       4777       4776       4886       4887       4898       4897  
      4766       4767       4778       4777       4887       4888       4899       4898  
      4767       4768       4779       4778       4888       4889       4900       4899  
      4768       4769       4780       4779       4889       4890       4901       4900  
      4769       4770       4781       4780       4890       4891       4902       4901  
      4770       4771       4782       4781       4891       4892       4903       4902  
      4771       4772       4783       4782       4892       4893       4904       4903  
      4772       4773       4784       4783       4893       4894       4905       4904  
      4773       4774       4785       4784       4894       4895       4906       4905  
      4775       4776       4787       4786       4896       4897       4908       4907  
      4776       4777       4788       4787       4897       4898       4909       4908  
      4777       4778       4789       4788       4898       4899       4910       4909  
      4778       4779       4790       4789       4899       4900       4911       4910  
      4779       4780       4791       4790       4900       4901       4912       4911  
      4780       4781       4792       4791       4901       4902       4913       4912  
      4781       4782       4793       4792       4902       4903       4914       4913  
      4782       4783       4794       4793       4903       4904       4915       4914  
      4783       4784       4795       4794       4904       4905       4916       4915  
      4784       4785       4796       4795       4905       4906       4917       4916  
      4786       4787       4798       4797       4907       4908       4919       4918  
      4787       4788       4799       4798       4908       4909       4920       4919  
      4788       4789       4800       4799       4909       4910       4921       4920  
      4789       4790       4801       4800       4910       4911       4922       4921  
      4790       4791       4802       4801       4911       4912       4923       4922  
      4791       4792       4803       4802       4912       4913       4924       4923  
      4792       4793       4804       4803       4913       4914       4925       4924  
      4793       4794       4805       4804       4914       4915       4926       4925  
      4794       4795       4806       4805       4915       4916       4927       4926  
      4795       4796       4807       4806       4916       4917       4928       4927  
      4797       4798       4809       4808       4918       4919       4930       4929  
      4798       4799       4810       4809       4919       4920       4931       4930  
      4799       4800       4811       4810       4920       4921       4932       4931  
      4800       4801       4812       4811       4921       4922       4933       4932  
      4801       4802       4813       4812       4922       4923       4934       4933  
      4802       4803       4814       4813       4923       4924       4935       4934  
      4803       4804       4815       4814       4924       4925       4936       4935  
      4804       4805       4816       4815       4925       4926       4937       4936  
      4805       4806       4817       4816       4926       4927       4938       4937  
      4806       4807       4818       4817       4927       4928       4939       4938  
      4808       4809       4820       4819       4929       4930       4941       4940  
      4809       4810       4821       4820       4930       4931       4942       4941  
      4810       4811       4822       4821       4931       4932       4943       4942  
      4811       4812       4823       4822       4932       4933       4944       4943  
      4812       4813       4824       4823       4933       4934       4945       4944  
      4813       4814       4825       4824       4934       4935       4946       4945  
      4814       4815       4826       4825       4935       4936       4947       4946  
      4815       4816       4827       4826       4936       4937       4948       4947  
      4816       4817       4828       4827       4937       4938       4949       4948  
      4817       4818       4829       4828       4938       4939       4950       4949  
      4819       4820       4831       4830       4940       4941       4952       4951  
      4820       4821       4832       4831       4941       4942       4953       4952  
      4821       4822       4833       4832       4942       4943       4954       4953  
      4822       4823       4834       4833       4943       4944       4955       4954  
      4823       4824       4835       4834       4944       4945       4956       4955  
      4824       4825       4836       4835       4945       4946       4957       4956  
      4825       4826       4837       4836       4946       4947       4958       4957  
      4826       4827       4838       4837       4947       4948       4959       4958  
      4827       4828       4839       4838       4948       4949       4960       4959  
      4828       4829       4840       4839       4949       4950       4961       4960  
      4841       4842       4853       4852       4962       4963       4974       4973  
      4842       4843       4854       4853       4963       4964       4975       4974  
      4843       4844       4855       4854       4964       4965       4976       4975  
      4844       4845       4856       4855       4965       4966       4977       4976  
      4845       4846       4857       4856       4966       4967       4978       4977  
      4846       4847       4858       4857       4967       4968       4979       4978  
      4847       4848       4859       4858       4968       4969       4980       4979  
      4848       4849       4860       4859       4969       4970       4981       4980  
      4849       4850       4861       4860       4970       4971       4982       4981  
      4850       4851       4862       4861       4971       4972       4983       4982  
      4852       4853       4864       4863       4973       4974       4985       4984  
      4853       4854       4865       4864       4974       4975       4986       4985  
      4854       4855       4866       4865       4975       4976       4987       4986  
      4855       4856       4867       4866       4976       4977       4988       4987  
      4856       4857       4868       4867       4977       4978       4989       4988  
      4857       4858       4869       4868       4978       4979       4990       4989  
      4858       4859       4870       4869       4979       4980       4991       4990  
      4859       4860       4871       4870       4980       4981       4992       4991  
      4860       4861       4872       4871       4981       4982       4993       4992  
      4861       4862       4873       4872       4982       4983       4994       4993  
      4863       4864       4875       4874       4984       4985       4996       4995  
      4864       4865       4876       4875       4985       4986       4997       4996  
      4865       4866       4877       4876       4986       4987       4998       4997  
      4866       4867       4878       4877       4987       4988       4999       4998  
      4867       4868       4879       4878       4988       4989       5000       4999  
      4868       4869       4880       4879       4989       4990       5001       5000  
      4869       4870       4881       4880       4990       4991       5002       5001  
      4870       4871       4882       4881       4991       4992       5003       5002  
      4871       4872       4883       4882       4992       4993       5004       5003  
      4872       4873       4884       4883       4993       4994       5005       5004  
      4874       4875       4886       4885       4995       4996       5007       5006  
      4875       4876       4887       4886       4996       4997       5008       5007  
      4876       4877       4888       4887       4997       4998       5009       5008  
      4877       4878       4889       4888       4998       4999       5010       5009  
      4878       4879       4890       4889       4999       5000       5011       5010  
      4879       4880       4891       4890       5000       5001       5012       5011  
      4880       4881       4892       4891       5001       5002       5013       5012  
      4881       4882       4893       4892       5002       5003       5014       5013  
      4882       4883       4894       4893       5003       5004       5015       5014  
      4883       4884       4895       4894       5004       5005       5016       5015  
      4885       4886       4897       4896       5006       5007       5018       5017  
      4886       4887       4898       4897       5007       5008       5019       5018  
      4887       4888       4899       4898       5008       5009       5020       5019  
      4888       4889       4900       4899       5009       5010       5021       5020  
      4889       4890       4901       4900       5010       5011       5022       5021  
      4890       4891       4902       4901       5011       5012       5023       5022  
      4891       4892       4903       4902       5012       5013       5024       5023  
      4892       4893       4904       4903       5013       5014       5025       5024  
      4893       4894       4905       4904       5014       5015       5026       5025  
      4894       4895       4906       4905       5015       5016       5027       5026  
      4896       4897       4908       4907       5017       5018       5029       5028  
      4897       4898       4909       4908       5018       5019       5030       5029  
      4898       4899       4910       4909       5019       5020       5031       5030  
      4899       4900       4911       4910       5020       5021       5032       5031  
      4900       4901       4912       4911       5021       5022       5033       5032  
      4901       4902       4913       4912       5022       5023       5034       5033  
      4902       4903       4914       4913       5023       5024       5035       5034  
      4903       4904       4915       4914       5024       5025       5036       5035  
      4904       4905       4916       4915       5025       5026       5037       5036  
      4905       4906       4917       4916       5026       5027       5038       5037  
      4907       4908       4919       4918       5028       5029       5040       5039  
      4908       4909       4920       4919       5029       5030       5041       5040  
      4909       4910       4921       4920       5030       5031       5042       5041  
      4910       4911       4922       4921       5031       5032       5043       5042  
      4911       4912       4923       4922       5032       5033       5044       5043  
      4912       4913       4924       4923       5033       5034       5045       5044  
      4913       4914       4925       4924       5034       5035       5046       5045  
      4914       4915       4926       4925       5035       5036       5047       5046  
      4915       4916       4927       4926       5036       5037       5048       5047  
      4916       4917       4928       4927       5037       5038       5049       5048  
      4918       4919       4930       4929       5039       5040       5051       5050  
      4919       4920       4931       4930       5040       5041       5052       5051  
      4920       4921       4932       4931       5041       5042       5053       5052  
      4921       4922       4933       4932       5042       5043       5054       5053  
      4922       4923       4934       4933       5043       5044       5055       5054  
      4923       4924       4935       4934       5044       5045       5056       5055  
      4924       4925       4936       4935       5045       5046       5057       5056  
      4925       4926       4937       4936       5046       5047       5058       5057  
      4926       4927       4938       4937       5047       5048       5059       5058  
      4927       4928       4939       4938       5048       5049       5060       5059  
      4929       4930       4941       4940       5050       5051       5062       5061  
      4930       4931       4942       4941       5051       5052       5063       5062  
      4931       4932       4943       4942       5052       5053       5064       5063  
      4932       4933       4944       4943       5053       5054       5065       5064  
      4933       4934       4945       4944       5054       5055       5066       5065  
      4934       4935       4946       4945       5055       5056       5067       5066  
      4935       4936       4947       4946       5056       5057       5068       5067  
      4936       4937       4948       4947       5057       5058       5069       5068  
      4937       4938       4949       4948       5058       5059       5070       5069  
      4938       4939       4950       4949       5059       5060       5071       5070  
      4940       4941       4952       4951       5061       5062       5073       5072  
      4941       4942       4953       4952       5062       5063       5074       5073  
      4942       4943       4954       4953       5063       5064       5075       5074  
      4943       4944       4955       4954       5064       5065       5076       5075  
      4944       4945       4956       4955       5065       5066       5077       5076  
      4945       4946       4957       4956       5066       5067       5078       5077  
      4946       4947       4958       4957       5067       5068       5079       5078  
      4947       4948       4959       4958       5068       5069       5080       5079  
      4948       4949       4960       4959       5069       5070       5081       5080  
      4949       4950       4961       4960       5070       5071       5082       5081  
      4962       4963       4974       4973       5083       5084       5095       5094  
      4963       4964       4975       4974       5084       5085       5096       5095  
      4964       4965       4976       4975       5085       5086       5097       5096  
      4965       4966       4977       4976       5086       5087       5098       5097  
      4966       4967       4978       4977       5087       5088       5099       5098  
      4967       4968       4979       4978       5088       5089       5100       5099  
      4968       4969       4980       4979       5089       5090       5101       5100  
      4969       4970       4981       4980       5090       5091       5102       5101  
      4970       4971       4982       4981       5091       5092       5103       5102  
      4971       4972       4983       4982       5092       5093       5104       5103  
      4973       4974       4985       4984       5094       5095       5106       5105  
      4974       4975       4986       4985       5095       5096       5107       5106  
      4975       4976       4987       4986       5096       5097       5108       5107  
      4976       4977       4988       4987       5097       5098       5109       5108  
      4977       4978       4989       4988       5098       5099       5110       5109  
      4978       4979       4990       4989       5099       5100       5111       5110  
      4979       4980       4991       4990       5100       5101       5112       5111  
      4980       4981       4992       4991       5101       5102       5113       5112  
      4981       4982       4993       4992       5102       5103       5114       5113  
      4982       4983       4994       4993       5103       5104       5115       5114  
      4984       4985       4996       4995       5105       5106       5117       5116  
      4985       4986       4997       4996       5106       5107       5118       5117  
      4986       4987       4998       4997       5107       5108       5119       5118  
      4987       4988       4999       4998       5108       5109       5120       5119  
      4988       4989       5000       4999       5109       5110       5121       5120  
      4989       4990       5001       5000       5110       5111       5122       5121  
      4990       4991       5002       5001       5111       5112       5123       5122  
      4991       4992       5003       5002       5112       5113       5124       5123  
      4992       4993       5004       5003       5113       5114       5125       5124  
      4993       4994       5005       5004       5114       5115       5126       5125  
      4995       4996       5007       5006       5116       5117       5128       5127  
      4996       4997       5008       5007       5117       5118       5129       5128  
      4997       4998       5009       5008       5118       5119       5130       5129  
      4998       4999       5010       5009       5119       5120       5131       5130  
      4999       5000       5011       5010       5120       5121       5132       5131  
      5000       5001       5012       5011       5121       5122       5133       5132  
      5001       5002       5013       5012       5122       5123       5134       5133  
      5002       5003       5014       5013       5123       5124       5135       5134  
      5003       5004       5015       5014       5124       5125       5136       5135  
      5004       5005       5016       5015       5125       5126       5137       5136  
      5006       5007       5018       5017       5127       5128       5139       5138  
      5007       5008       5019       5018       5128       5129       5140       5139  
      5008       5009       5020       5019       5129       5130       5141       5140  
      5009       5010       5021       5020       5130       5131       5142       5141  
      5010       5011       5022       5021       5131       5132       5143       5142  
      5011       5012       5023       5022       5132       5133       5144       5143  
      5012       5013       5024       5023       5133       5134       5145       5144  
      5013       5014       5025       5024       5134       5135       5146       5145  
      5014       5015       5026       5025       5135       5136       5147       5146  
      5015       5016       5027       5026       5136       5137       5148       5147  
      5017       5018       5029       5028       5138       5139       5150       5149  
      5018       5019       5030       5029       5139       5140       5151       5150  
      5019       5020       5031       5030       5140       5141       5152       5151  
      5020       5021       5032       5031       5141       5142       5153       5152  
      5021       5022       5033       5032       5142       5143       5154       5153  
      5022       5023       5034       5033       5143       5144       5155       5154  
      5023       5024       5035       5034       5144       5145       5156       5155  
      5024       5025       5036       5035       5145       5146       5157       5156  
      5025       5026       5037       5036       5146       5147       5158       5157  
      5026       5027       5038       5037       5147       5148       5159       5158  
      5028       5029       5040       5039       5149       5150       5161       5160  
      5029       5030       5041       5040       5150       5151       5162       5161  
      5030       5031       5042       5041       5151       5152       5163       5162  
      5031       5032       5043       5042       5152       5153       5164       5163  
      5032       5033       5044       5043       5153       5154       5165       5164  
      5033       5034       5045       5044       5154       5155       5166       5165  
      5034       5035       5046       5045       5155       5156       5167       5166  
      5035       5036       5047       5046       5156       5157       5168       5167  
      5036       5037       5048       5047       5157       5158       5169       5168  
      5037       5038       5049       5048       5158       5159       5170       5169  
      5039       5040       5051       5050       5160       5161       5172       5171  
      5040       5041       5052       5051       5161       5162       5173       5172  
      5041       5042       5053       5052       5162       5163       5174       5173  
      5042       5043       5054       5053       5163       5164       5175       5174  
      5043       5044       5055       5054       5164       5165       5176       5175  
      5044       5045       5056       5055       5165       5166       5177       5176  
      5045       5046       5057       5056       5166       5167       5178       5177  
      5046       5047       5058       5057       5167       5168       5179       5178  
      5047       5048       5059       5058       5168       5169       5180       5179  
      5048       5049       5060       5059       5169       5170       5181       5180  
      5050       5051       5062       5061       5171       5172       5183       5182  
      5051       5052       5063       5062       5172       5173       5184       5183  
      5052       5053       5064       5063       5173       5174       5185       5184  
      5053       5054       5065       5064       5174       5175       5186       5185  
      5054       5055       5066       5065       5175       5176       5187       5186  
      5055       5056       5067       5066       5176       5177       5188       5187  
      5056       5057       5068       5067       5177       5178       5189       5188  
      5057       5058       5069       5068       5178       5179       5190       5189  
      5058       5059       5070       5069       5179       5180       5191       5190  
      5059       5060       5071       5070       5180       5181       5192       5191  
      5061       5062       5073       5072       5182       5183       5194       5193  
      5062       5063       5074       5073       5183       5184       5195       5194  
      5063       5064       5075       5074       5184       5185       5196       5195  
      5064       5065       5076       5075       5185       5186       5197       5196  
      5065       5066       5077       5076       5186       5187       5198       5197  
      5066       5067       5078       5077       5187       5188       5199       5198  
      5067       5068       5079       5078       5188       5189       5200       5199  
      5068       5069       5080       5079       5189       5190       5201       5200  
      5069       5070       5081       5080       5190       5191       5202       5201  
      5070       5071       5082       5081       5191       5192       5203       5202  
      5083       5084       5095       5094       5204       5205       5216       5215  
      5084       5085       5096       5095       5205       5206       5217       5216  
      5085       5086       5097       5096       5206       5207       5218       5217  
      5086       5087       5098       5097       5207       5208       5219       5218  
      5087       5088       5099       5098       5208       5209       5220       5219  
      5088       5089       5100       5099       5209       5210       5221       5220  
      5089       5090       5101       5100       5210       5211       5222       5221  
      5090       5091       5102       5101       5211       5212       5223       5222  
      5091       5092       5103       5102       5212       5213       5224       5223  
      5092       5093       5104       5103       5213       5214       5225       5224  
      5094       5095       5106       5105       5215       5216       5227       5226  
      5095       5096       5107       5106       5216       5217       5228       5227  
      5096       5097       5108       5107       5217       5218       5229       5228  
      5097       5098       5109       5108       5218       5219       5230       5229  
      5098       5099       5110       5109       5219       5220       5231       5230  
      5099       5100       5111       5110       5220       5221       5232       5231  
      5100       5101       5112       5111       5221       5222       5233       5232  
      5101       5102       5113       5112       5222       5223       5234       5233  
      5102       5103       5114       5113       5223       5224       5235       5234  
      5103       5104       5115       5114       5224       5225       5236       5235  
      5105       5106       5117       5116       5226       5227       5238       5237  
      5106       5107       5118       5117       5227       5228       5239       5238  
      5107       5108       5119       5118       5228       5229       5240       5239  
      5108       5109       5120       5119       5229       5230       5241       5240  
      5109       5110       5121       5120       5230       5231       5242       5241  
      5110       5111       5122       5121       5231       5232       5243       5242  
      5111       5112       5123       5122       5232       5233       5244       5243  
      5112       5113       5124       5123       5233       5234       5245       5244  
      5113       5114       5125       5124       5234       5235       5246       5245  
      5114       5115       5126       5125       5235       5236       5247       5246  
      5116       5117       5128       5127       5237       5238       5249       5248  
      5117       5118       5129       5128       5238       5239       5250       5249  
      5118       5119       5130       5129       5239       5240       5251       5250  
      5119       5120       5131       5130       5240       5241       5252       5251  
      5120       5121       5132       5131       5241       5242       5253       5252  
      5121       5122       5133       5132       5242       5243       5254       5253  
      5122       5123       5134       5133       5243       5244       5255       5254  
      5123       5124       5135       5134       5244       5245       5256       5255  
      5124       5125       5136       5135       5245       5246       5257       5256  
      5125       5126       5137       5136       5246       5247       5258       5257  
      5127       5128       5139       5138       5248       5249       5260       5259  
      5128       5129       5140       5139       5249       5250       5261       5260  
      5129       5130       5141       5140       5250       5251       5262       5261  
      5130       5131       5142       5141       5251       5252       5263       5262  
      5131       5132       5143       5142       5252       5253       5264       5263  
      5132       5133       5144       5143       5253       5254       5265       5264  
      5133       5134       5145       5144       5254       5255       5266       5265  
      5134       5135       5146       5145       5255       5256       5267       5266  
      5135       5136       5147       5146       5256       5257       5268       5267  
      5136       5137       5148       5147       5257       5258       5269       5268  
      5138       5139       5150       5149       5259       5260       5271       5270  
      5139       5140       5151       5150       5260       5261       5272       5271  
      5140       5141       5152       5151       5261       5262       5273       5272  
      5141       5142       5153       5152       5262       5263       5274       5273  
      5142       5143       5154       5153       5263       5264       5275       5274  
      5143       5144       5155       5154       5264       5265       5276       5275  
      5144       5145       5156       5155       5265       5266       5277       5276  
      5145       5146       5157       5156       5266       5267       5278       5277  
      5146       5147       5158       5157       5267       5268       5279       5278  
      5147       5148       5159       5158       5268       5269       5280       5279  
      5149       5150       5161       5160       5270       5271       5282       5281  
      5150       5151       5162       5161       5271       5272       5283       5282  
      5151       5152       5163       5162       5272       5273       5284       5283  
      5152       5153       5164       5163       5273       5274       5285       5284  
      5153       5154       5165       5164       5274       5275       5286       5285  
      5154       5155       5166       5165       5275       5276       5287       5286  
      5155       5156       5167       5166       5276       5277       5288       5287  
      5156       5157       5168       5167       5277       5278       5289       5288  
      5157       5158       5169       5168       5278       5279       5290       5289  
      5158       5159       5170       5169       5279       5280       5291       5290  
      5160       5161       5172       5171       5281       5282       5293       5292  
      5161       5162       5173       5172       5282       5283       5294       5293  
      5162       5163       5174       5173       5283       5284       5295       5294  
      5163       5164       5175       5174       5284       5285       5296       5295  
      5164       5165       5176       5175       5285       5286       5297       5296  
      5165       5166       5177       5176       5286       5287       5298       5297  
      5166       5167       5178       5177       5287       5288       5299       5298  
      5167       5168       5179       5178       5288       5289       5300       5299  
      5168       5169       5180       5179       5289       5290       5301       5300  
      5169       5170       5181       5180       5290       5291       5302       5301  
      5171       5172       5183       5182       5292       5293       5304       5303  
      5172       5173       5184       5183       5293       5294       5305       5304  
      5173       5174       5185       5184       5294       5295       5306       5305  
      5174       5175       5186       5185       5295       5296       5307       5306  
      5175       5176       5187       5186       5296       5297       5308       5307  
      5176       5177       5188       5187       5297       5298       5309       5308  
      5177       5178       5189       5188       5298       5299       5310       5309  
      5178       5179       5190       5189       5299       5300       5311       5310  
      5179       5180       5191       5190       5300       5301       5312       5311  
      5180       5181       5192       5191       5301       5302       5313       5312  
      5182       5183       5194       5193       5303       5304       5315       5314  
      5183       5184       5195       5194       5304       5305       5316       5315  
      5184       5185       5196       5195       5305       5306       5317       5316  
      5185       5186       5197       5196       5306       5307       5318       5317  
      5186       5187       5198       5197       5307       5308       5319       5318  
      5187       5188       5199       5198       5308       5309       5320       5319  
      5188       5189       5200       5199       5309       5310       5321       5320  
      5189       5190       5201       5200       5310       5311       5322       5321  
      5190       5191       5202       5201       5311       5312       5323       5322  
      5191       5192       5203       5202       5312       5313       5324       5323  
      5204       5205       5216       5215       5325       5326       5337       5336  
      5205       5206       5217       5216       5326       5327       5338       5337  
      5206       5207       5218       5217       5327       5328       5339       5338  
      5207       5208       5219       5218       5328       5329       5340       5339  
      5208       5209       5220       5219       5329       5330       5341       5340  
      5209       5210       5221       5220       5330       5331       5342       5341  
      5210       5211       5222       5221       5331       5332       5343       5342  
      5211       5212       5223       5222       5332       5333       5344       5343  
      5212       5213       5224       5223       5333       5334       5345       5344  
      5213       5214       5225       5224       5334       5335       5346       5345  
      5215       5216       5227       5226       5336       5337       5348       5347  
      5216       5217       5228       5227       5337       5338       5349       5348  
      5217       5218       5229       5228       5338       5339       5350       5349  
      5218       5219       5230       5229       5339       5340       5351       5350  
      5219       5220       5231       5230       5340       5341       5352       5351  
      5220       5221       5232       5231       5341       5342       5353       5352  
      5221       5222       5233       5232       5342       5343       5354       5353  
      5222       5223       5234       5233       5343       5344       5355       5354  
      5223       5224       5235       5234       5344       5345       5356       5355  
      5224       5225       5236       5235       5345       5346       5357       5356  
      5226       5227       5238       5237       5347       5348       5359       5358  
      5227       5228       5239       5238       5348       5349       5360       5359  
      5228       5229       5240       5239       5349       5350       5361       5360  
      5229       5230       5241       5240       5350       5351       5362       5361  
      5230       5231       5242       5241       5351       5352       5363       5362  
      5231       5232       5243       5242       5352       5353       5364       5363  
      5232       5233       5244       5243       5353       5354       5365       5364  
      5233       5234       5245       5244       5354       5355       5366       5365  
      5234       5235       5246       5245       5355       5356       5367       5366  
      5235       5236       5247       5246       5356       5357       5368       5367  
      5237       5238       5249       5248       5358       5359       5370       5369  
      5238       5239       5250       5249       5359       5360       5371       5370  
      5239       5240       5251       5250       5360       5361       5372       5371  
      5240       5241       5252       5251       5361       5362       5373       5372  
      5241       5242       5253       5252       5362       5363       5374       5373  
      5242       5243       5254       5253       5363       5364       5375       5374  
      5243       5244       5255       5254       5364       5365       5376       5375  
      5244       5245       5256       5255       5365       5366       5377       5376  
      5245       5246       5257       5256       5366       5367       5378       5377  
      5246       5247       5258       5257       5367       5368       5379       5378  
      5248       5249       5260       5259       5369       5370       5381       5380  
      5249       5250       5261       5260       5370       5371       5382       5381  
      5250       5251       5262       5261       5371       5372       5383       5382  
      5251       5252       5263       5262       5372       5373       5384       5383  
      5252       5253       5264       5263       5373       5374       5385       5384  
      5253       5254       5265       5264       5374       5375       5386       5385  
      5254       5255       5266       5265       5375       5376       5387       5386  
      5255       5256       5267       5266       5376       5377       5388       5387  
      5256       5257       5268       5267       5377       5378       5389       5388  
      5257       5258       5269       5268       5378       5379       5390       5389  
      5259       5260       5271       5270       5380       5381       5392       5391  
      5260       5261       5272       5271       5381       5382       5393       5392  
      5261       5262       5273       5272       5382       5383       5394       5393  
      5262       5263       5274       5273       5383       5384       5395       5394  
      5263       5264       5275       5274       5384       5385       5396       5395  
      5264       5265       5276       5275       5385       5386       5397       5396  
      5265       5266       5277       5276       5386       5387       5398       5397  
      5266       5267       5278       5277       5387       5388       5399       5398  
      5267       5268       5279       5278       5388       5389       5400       5399  
      5268       5269       5280       5279       5389       5390       5401       5400  
      5270       5271       5282       5281       5391       5392       5403       5402  
      5271       5272       5283       5282       5392       5393       5404       5403  
      5272       5273       5284       5283       5393       5394       5405       5404  
      5273       5274       5285       5284       5394       5395       5406       5405  
      5274       5275       5286       5285       5395       5396       5407       5406  
      5275       5276       5287       5286       5396       5397       5408       5407  
      5276       5277       5288       5287       5397       5398       5409       5408  
      5277       5278       5289       5288       5398       5399       5410       5409  
      5278       5279       5290       5289       5399       5400       5411       5410  
      5279       5280       5291       5290       5400       5401       5412       5411  
      5281       5282       5293       5292       5402       5403       5414       5413  
      5282       5283       5294       5293       5403       5404       5415       5414  
      5283       5284       5295       5294       5404       5405       5416       5415  
      5284       5285       5296       5295       5405       5406       5417       5416  
      5285       5286       5297       5296       5406       5407       5418       5417  
      5286       5287       5298       5297       5407       5408       5419       5418  
      5287       5288       5299       5298       5408       5409       5420       5419  
      5288       5289       5300       5299       5409       5410       5421       5420  
      5289       5290       5301       5300       5410       5411       5422       5421  
      5290       5291       5302       5301       5411       5412       5423       5422  
      5292       5293       5304       5303       5413       5414       5425       5424  
      5293       5294       5305       5304       5414       5415       5426       5425  
      5294       5295       5306       5305       5415       5416       5427       5426  
      5295       5296       5307       5306       5416       5417       5428       5427  
      5296       5297       5308       5307       5417       5418       5429       5428  
      5297       5298       5309       5308       5418       5419       5430       5429  
      5298       5299       5310       5309       5419       5420       5431       5430  
      5299       5300       5311       5310       5420       5421       5432       5431  
      5300       5301       5312       5311       5421       5422       5433       5432  
      5301       5302       5313       5312       5422       5423       5434       5433  
      5303       5304       5315       5314       5424       5425       5436       5435  
      5304       5305       5316       5315       5425       5426       5437       5436  
      5305       5306       5317       5316       5426       5427       5438       5437  
      5306       5307       5318       5317       5427       5428       5439       5438  
      5307       5308       5319       5318       5428       5429       5440       5439  
      5308       5309       5320       5319       5429       5430       5441       5440  
      5309       5310       5321       5320       5430       5431       5442       5441  
      5310       5311       5322       5321       5431       5432       5443       5442  
      5311       5312       5323       5322       5432       5433       5444       5443  
      5312       5313       5324       5323       5433       5434       5445       5444  
      5325       5326       5337       5336       5446       5447       5458       5457  
      5326       5327       5338       5337       5447       5448       5459       5458  
      5327       5328       5339       5338       5448       5449       5460       5459  
      5328       5329       5340       5339       5449       5450       5461       5460  
      5329       5330       5341       5340       5450       5451       5462       5461  
      5330       5331       5342       5341       5451       5452       5463       5462  
      5331       5332       5343       5342       5452       5453       5464       5463  
      5332       5333       5344       5343       5453       5454       5465       5464  
      5333       5334       5345       5344       5454       5455       5466       5465  
      5334       5335       5346       5345       5455       5456       5467       5466  
      5336       5337       5348       5347       5457       5458       5469       5468  
      5337       5338       5349       5348       5458       5459       5470       5469  
      5338       5339       5350       5349       5459       5460       5471       5470  
      5339       5340       5351       5350       5460       5461       5472       5471  
      5340       5341       5352       5351       5461       5462       5473       5472  
      5341       5342       5353       5352       5462       5463       5474       5473  
      5342       5343       5354       5353       5463       5464       5475       5474  
      5343       5344       5355       5354       5464       5465       5476       5475  
      5344       5345       5356       5355       5465       5466       5477       5476  
      5345       5346       5357       5356       5466       5467       5478       5477  
      5347       5348       5359       5358       5468       5469       5480       5479  
      5348       5349       5360       5359       5469       5470       5481       5480  
      5349       5350       5361       5360       5470       5471       5482       5481  
      5350       5351       5362       5361       5471       5472       5483       5482  
      5351       5352       5363       5362       5472       5473       5484       5483  
      5352       5353       5364       5363       5473       5474       5485       5484  
      5353       5354       5365       5364       5474       5475       5486       5485  
      5354       5355       5366       5365       5475       5476       5487       5486  
      5355       5356       5367       5366       5476       5477       5488       5487  
      5356       5357       5368       5367       5477       5478       5489       5488  
      5358       5359       5370       5369       5479       5480       5491       5490  
      5359       5360       5371       5370       5480       5481       5492       5491  
      5360       5361       5372       5371       5481       5482       5493       5492  
      5361       5362       5373       5372       5482       5483       5494       5493  
      5362       5363       5374       5373       5483       5484       5495       5494  
      5363       5364       5375       5374       5484       5485       5496       5495  
      5364       5365       5376       5375       5485       5486       5497       5496  
      5365       5366       5377       5376       5486       5487       5498       5497  
      5366       5367       5378       5377       5487       5488       5499       5498  
      5367       5368       5379       5378       5488       5489       5500       5499  
      5369       5370       5381       5380       5490       5491       5502       5501  
      5370       5371       5382       5381       5491       5492       5503       5502  
      5371       5372       5383       5382       5492       5493       5504       5503  
      5372       5373       5384       5383       5493       5494       5505       5504  
      5373       5374       5385       5384       5494       5495       5506       5505  
      5374       5375       5386       5385       5495       5496       5507       5506  
      5375       5376       5387       5386       5496       5497       5508       5507  
      5376       5377       5388       5387       5497       5498       5509       5508  
      5377       5378       5389       5388       5498       5499       5510       5509  
      5378       5379       5390       5389       5499       5500       5511       5510  
      5380       5381       5392       5391       5501       5502       5513       5512  
      5381       5382       5393       5392       5502       5503       5514       5513  
      5382       5383       5394       5393       5503       5504       5515       5514  
      5383       5384       5395       5394       5504       5505       5516       5515  
      5384       5385       5396       5395       5505       5506       5517       5516  
      5385       5386       5397       5396       5506       5507       5518       5517  
      5386       5387       5398       5397       5507       5508       5519       5518  
      5387       5388       5399       5398       5508       5509       5520       5519  
      5388       5389       5400       5399       5509       5510       5521       5520  
      5389       5390       5401       5400       5510       5511       5522       5521  
      5391       5392       5403       5402       5512       5513       5524       5523  
      5392       5393       5404       5403       5513       5514       5525       5524  
      5393       5394       5405       5404       5514       5515       5526       5525  
      5394       5395       5406       5405       5515       5516       5527       5526  
      5395       5396       5407       5406       5516       5517       5528       5527  
      5396       5397       5408       5407       5517       5518       5529       5528  
      5397       5398       5409       5408       5518       5519       5530       5529  
      5398       5399       5410       5409       5519       5520       5531       5530  
      5399       5400       5411       5410       5520       5521       5532       5531  
      5400       5401       5412       5411       5521       5522       5533       5532  
      5402       5403       5414       5413       5523       5524       5535       5534  
      5403       5404       5415       5414       5524       5525       5536       5535  
      5404       5405       5416       5415       5525       5526       5537       5536  
      5405       5406       5417       5416       5526       5527       5538       5537  
      5406       5407       5418       5417       5527       5528       5539       5538  
      5407       5408       5419       5418       5528       5529       5540       5539  
      5408       5409       5420       5419       5529       5530       5541       5540  
      5409       5410       5421       5420       5530       5531       5542       5541  
      5410       5411       5422       5421       5531       5532       5543       5542  
      5411       5412       5423       5422       5532       5533       5544       5543  
      5413       5414       5425       5424       5534       5535       5546       5545  
      5414       5415       5426       5425       5535       5536       5547       5546  
      5415       5416       5427       5426       5536       5537       5548       5547  
      5416       5417       5428       5427       5537       5538       5549       5548  
      5417       5418       5429       5428       5538       5539       5550       5549  
      5418       5419       5430       5429       5539       5540       5551       5550  
      5419       5420       5431       5430       5540       5541       5552       5551  
      5420       5421       5432       5431       5541       5542       5553       5552  
      5421       5422       5433       5432       5542       5543       5554       5553  
      5422       5423       5434       5433       5543       5544       5555       5554  
      5424       5425       5436       5435       5545       5546       5557       5556  
      5425       5426       5437       5436       5546       5547       5558       5557  
      5426       5427       5438       5437       5547       5548       5559       5558  
      5427       5428       5439       5438       5548       5549       5560       5559  
      5428       5429       5440       5439       5549       5550       5561       5560  
      5429       5430       5441       5440       5550       5551       5562       5561  
      5430       5431       5442       5441       5551       5552       5563       5562  
      5431       5432       5443       5442       5552       5553       5564       5563  
      5432       5433       5444       5443       5553       5554       5565       5564  
      5433       5434       5445       5444       5554       5555       5566       5565  
      5446       5447       5458       5457       5567       5568       5579       5578  
      5447       5448       5459       5458       5568       5569       5580       5579  
      5448       5449       5460       5459       5569       5570       5581       5580  
      5449       5450       5461       5460       5570       5571       5582       5581  
      5450       5451       5462       5461       5571       5572       5583       5582  
      5451       5452       5463       5462       5572       5573       5584       5583  
      5452       5453       5464       5463       5573       5574       5585       5584  
      5453       5454       5465       5464       5574       5575       5586       5585  
      5454       5455       5466       5465       5575       5576       5587       5586  
      5455       5456       5467       5466       5576       5577       5588       5587  
      5457       5458       5469       5468       5578       5579       5590       5589  
      5458       5459       5470       5469       5579       5580       5591       5590  
      5459       5460       5471       5470       5580       5581       5592       5591  
      5460       5461       5472       5471       5581       5582       5593       5592  
      5461       5462       5473       5472       5582       5583       5594       5593  
      5462       5463       5474       5473       5583       5584       5595       5594  
      5463       5464       5475       5474       5584       5585       5596       5595  
      5464       5465       5476       5475       5585       5586       5597       5596  
      5465       5466       5477       5476       5586       5587       5598       5597  
      5466       5467       5478       5477       5587       5588       5599       5598  
      5468       5469       5480       5479       5589       5590       5601       5600  
      5469       5470       5481       5480       5590       5591       5602       5601  
      5470       5471       5482       5481       5591       5592       5603       5602  
      5471       5472       5483       5482       5592       5593       5604       5603  
      5472       5473       5484       5483       5593       5594       5605       5604  
      5473       5474       5485       5484       5594       5595       5606       5605  
      5474       5475       5486       5485       5595       5596       5607       5606  
      5475       5476       5487       5486       5596       5597       5608       5607  
      5476       5477       5488       5487       5597       5598       5609       5608  
      5477       5478       5489       5488       5598       5599       5610       5609  
      5479       5480       5491       5490       5600       5601       5612       5611  
      5480       5481       5492       5491       5601       5602       5613       5612  
      5481       5482       5493       5492       5602       5603       5614       5613  
      5482       5483       5494       5493       5603       5604       5615       5614  
      5483       5484       5495       5494       5604       5605       5616       5615  
      5484       5485       5496       5495       5605       5606       5617       5616  
      5485       5486       5497       5496       5606       5607       5618       5617  
      5486       5487       5498       5497       5607       5608       5619       5618  
      5487       5488       5499       5498       5608       5609       5620       5619  
      5488       5489       5500       5499       5609       5610       5621       5620  
      5490       5491       5502       5501       5611       5612       5623       5622  
      5491       5492       5503       5502       5612       5613       5624       5623  
      5492       5493       5504       5503       5613       5614       5625       5624  
      5493       5494       5505       5504       5614       5615       5626       5625  
      5494       5495       5506       5505       5615       5616       5627       5626  
      5495       5496       5507       5506       5616       5617       5628       5627  
      5496       5497       5508       5507       5617       5618       5629       5628  
      5497       5498       5509       5508       5618       5619       5630       5629  
      5498       5499       5510       5509       5619       5620       5631       5630  
      5499       5500       5511       5510       5620       5621       5632       5631  
      5501       5502       5513       5512       5622       5623       5634       5633  
      5502       5503       5514       5513       5623       5624       5635       5634  
      5503       5504       5515       5514       5624       5625       5636       5635  
      5504       5505       5516       5515       5625       5626       5637       5636  
      5505       5506       5517       5516       5626       5627       5638       5637  
      5506       5507       5518       5517       5627       5628       5639       5638  
      5507       5508       5519       5518       5628       5629       5640       5639  
      5508       5509       5520       5519       5629       5630       5641       5640  
      5509       5510       5521       5520       5630       5631       5642       5641  
      5510       5511       5522       5521       5631       5632       5643       5642  
      5512       5513       5524       5523       5633       5634       5645       5644  
      5513       5514       5525       5524       5634       5635       5646       5645  
      5514       5515       5526       5525       5635       5636       5647       5646  
      5515       5516       5527       5526       5636       5637       5648       5647  
      5516       5517       5528       5527       5637       5638       5649       5648  
      5517       5518       5529       5528       5638       5639       5650       5649  
      5518       5519       5530       5529       5639       5640       5651       5650  
      5519       5520       5531       5530       5640       5641       5652       5651  
      5520       5521       5532       5531       5641       5642       5653       5652  
      5521       5522       5533       5532       5642       5643       5654       5653  
      5523       5524       5535       5534       5644       5645       5656       5655  
      5524       5525       5536       5535       5645       5646       5657       5656  
      5525       5526       5537       5536       5646       5647       5658       5657  
      5526       5527       5538       5537       5647       5648       5659       5658  
      5527       5528       5539       5538       5648       5649       5660       5659  
      5528       5529       5540       5539       5649       5650       5661       5660  
      5529       5530       5541       5540       5650       5651       5662       5661  
      5530       5531       5542       5541       5651       5652       5663       5662  
      5531       5532       5543       5542       5652       5653       5664       5663  
      5532       5533       5544       5543       5653       5654       5665       5664  
      5534       5535       5546       5545       5655       5656       5667       5666  
      5535       5536       5547       5546       5656       5657       5668       5667  
      5536       5537       5548       5547       5657       5658       5669       5668  
      5537       5538       5549       5548       5658       5659       5670       5669  
      5538       5539       5550       5549       5659       5660       5671       5670  
      5539       5540       5551       5550       5660       5661       5672       5671  
      5540       5541       5552       5551       5661       5662       5673       5672  
      5541       5542       5553       5552       5662       5663       5674       5673  
      5542       5543       5554       5553       5663       5664       5675       5674  
      5543       5544       5555       5554       5664       5665       5676       5675  
      5545       5546       5557       5556       5666       5667       5678       5677  
      5546       5547       5558       5557       5667       5668       5679       5678  
      5547       5548       5559       5558       5668       5669       5680       5679  
      5548       5549       5560       5559       5669       5670       5681       5680  
      5549       5550       5561       5560       5670       5671       5682       5681  
      5550       5551       5562       5561       5671       5672       5683       5682  
      5551       5552       5563       5562       5672       5673       5684       5683  
      5552       5553       5564       5563       5673       5674       5685       5684  
      5553       5554       5565       5564       5674       5675       5686       5685  
      5554       5555       5566       5565       5675       5676       5687       5686  
      5567       5568       5579       5578       5688       5689       5700       5699  
      5568       5569       5580       5579       5689       5690       5701       5700  
      5569       5570       5581       5580       5690       5691       5702       5701  
      5570       5571       5582       5581       5691       5692       5703       5702  
      5571       5572       5583       5582       5692       5693       5704       5703  
      5572       5573       5584       5583       5693       5694       5705       5704  
      5573       5574       5585       5584       5694       5695       5706       5705  
      5574       5575       5586       5585       5695       5696       5707       5706  
      5575       5576       5587       5586       5696       5697       5708       5707  
      5576       5577       5588       5587       5697       5698       5709       5708  
      5578       5579       5590       5589       5699       5700       5711       5710  
      5579       5580       5591       5590       5700       5701       5712       5711  
      5580       5581       5592       5591       5701       5702       5713       5712  
      5581       5582       5593       5592       5702       5703       5714       5713  
      5582       5583       5594       5593       5703       5704       5715       5714  
      5583       5584       5595       5594       5704       5705       5716       5715  
      5584       5585       5596       5595       5705       5706       5717       5716  
      5585       5586       5597       5596       5706       5707       5718       5717  
      5586       5587       5598       5597       5707       5708       5719       5718  
      5587       5588       5599       5598       5708       5709       5720       5719  
      5589       5590       5601       5600       5710       5711       5722       5721  
      5590       5591       5602       5601       5711       5712       5723       5722  
      5591       5592       5603       5602       5712       5713       5724       5723  
      5592       5593       5604       5603       5713       5714       5725       5724  
      5593       5594       5605       5604       5714       5715       5726       5725  
      5594       5595       5606       5605       5715       5716       5727       5726  
      5595       5596       5607       5606       5716       5717       5728       5727  
      5596       5597       5608       5607       5717       5718       5729       5728  
      5597       5598       5609       5608       5718       5719       5730       5729  
      5598       5599       5610       5609       5719       5720       5731       5730  
      5600       5601       5612       5611       5721       5722       5733       5732  
      5601       5602       5613       5612       5722       5723       5734       5733  
      5602       5603       5614       5613       5723       5724       5735       5734  
      5603       5604       5615       5614       5724       5725       5736       5735  
      5604       5605       5616       5615       5725       5726       5737       5736  
      5605       5606       5617       5616       5726       5727       5738       5737  
      5606       5607       5618       5617       5727       5728       5739       5738  
      5607       5608       5619       5618       5728       5729       5740       5739  
      5608       5609       5620       5619       5729       5730       5741       5740  
      5609       5610       5621       5620       5730       5731       5742       5741  
      5611       5612       5623       5622       5732       5733       5744       5743  
      5612       5613       5624       5623       5733       5734       5745       5744  
      5613       5614       5625       5624       5734       5735       5746       5745  
      5614       5615       5626       5625       5735       5736       5747       5746  
      5615       5616       5627       5626       5736       5737       5748       5747  
      5616       5617       5628       5627       5737       5738       5749       5748  
      5617       5618       5629       5628       5738       5739       5750       5749  
      5618       5619       5630       5629       5739       5740       5751       5750  
      5619       5620       5631       5630       5740       5741       5752       5751  
      5620       5621       5632       5631       5741       5742       5753       5752  
      5622       5623       5634       5633       5743       5744       5755       5754  
      5623       5624       5635       5634       5744       5745       5756       5755  
      5624       5625       5636       5635       5745       5746       5757       5756  
      5625       5626       5637       5636       5746       5747       5758       5757  
      5626       5627       5638       5637       5747       5748       5759       5758  
      5627       5628       5639       5638       5748       5749       5760       5759  
      5628       5629       5640       5639       5749       5750       5761       5760  
      5629       5630       5641       5640       5750       5751       5762       5761  
      5630       5631       5642       5641       5751       5752       5763       5762  
      5631       5632       5643       5642       5752       5753       5764       5763  
      5633       5634       5645       5644       5754       5755       5766       5765  
      5634       5635       5646       5645       5755       5756       5767       5766  
      5635       5636       5647       5646       5756       5757       5768       5767  
      5636       5637       5648       5647       5757       5758       5769       5768  
      5637       5638       5649       5648       5758       5759       5770       5769  
      5638       5639       5650       5649       5759       5760       5771       5770  
      5639       5640       5651       5650       5760       5761       5772       5771  
      5640       5641       5652       5651       5761       5762       5773       5772  
      5641       5642       5653       5652       5762       5763       5774       5773  
      5642       5643       5654       5653       5763       5764       5775       5774  
      5644       5645       5656       5655       5765       5766       5777       5776  
      5645       5646       5657       5656       5766       5767       5778       5777  
      5646       5647       5658       5657       5767       5768       5779       5778  
      5647       5648       5659       5658       5768       5769       5780       5779  
      5648       5649       5660       5659       5769       5770       5781       5780  
      5649       5650       5661       5660       5770       5771       5782       5781  
      5650       5651       5662       5661       5771       5772       5783       5782  
      5651       5652       5663       5662       5772       5773       5784       5783  
      5652       5653       5664       5663       5773       5774       5785       5784  
      5653       5654       5665       5664       5774       5775       5786       5785  
      5655       5656       5667       5666       5776       5777       5788       5787  
      5656       5657       5668       5667       5777       5778       5789       5788  
      5657       5658       5669       5668       5778       5779       5790       5789  
      5658       5659       5670       5669       5779       5780       5791       5790  
      5659       5660       5671       5670       5780       5781       5792       5791  
      5660       5661       5672       5671       5781       5782       5793       5792  
      5661       5662       5673       5672       5782       5783       5794       5793  
      5662       5663       5674       5673       5783       5784       5795       5794  
      5663       5664       5675       5674       5784       5785       5796       5795  
      5664       5665       5676       5675       5785       5786       5797       5796  
      5666       5667       5678       5677       5787       5788       5799       5798  
      5667       5668       5679       5678       5788       5789       5800       5799  
      5668       5669       5680       5679       5789       5790       5801       5800  
      5669       5670       5681       5680       5790       5791       5802       5801  
      5670       5671       5682       5681       5791       5792       5803       5802  
      5671       5672       5683       5682       5792       5793       5804       5803  
      5672       5673       5684       5683       5793       5794       5805       5804  
      5673       5674       5685       5684       5794       5795       5806       5805  
      5674       5675       5686       5685       5795       5796       5807       5806  
      5675       5676       5687       5686       5796       5797       5808       5807  
      5688       5689       5700       5699       5809       5810       5821       5820  
      5689       5690       5701       5700       5810       5811       5822       5821  
      5690       5691       5702       5701       5811       5812       5823       5822  
      5691       5692       5703       5702       5812       5813       5824       5823  
      5692       5693       5704       5703       5813       5814       5825       5824  
      5693       5694       5705       5704       5814       5815       5826       5825  
      5694       5695       5706       5705       5815       5816       5827       5826  
      5695       5696       5707       5706       5816       5817       5828       5827  
      5696       5697       5708       5707       5817       5818       5829       5828  
      5697       5698       5709       5708       5818       5819       5830       5829  
      5699       5700       5711       5710       5820       5821       5832       5831  
      5700       5701       5712       5711       5821       5822       5833       5832  
      5701       5702       5713       5712       5822       5823       5834       5833  
      5702       5703       5714       5713       5823       5824       5835       5834  
      5703       5704       5715       5714       5824       5825       5836       5835  
      5704       5705       5716       5715       5825       5826       5837       5836  
      5705       5706       5717       5716       5826       5827       5838       5837  
      5706       5707       5718       5717       5827       5828       5839       5838  
      5707       5708       5719       5718       5828       5829       5840       5839  
      5708       5709       5720       5719       5829       5830       5841       5840  
      5710       5711       5722       5721       5831       5832       5843       5842  
      5711       5712       5723       5722       5832       5833       5844       5843  
      5712       5713       5724       5723       5833       5834       5845       5844  
      5713       5714       5725       5724       5834       5835       5846       5845  
      5714       5715       5726       5725       5835       5836       5847       5846  
      5715       5716       5727       5726       5836       5837       5848       5847  
      5716       5717       5728       5727       5837       5838       5849       5848  
      5717       5718       5729       5728       5838       5839       5850       5849  
      5718       5719       5730       5729       5839       5840       5851       5850  
      5719       5720       5731       5730       5840       5841       5852       5851  
      5721       5722       5733       5732       5842       5843       5854       5853  
      5722       5723       5734       5733       5843       5844       5855       5854  
      5723       5724       5735       5734       5844       5845       5856       5855  
      5724       5725       5736       5735       5845       5846       5857       5856  
      5725       5726       5737       5736       5846       5847       5858       5857  
      5726       5727       5738       5737       5847       5848       5859       5858  
      5727       5728       5739       5738       5848       5849       5860       5859  
      5728       5729       5740       5739       5849       5850       5861       5860  
      5729       5730       5741       5740       5850       5851       5862       5861  
      5730       5731       5742       5741       5851       5852       5863       5862  
      5732       5733       5744       5743       5853       5854       5865       5864  
      5733       5734       5745       5744       5854       5855       5866       5865  
      5734       5735       5746       5745       5855       5856       5867       5866  
      5735       5736       5747       5746       5856       5857       5868       5867  
      5736       5737       5748       5747       5857       5858       5869       5868  
      5737       5738       5749       5748       5858       5859       5870       5869  
      5738       5739       5750       5749       5859       5860       5871       5870  
      5739       5740       5751       5750       5860       5861       5872       5871  
      5740       5741       5752       5751       5861       5862       5873       5872  
      5741       5742       5753       5752       5862       5863       5874       5873  
      5743       5744       5755       5754       5864       5865       5876       5875  
      5744       5745       5756       5755       5865       5866       5877       5876  
      5745       5746       5757       5756       5866       5867       5878       5877  
      5746       5747       5758       5757       5867       5868       5879       5878  
      5747       5748       5759       5758       5868       5869       5880       5879  
      5748       5749       5760       5759       5869       5870       5881       5880  
      5749       5750       5761       5760       5870       5871       5882       5881  
      5750       5751       5762       5761       5871       5872       5883       5882  
      5751       5752       5763       5762       5872       5873       5884       5883  
      5752       5753       5764       5763       5873       5874       5885       5884  
      5754       5755       5766       5765       5875       5876       5887       5886  
      5755       5756       5767       5766       5876       5877       5888       5887  
      5756       5757       5768       5767       5877       5878       5889       5888  
      5757       5758       5769       5768       5878       5879       5890       5889  
      5758       5759       5770       5769       5879       5880       5891       5890  
      5759       5760       5771       5770       5880       5881       5892       5891  
      5760       5761       5772       5771       5881       5882       5893       5892  
      5761       5762       5773       5772       5882       5883       5894       5893  
      5762       5763       5774       5773       5883       5884       5895       5894  
      5763       5764       5775       5774       5884       5885       5896       5895  
      5765       5766       5777       5776       5886       5887       5898       5897  
      5766       5767       5778       5777       5887       5888       5899       5898  
      5767       5768       5779       5778       5888       5889       5900       5899  
      5768       5769       5780       5779       5889       5890       5901       5900  
      5769       5770       5781       5780       5890       5891       5902       5901  
      5770       5771       5782       5781       5891       5892       5903       5902  
      5771       5772       5783       5782       5892       5893       5904       5903  
      5772       5773       5784       5783       5893       5894       5905       5904  
      5773       5774       5785       5784       5894       5895       5906       5905  
      5774       5775       5786       5785       5895       5896       5907       5906  
      5776       5777       5788       5787       5897       5898       5909       5908  
      5777       5778       5789       5788       5898       5899       5910       5909  
      5778       5779       5790       5789       5899       5900       5911       5910  
      5779       5780       5791       5790       5900       5901       5912       5911  
      5780       5781       5792       5791       5901       5902       5913       5912  
      5781       5782       5793       5792       5902       5903       5914       5913  
      5782       5783       5794       5793       5903       5904       5915       5914  
      5783       5784       5795       5794       5904       5905       5916       5915  
      5784       5785       5796       5795       5905       5906       5917       5916  
      5785       5786       5797       5796       5906       5907       5918       5917  
      5787       5788       5799       5798       5908       5909       5920       5919  
      5788       5789       5800       5799       5909       5910       5921       5920  
      5789       5790       5801       5800       5910       5911       5922       5921  
      5790       5791       5802       5801       5911       5912       5923       5922  
      5791       5792       5803       5802       5912       5913       5924       5923  
      5792       5793       5804       5803       5913       5914       5925       5924  
      5793       5794       5805       5804       5914       5915       5926       5925  
      5794       5795       5806       5805       5915       5916       5927       5926  
      5795       5796       5807       5806       5916       5917       5928       5927  
      5796       5797       5808       5807       5917       5918       5929       5928  
      5809       5810       5821       5820       5930       5931       5942       5941  
      5810       5811       5822       5821       5931       5932       5943       5942  
      5811       5812       5823       5822       5932       5933       5944       5943  
      5812       5813       5824       5823       5933       5934       5945       5944  
      5813       5814       5825       5824       5934       5935       5946       5945  
      5814       5815       5826       5825       5935       5936       5947       5946  
      5815       5816       5827       5826       5936       5937       5948       5947  
      5816       5817       5828       5827       5937       5938       5949       5948  
      5817       5818       5829       5828       5938       5939       5950       5949  
      5818       5819       5830       5829       5939       5940       5951       5950  
      5820       5821       5832       5831       5941       5942       5953       5952  
      5821       5822       5833       5832       5942       5943       5954       5953  
      5822       5823       5834       5833       5943       5944       5955       5954  
      5823       5824       5835       5834       5944       5945       5956       5955  
      5824       5825       5836       5835       5945       5946       5957       5956  
      5825       5826       5837       5836       5946       5947       5958       5957  
      5826       5827       5838       5837       5947       5948       5959       5958  
      5827       5828       5839       5838       5948       5949       5960       5959  
      5828       5829       5840       5839       5949       5950       5961       5960  
      5829       5830       5841       5840       5950       5951       5962       5961  
      5831       5832       5843       5842       5952       5953       5964       5963  
      5832       5833       5844       5843       5953       5954       5965       5964  
      5833       5834       5845       5844       5954       5955       5966       5965  
      5834       5835       5846       5845       5955       5956       5967       5966  
      5835       5836       5847       5846       5956       5957       5968       5967  
      5836       5837       5848       5847       5957       5958       5969       5968  
      5837       5838       5849       5848       5958       5959       5970       5969  
      5838       5839       5850       5849       5959       5960       5971       5970  
      5839       5840       5851       5850       5960       5961       5972       5971  
      5840       5841       5852       5851       5961       5962       5973       5972  
      5842       5843       5854       5853       5963       5964       5975       5974  
      5843       5844       5855       5854       5964       5965       5976       5975  
      5844       5845       5856       5855       5965       5966       5977       5976  
      5845       5846       5857       5856       5966       5967       5978       5977  
      5846       5847       5858       5857       5967       5968       5979       5978  
      5847       5848       5859       5858       5968       5969       5980       5979  
      5848       5849       5860       5859       5969       5970       5981       5980  
      5849       5850       5861       5860       5970       5971       5982       5981  
      5850       5851       5862       5861       5971       5972       5983       5982  
      5851       5852       5863       5862       5972       5973       5984       5983  
      5853       5854       5865       5864       5974       5975       5986       5985  
      5854       5855       5866       5865       5975       5976       5987       5986  
      5855       5856       5867       5866       5976       5977       5988       5987  
      5856       5857       5868       5867       5977       5978       5989       5988  
      5857       5858       5869       5868       5978       5979       5990       5989  
      5858       5859       5870       5869       5979       5980       5991       5990  
      5859       5860       5871       5870       5980       5981       5992       5991  
      5860       5861       5872       5871       5981       5982       5993       5992  
      5861       5862       5873       5872       5982       5983       5994       5993  
      5862       5863       5874       5873       5983       5984       5995       5994  
      5864       5865       5876       5875       5985       5986       5997       5996  
      5865       5866       5877       5876       5986       5987       5998       5997  
      5866       5867       5878       5877       5987       5988       5999       5998  
      5867       5868       5879       5878       5988       5989       6000       5999  
      5868       5869       5880       5879       5989       5990       6001       6000  
      5869       5870       5881       5880       5990       5991       6002       6001  
      5870       5871       5882       5881       5991       5992       6003       6002  
      5871       5872       5883       5882       5992       5993       6004       6003  
      5872       5873       5884       5883       5993       5994       6005       6004  
      5873       5874       5885       5884       5994       5995       6006       6005  
      5875       5876       5887       5886       5996       5997       6008       6007  
      5876       5877       5888       5887       5997       5998       6009       6008  
      5877       5878       5889       5888       5998       5999       6010       6009  
      5878       5879       5890       5889       5999       6000       6011       6010  
      5879       5880       5891       5890       6000       6001       6012       6011  
      5880       5881       5892       5891       6001       6002       6013       6012  
      5881       5882       5893       5892       6002       6003       6014       6013  
      5882       5883       5894       5893       6003       6004       6015       6014  
      5883       5884       5895       5894       6004       6005       6016       6015  
      5884       5885       5896       5895       6005       6006       6017       6016  
      5886       5887       5898       5897       6007       6008       6019       6018  
      5887       5888       5899       5898       6008       6009       6020       6019  
      5888       5889       5900       5899       6009       6010       6021       6020  
      5889       5890       5901       5900       6010       6011       6022       6021  
      5890       5891       5902       5901       6011       6012       6023       6022  
      5891       5892       5903       5902       6012       6013       6024       6023  
      5892       5893       5904       5903       6013       6014       6025       6024  
      5893       5894       5905       5904       6014       6015       6026       6025  
      5894       5895       5906       5905       6015       6016       6027       6026  
      5895       5896       5907       5906       6016       6017       6028       6027  
      5897       5898       5909       5908       6018       6019       6030       6029  
      5898       5899       5910       5909       6019       6020       6031       6030  
      5899       5900       5911       5910       6020       6021       6032       6031  
      5900       5901       5912       5911       6021       6022       6033       6032  
      5901       5902       5913       5912       6022       6023       6034       6033  
      5902       5903       5914       5913       6023       6024       6035       6034  
      5903       5904       5915       5914       6024       6025       6036       6035  
      5904       5905       5916       5915       6025       6026       6037       6036  
      5905       5906       5917       5916       6026       6027       6038       6037  
      5906       5907       5918       5917       6027       6028       6039       6038  
      5908       5909       5920       5919       6029       6030       6041       6040  
      5909       5910       5921       5920       6030       6031       6042       6041  
      5910       5911       5922       5921       6031       6032       6043       6042  
      5911       5912       5923       5922       6032       6033       6044       6043  
      5912       5913       5924       5923       6033       6034       6045       6044  
      5913       5914       5925       5924       6034       6035       6046       6045  
      5914       5915       5926       5925       6035       6036       6047       6046  
      5915       5916       5927       5926       6036       6037       6048       6047  
      5916       5917       5928       5927       6037       6038       6049       6048  
      5917       5918       5929       5928       6038       6039       6050       6049  
      5930       5931       5942       5941       6051       6052       6063       6062  
      5931       5932       5943       5942       6052       6053       6064       6063  
      5932       5933       5944       5943       6053       6054       6065       6064  
      5933       5934       5945       5944       6054       6055       6066       6065  
      5934       5935       5946       5945       6055       6056       6067       6066  
      5935       5936       5947       5946       6056       6057       6068       6067  
      5936       5937       5948       5947       6057       6058       6069       6068  
      5937       5938       5949       5948       6058       6059       6070       6069  
      5938       5939       5950       5949       6059       6060       6071       6070  
      5939       5940       5951       5950       6060       6061       6072       6071  
      5941       5942       5953       5952       6062       6063       6074       6073  
      5942       5943       5954       5953       6063       6064       6075       6074  
      5943       5944       5955       5954       6064       6065       6076       6075  
      5944       5945       5956       5955       6065       6066       6077       6076  
      5945       5946       5957       5956       6066       6067       6078       6077  
      5946       5947       5958       5957       6067       6068       6079       6078  
      5947       5948       5959       5958       6068       6069       6080       6079  
      5948       5949       5960       5959       6069       6070       6081       6080  
      5949       5950       5961       5960       6070       6071       6082       6081  
      5950       5951       5962       5961       6071       6072       6083       6082  
      5952       5953       5964       5963       6073       6074       6085       6084  
      5953       5954       5965       5964       6074       6075       6086       6085  
      5954       5955       5966       5965       6075       6076       6087       6086  
      5955       5956       5967       5966       6076       6077       6088       6087  
      5956       5957       5968       5967       6077       6078       6089       6088  
      5957       5958       5969       5968       6078       6079       6090       6089  
      5958       5959       5970       5969       6079       6080       6091       6090  
      5959       5960       5971       5970       6080       6081       6092       6091  
      5960       5961       5972       5971       6081       6082       6093       6092  
      5961       5962       5973       5972       6082       6083       6094       6093  
      5963       5964       5975       5974       6084       6085       6096       6095  
      5964       5965       5976       5975       6085       6086       6097       6096  
      5965       5966       5977       5976       6086       6087       6098       6097  
      5966       5967       5978       5977       6087       6088       6099       6098  
      5967       5968       5979       5978       6088       6089       6100       6099  
      5968       5969       5980       5979       6089       6090       6101       6100  
      5969       5970       5981       5980       6090       6091       6102       6101  
      5970       5971       5982       5981       6091       6092       6103       6102  
      5971       5972       5983       5982       6092       6093       6104       6103  
      5972       5973       5984       5983       6093       6094       6105       6104  
      5974       5975       5986       5985       6095       6096       6107       6106  
      5975       5976       5987       5986       6096       6097       6108       6107  
      5976       5977       5988       5987       6097       6098       6109       6108  
      5977       5978       5989       5988       6098       6099       6110       6109  
      5978       5979       5990       5989       6099       6100       6111       6110  
      5979       5980       5991       5990       6100       6101       6112       6111  
      5980       5981       5992       5991       6101       6102       6113       6112  
      5981       5982       5993       5992       6102       6103       6114       6113  
      5982       5983       5994       5993       6103       6104       6115       6114  
      5983       5984       5995       5994       6104       6105       6116       6115  
      5985       5986       5997       5996       6106       6107       6118       6117  
      5986       5987       5998       5997       6107       6108       6119       6118  
      5987       5988       5999       5998       6108       6109       6120       6119  
      5988       5989       6000       5999       6109       6110       6121       6120  
      5989       5990       6001       6000       6110       6111       6122       6121  
      5990       5991       6002       6001       6111       6112       6123       6122  
      5991       5992       6003       6002       6112       6113       6124       6123  
      5992       5993       6004       6003       6113       6114       6125       6124  
      5993       5994       6005       6004       6114       6115       6126       6125  
      5994       5995       6006       6005       6115       6116       6127       6126  
      5996       5997       6008       6007       6117       6118       6129       6128  
      5997       5998       6009       6008       6118       6119       6130       6129  
      5998       5999       6010       6009       6119       6120       6131       6130  
      5999       6000       6011       6010       6120       6121       6132       6131  
      6000       6001       6012       6011       6121       6122       6133       6132  
      6001       6002       6013       6012       6122       6123       6134       6133  
      6002       6003       6014       6013       6123       6124       6135       6134  
      6003       6004       6015       6014       6124       6125       6136       6135  
      6004       6005       6016       6015       6125       6126       6137       6136  
      6005       6006       6017       6016       6126       6127       6138       6137  
      6007       6008       6019       6018       6128       6129       6140       6139  
      6008       6009       6020       6019       6129       6130       6141       6140  
      6009       6010       6021       6020       6130       6131       6142       6141  
      6010       6011       6022       6021       6131       6132       6143       6142  
      6011       6012       6023       6022       6132       6133       6144       6143  
      6012       6013       6024       6023       6133       6134       6145       6144  
      6013       6014       6025       6024       6134       6135       6146       6145  
      6014       6015       6026       6025       6135       6136       6147       6146  
      6015       6016       6027       6026       6136       6137       6148       6147  
      6016       6017       6028       6027       6137       6138       6149       6148  
      6018       6019       6030       6029       6139       6140       6151       6150  
      6019       6020       6031       6030       6140       6141       6152       6151  
      6020       6021       6032       6031       6141       6142       6153       6152  
      6021       6022       6033       6032       6142       6143       6154       6153  
      6022       6023       6034       6033       6143       6144       6155       6154  
      6023       6024       6035       6034       6144       6145       6156       6155  
      6024       6025       6036       6035       6145       6146       6157       6156  
      6025       6026       6037       6036       6146       6147       6158       6157  
      6026       6027       6038       6037       6147       6148       6159       6158  
      6027       6028       6039       6038       6148       6149       6160       6159  
      6029       6030       6041       6040       6150       6151       6162       6161  
      6030       6031       6042       6041       6151       6152       6163       6162  
      6031       6032       6043       6042       6152       6153       6164       6163  
      6032       6033       6044       6043       6153       6154       6165       6164  
      6033       6034       6045       6044       6154       6155       6166       6165  
      6034       6035       6046       6045       6155       6156       6167       6166  
      6035       6036       6047       6046       6156       6157       6168       6167  
      6036       6037       6048       6047       6157       6158       6169       6168  
      6037       6038       6049       6048       6158       6159       6170       6169  
      6038       6039       6050       6049       6159       6160       6171       6170  
      6051       6052       6063       6062       6172       6173       6184       6183  
      6052       6053       6064       6063       6173       6174       6185       6184  
      6053       6054       6065       6064       6174       6175       6186       6185  
      6054       6055       6066       6065       6175       6176       6187       6186  
      6055       6056       6067       6066       6176       6177       6188       6187  
      6056       6057       6068       6067       6177       6178       6189       6188  
      6057       6058       6069       6068       6178       6179       6190       6189  
      6058       6059       6070       6069       6179       6180       6191       6190  
      6059       6060       6071       6070       6180       6181       6192       6191  
      6060       6061       6072       6071       6181       6182       6193       6192  
      6062       6063       6074       6073       6183       6184       6195       6194  
      6063       6064       6075       6074       6184       6185       6196       6195  
      6064       6065       6076       6075       6185       6186       6197       6196  
      6065       6066       6077       6076       6186       6187       6198       6197  
      6066       6067       6078       6077       6187       6188       6199       6198  
      6067       6068       6079       6078       6188       6189       6200       6199  
      6068       6069       6080       6079       6189       6190       6201       6200  
      6069       6070       6081       6080       6190       6191       6202       6201  
      6070       6071       6082       6081       6191       6192       6203       6202  
      6071       6072       6083       6082       6192       6193       6204       6203  
      6073       6074       6085       6084       6194       6195       6206       6205  
      6074       6075       6086       6085       6195       6196       6207       6206  
      6075       6076       6087       6086       6196       6197       6208       6207  
      6076       6077       6088       6087       6197       6198       6209       6208  
      6077       6078       6089       6088       6198       6199       6210       6209  
      6078       6079       6090       6089       6199       6200       6211       6210  
      6079       6080       6091       6090       6200       6201       6212       6211  
      6080       6081       6092       6091       6201       6202       6213       6212  
      6081       6082       6093       6092       6202       6203       6214       6213  
      6082       6083       6094       6093       6203       6204       6215       6214  
      6084       6085       6096       6095       6205       6206       6217       6216  
      6085       6086       6097       6096       6206       6207       6218       6217  
      6086       6087       6098       6097       6207       6208       6219       6218  
      6087       6088       6099       6098       6208       6209       6220       6219  
      6088       6089       6100       6099       6209       6210       6221       6220  
      6089       6090       6101       6100       6210       6211       6222       6221  
      6090       6091       6102       6101       6211       6212       6223       6222  
      6091       6092       6103       6102       6212       6213       6224       6223  
      6092       6093       6104       6103       6213       6214       6225       6224  
      6093       6094       6105       6104       6214       6215       6226       6225  
      6095       6096       6107       6106       6216       6217       6228       6227  
      6096       6097       6108       6107       6217       6218       6229       6228  
      6097       6098       6109       6108       6218       6219       6230       6229  
      6098       6099       6110       6109       6219       6220       6231       6230  
      6099       6100       6111       6110       6220       6221       6232       6231  
      6100       6101       6112       6111       6221       6222       6233       6232  
      6101       6102       6113       6112       6222       6223       6234       6233  
      6102       6103       6114       6113       6223       6224       6235       6234  
      6103       6104       6115       6114       6224       6225       6236       6235  
      6104       6105       6116       6115       6225       6226       6237       6236  
      6106       6107       6118       6117       6227       6228       6239       6238  
      6107       6108       6119       6118       6228       6229       6240       6239  
      6108       6109       6120       6119       6229       6230       6241       6240  
      6109       6110       6121       6120       6230       6231       6242       6241  
      6110       6111       6122       6121       6231       6232       6243       6242  
      6111       6112       6123       6122       6232       6233       6244       6243  
      6112       6113       6124       6123       6233       6234       6245       6244  
      6113       6114       6125       6124       6234       6235       6246       6245  
      6114       6115       6126       6125       6235       6236       6247       6246  
      6115       6116       6127       6126       6236       6237       6248       6247  
      6117       6118       6129       6128       6238       6239       6250       6249  
      6118       6119       6130       6129       6239       6240       6251       6250  
      6119       6120       6131       6130       6240       6241       6252       6251  
      6120       6121       6132       6131       6241       6242       6253       6252  
      6121       6122       6133       6132       6242       6243       6254       6253  
      6122       6123       6134       6133       6243       6244       6255       6254  
      6123       6124       6135       6134       6244       6245       6256       6255  
      6124       6125       6136       6135       6245       6246       6257       6256  
      6125       6126       6137       6136       6246       6247       6258       6257  
      6126       6127       6138       6137       6247       6248       6259       6258  
      6128       6129       6140       6139       6249       6250       6261       6260  
      6129       6130       6141       6140       6250       6251       6262       6261  
      6130       6131       6142       6141       6251       6252       6263       6262  
      6131       6132       6143       6142       6252       6253       6264       6263  
      6132       6133       6144       6143       6253       6254       6265       6264  
      6133       6134       6145       6144       6254       6255       6266       6265  
      6134       6135       6146       6145       6255       6256       6267       6266  
      6135       6136       6147       6146       6256       6257       6268       6267  
      6136       6137       6148       6147       6257       6258       6269       6268  
      6137       6138       6149       6148       6258       6259       6270       6269  
      6139       6140       6151       6150       6260       6261       6272       6271  
      6140       6141       6152       6151       6261       6262       6273       6272  
      6141       6142       6153       6152       6262       6263       6274       6273  
      6142       6143       6154       6153       6263       6264       6275       6274  
      6143       6144       6155       6154       6264       6265       6276       6275  
      6144       6145       6156       6155       6265       6266       6277       6276  
      6145       6146       6157       6156       6266       6267       6278       6277  
      6146       6147       6158       6157       6267       6268       6279       6278  
      6147       6148       6159       6158       6268       6269       6280       6279  
      6148       6149       6160       6159       6269       6270       6281       6280  
      6150       6151       6162       6161       6271       6272       6283       6282  
      6151       6152       6163       6162       6272       6273       6284       6283  
      6152       6153       6164       6163       6273       6274       6285       6284  
      6153       6154       6165       6164       6274       6275       6286       6285  
      6154       6155       6166       6165       6275       6276       6287       6286  
      6155       6156       6167       6166       6276       6277       6288       6287  
      6156       6157       6168       6167       6277       6278       6289       6288  
      6157       6158       6169       6168       6278       6279       6290       6289  
      6158       6159       6170       6169       6279       6280       6291       6290  
      6159       6160       6171       6170       6280       6281       6292       6291  
      6172       6173       6184       6183       6293       6294       6305       6304  
      6173       6174       6185       6184       6294       6295       6306       6305  
      6174       6175       6186       6185       6295       6296       6307       6306  
      6175       6176       6187       6186       6296       6297       6308       6307  
      6176       6177       6188       6187       6297       6298       6309       6308  
      6177       6178       6189       6188       6298       6299       6310       6309  
      6178       6179       6190       6189       6299       6300       6311       6310  
      6179       6180       6191       6190       6300       6301       6312       6311  
      6180       6181       6192       6191       6301       6302       6313       6312  
      6181       6182       6193       6192       6302       6303       6314       6313  
      6183       6184       6195       6194       6304       6305       6316       6315  
      6184       6185       6196       6195       6305       6306       6317       6316  
      6185       6186       6197       6196       6306       6307       6318       6317  
      6186       6187       6198       6197       6307       6308       6319       6318  
      6187       6188       6199       6198       6308       6309       6320       6319  
      6188       6189       6200       6199       6309       6310       6321       6320  
      6189       6190       6201       6200       6310       6311       6322       6321  
      6190       6191       6202       6201       6311       6312       6323       6322  
      6191       6192       6203       6202       6312       6313       6324       6323  
      6192       6193       6204       6203       6313       6314       6325       6324  
      6194       6195       6206       6205       6315       6316       6327       6326  
      6195       6196       6207       6206       6316       6317       6328       6327  
      6196       6197       6208       6207       6317       6318       6329       6328  
      6197       6198       6209       6208       6318       6319       6330       6329  
      6198       6199       6210       6209       6319       6320       6331       6330  
      6199       6200       6211       6210       6320       6321       6332       6331  
      6200       6201       6212       6211       6321       6322       6333       6332  
      6201       6202       6213       6212       6322       6323       6334       6333  
      6202       6203       6214       6213       6323       6324       6335       6334  
      6203       6204       6215       6214       6324       6325       6336       6335  
      6205       6206       6217       6216       6326       6327       6338       6337  
      6206       6207       6218       6217       6327       6328       6339       6338  
      6207       6208       6219       6218       6328       6329       6340       6339  
      6208       6209       6220       6219       6329       6330       6341       6340  
      6209       6210       6221       6220       6330       6331       6342       6341  
      6210       6211       6222       6221       6331       6332       6343       6342  
      6211       6212       6223       6222       6332       6333       6344       6343  
      6212       6213       6224       6223       6333       6334       6345       6344  
      6213       6214       6225       6224       6334       6335       6346       6345  
      6214       6215       6226       6225       6335       6336       6347       6346  
      6216       6217       6228       6227       6337       6338       6349       6348  
      6217       6218       6229       6228       6338       6339       6350       6349  
      6218       6219       6230       6229       6339       6340       6351       6350  
      6219       6220       6231       6230       6340       6341       6352       6351  
      6220       6221       6232       6231       6341       6342       6353       6352  
      6221       6222       6233       6232       6342       6343       6354       6353  
      6222       6223       6234       6233       6343       6344       6355       6354  
      6223       6224       6235       6234       6344       6345       6356       6355  
      6224       6225       6236       6235       6345       6346       6357       6356  
      6225       6226       6237       6236       6346       6347       6358       6357  
      6227       6228       6239       6238       6348       6349       6360       6359  
      6228       6229       6240       6239       6349       6350       6361       6360  
      6229       6230       6241       6240       6350       6351       6362       6361  
      6230       6231       6242       6241       6351       6352       6363       6362  
      6231       6232       6243       6242       6352       6353       6364       6363  
      6232       6233       6244       6243       6353       6354       6365       6364  
      6233       6234       6245       6244       6354       6355       6366       6365  
      6234       6235       6246       6245       6355       6356       6367       6366  
      6235       6236       6247       6246       6356       6357       6368       6367  
      6236       6237       6248       6247       6357       6358       6369       6368  
      6238       6239       6250       6249       6359       6360       6371       6370  
      6239       6240       6251       6250       6360       6361       6372       6371  
      6240       6241       6252       6251       6361       6362       6373       6372  
      6241       6242       6253       6252       6362       6363       6374       6373  
      6242       6243       6254       6253       6363       6364       6375       6374  
      6243       6244       6255       6254       6364       6365       6376       6375  
      6244       6245       6256       6255       6365       6366       6377       6376  
      6245       6246       6257       6256       6366       6367       6378       6377  
      6246       6247       6258       6257       6367       6368       6379       6378  
      6247       6248       6259       6258       6368       6369       6380       6379  
      6249       6250       6261       6260       6370       6371       6382       6381  
      6250       6251       6262       6261       6371       6372       6383       6382  
      6251       6252       6263       6262       6372       6373       6384       6383  
      6252       6253       6264       6263       6373       6374       6385       6384  
      6253       6254       6265       6264       6374       6375       6386       6385  
      6254       6255       6266       6265       6375       6376       6387       6386  
      6255       6256       6267       6266       6376       6377       6388       6387  
      6256       6257       6268       6267       6377       6378       6389       6388  
      6257       6258       6269       6268       6378       6379       6390       6389  
      6258       6259       6270       6269       6379       6380       6391       6390  
      6260       6261       6272       6271       6381       6382       6393       6392  
      6261       6262       6273       6272       6382       6383       6394       6393  
      6262       6263       6274       6273       6383       6384       6395       6394  
      6263       6264       6275       6274       6384       6385       6396       6395  
      6264       6265       6276       6275       6385       6386       6397       6396  
      6265       6266       6277       6276       6386       6387       6398       6397  
      6266       6267       6278       6277       6387       6388       6399       6398  
      6267       6268       6279       6278       6388       6389       6400       6399  
      6268       6269       6280       6279       6389       6390       6401       6400  
      6269       6270       6281       6280       6390       6391       6402       6401  
      6271       6272       6283       6282       6392       6393       6404       6403  
      6272       6273       6284       6283       6393       6394       6405       6404  
      6273       6274       6285       6284       6394       6395       6406       6405  
      6274       6275       6286       6285       6395       6396       6407       6406  
      6275       6276       6287       6286       6396       6397       6408       6407  
      6276       6277       6288       6287       6397       6398       6409       6408  
      6277       6278       6289       6288       6398       6399       6410       6409  
      6278       6279       6290       6289       6399       6400       6411       6410  
      6279       6280       6291       6290       6400       6401       6412       6411  
      6280       6281       6292       6291       6401       6402       6413       6412  
      6293       6294       6305       6304       6414       6415       6426       6425  
      6294       6295       6306       6305       6415       6416       6427       6426  
      6295       6296       6307       6306       6416       6417       6428       6427  
      6296       6297       6308       6307       6417       6418       6429       6428  
      6297       6298       6309       6308       6418       6419       6430       6429  
      6298       6299       6310       6309       6419       6420       6431       6430  
      6299       6300       6311       6310       6420       6421       6432       6431  
      6300       6301       6312       6311       6421       6422       6433       6432  
      6301       6302       6313       6312       6422       6423       6434       6433  
      6302       6303       6314       6313       6423       6424       6435       6434  
      6304       6305       6316       6315       6425       6426       6437       6436  
      6305       6306       6317       6316       6426       6427       6438       6437  
      6306       6307       6318       6317       6427       6428       6439       6438  
      6307       6308       6319       6318       6428       6429       6440       6439  
      6308       6309       6320       6319       6429       6430       6441       6440  
      6309       6310       6321       6320       6430       6431       6442       6441  
      6310       6311       6322       6321       6431       6432       6443       6442  
      6311       6312       6323       6322       6432       6433       6444       6443  
      6312       6313       6324       6323       6433       6434       6445       6444  
      6313       6314       6325       6324       6434       6435       6446       6445  
      6315       6316       6327       6326       6436       6437       6448       6447  
      6316       6317       6328       6327       6437       6438       6449       6448  
      6317       6318       6329       6328       6438       6439       6450       6449  
      6318       6319       6330       6329       6439       6440       6451       6450  
      6319       6320       6331       6330       6440       6441       6452       6451  
      6320       6321       6332       6331       6441       6442       6453       6452  
      6321       6322       6333       6332       6442       6443       6454       6453  
      6322       6323       6334       6333       6443       6444       6455       6454  
      6323       6324       6335       6334       6444       6445       6456       6455  
      6324       6325       6336       6335       6445       6446       6457       6456  
      6326       6327       6338       6337       6447       6448       6459       6458  
      6327       6328       6339       6338       6448       6449       6460       6459  
      6328       6329       6340       6339       6449       6450       6461       6460  
      6329       6330       6341       6340       6450       6451       6462       6461  
      6330       6331       6342       6341       6451       6452       6463       6462  
      6331       6332       6343       6342       6452       6453       6464       6463  
      6332       6333       6344       6343       6453       6454       6465       6464  
      6333       6334       6345       6344       6454       6455       6466       6465  
      6334       6335       6346       6345       6455       6456       6467       6466  
      6335       6336       6347       6346       6456       6457       6468       6467  
      6337       6338       6349       6348       6458       6459       6470       6469  
      6338       6339       6350       6349       6459       6460       6471       6470  
      6339       6340       6351       6350       6460       6461       6472       6471  
      6340       6341       6352       6351       6461       6462       6473       6472  
      6341       6342       6353       6352       6462       6463       6474       6473  
      6342       6343       6354       6353       6463       6464       6475       6474  
      6343       6344       6355       6354       6464       6465       6476       6475  
      6344       6345       6356       6355       6465       6466       6477       6476  
      6345       6346       6357       6356       6466       6467       6478       6477  
      6346       6347       6358       6357       6467       6468       6479       6478  
      6348       6349       6360       6359       6469       6470       6481       6480  
      6349       6350       6361       6360       6470       6471       6482       6481  
      6350       6351       6362       6361       6471       6472       6483       6482  
      6351       6352       6363       6362       6472       6473       6484       6483  
      6352       6353       6364       6363       6473       6474       6485       6484  
      6353       6354       6365       6364       6474       6475       6486       6485  
      6354       6355       6366       6365       6475       6476       6487       6486  
      6355       6356       6367       6366       6476       6477       6488       6487  
      6356       6357       6368       6367       6477       6478       6489       6488  
      6357       6358       6369       6368       6478       6479       6490       6489  
      6359       6360       6371       6370       6480       6481       6492       6491  
      6360       6361       6372       6371       6481       6482       6493       6492  
      6361       6362       6373       6372       6482       6483       6494       6493  
      6362       6363       6374       6373       6483       6484       6495       6494  
      6363       6364       6375       6374       6484       6485       6496       6495  
      6364       6365       6376       6375       6485       6486       6497       6496  
      6365       6366       6377       6376       6486       6487       6498       6497  
      6366       6367       6378       6377       6487       6488       6499       6498  
      6367       6368       6379       6378       6488       6489       6500       6499  
      6368       6369       6380       6379       6489       6490       6501       6500  
      6370       6371       6382       6381       6491       6492       6503       6502  
      6371       6372       6383       6382       6492       6493       6504       6503  
      6372       6373       6384       6383       6493       6494       6505       6504  
      6373       6374       6385       6384       6494       6495       6506       6505  
      6374       6375       6386       6385       6495       6496       6507       6506  
      6375       6376       6387       6386       6496       6497       6508       6507  
      6376       6377       6388       6387       6497       6498       6509       6508  
      6377       6378       6389       6388       6498       6499       6510       6509  
      6378       6379       6390       6389       6499       6500       6511       6510  
      6379       6380       6391       6390       6500       6501       6512       6511  
      6381       6382       6393       6392       6502       6503       6514       6513  
      6382       6383       6394       6393       6503       6504       6515       6514  
      6383       6384       6395       6394       6504       6505       6516       6515  
      6384       6385       6396       6395       6505       6506       6517       6516  
      6385       6386       6397       6396       6506       6507       6518       6517  
      6386       6387       6398       6397       6507       6508       6519       6518  
      6387       6388       6399       6398       6508       6509       6520       6519  
      6388       6389       6400       6399       6509       6510       6521       6520  
      6389       6390       6401       6400       6510       6511       6522       6521  
      6390       6391       6402       6401       6511       6512       6523       6522  
      6392       6393       6404       6403       6513       6514       6525       6524  
      6393       6394       6405       6404       6514       6515       6526       6525  
      6394       6395       6406       6405       6515       6516       6527       6526  
      6395       6396       6407       6406       6516       6517       6528       6527  
      6396       6397       6408       6407       6517       6518       6529       6528  
      6397       6398       6409       6408       6518       6519       6530       6529  
      6398       6399       6410       6409       6519       6520       6531       6530  
      6399       6400       6411       6410       6520       6521       6532       6531  
      6400       6401       6412       6411       6521       6522       6533       6532  
      6401       6402       6413       6412       6522       6523       6534       6533  
      6414       6415       6426       6425       6535       6536       6547       6546  
      6415       6416       6427       6426       6536       6537       6548       6547  
      6416       6417       6428       6427       6537       6538       6549       6548  
      6417       6418       6429       6428       6538       6539       6550       6549  
      6418       6419       6430       6429       6539       6540       6551       6550  
      6419       6420       6431       6430       6540       6541       6552       6551  
      6420       6421       6432       6431       6541       6542       6553       6552  
      6421       6422       6433       6432       6542       6543       6554       6553  
      6422       6423       6434       6433       6543       6544       6555       6554  
      6423       6424       6435       6434       6544       6545       6556       6555  
      6425       6426       6437       6436       6546       6547       6558       6557  
      6426       6427       6438       6437       6547       6548       6559       6558  
      6427       6428       6439       6438       6548       6549       6560       6559  
      6428       6429       6440       6439       6549       6550       6561       6560  
      6429       6430       6441       6440       6550       6551       6562       6561  
      6430       6431       6442       6441       6551       6552       6563       6562  
      6431       6432       6443       6442       6552       6553       6564       6563  
      6432       6433       6444       6443       6553       6554       6565       6564  
      6433       6434       6445       6444       6554       6555       6566       6565  
      6434       6435       6446       6445       6555       6556       6567       6566  
      6436       6437       6448       6447       6557       6558       6569       6568  
      6437       6438       6449       6448       6558       6559       6570       6569  
      6438       6439       6450       6449       6559       6560       6571       6570  
      6439       6440       6451       6450       6560       6561       6572       6571  
      6440       6441       6452       6451       6561       6562       6573       6572  
      6441       6442       6453       6452       6562       6563       6574       6573  
      6442       6443       6454       6453       6563       6564       6575       6574  
      6443       6444       6455       6454       6564       6565       6576       6575  
      6444       6445       6456       6455       6565       6566       6577       6576  
      6445       6446       6457       6456       6566       6567       6578       6577  
      6447       6448       6459       6458       6568       6569       6580       6579  
      6448       6449       6460       6459       6569       6570       6581       6580  
      6449       6450       6461       6460       6570       6571       6582       6581  
      6450       6451       6462       6461       6571       6572       6583       6582  
      6451       6452       6463       6462       6572       6573       6584       6583  
      6452       6453       6464       6463       6573       6574       6585       6584  
      6453       6454       6465       6464       6574       6575       6586       6585  
      6454       6455       6466       6465       6575       6576       6587       6586  
      6455       6456       6467       6466       6576       6577       6588       6587  
      6456       6457       6468       6467       6577       6578       6589       6588  
      6458       6459       6470       6469       6579       6580       6591       6590  
      6459       6460       6471       6470       6580       6581       6592       6591  
      6460       6461       6472       6471       6581       6582       6593       6592  
      6461       6462       6473       6472       6582       6583       6594       6593  
      6462       6463       6474       6473       6583       6584       6595       6594  
      6463       6464       6475       6474       6584       6585       6596       6595  
      6464       6465       6476       6475       6585       6586       6597       6596  
      6465       6466       6477       6476       6586       6587       6598       6597  
      6466       6467       6478       6477       6587       6588       6599       6598  
      6467       6468       6479       6478       6588       6589       6600       6599  
      6469       6470       6481       6480       6590       6591       6602       6601  
      6470       6471       6482       6481       6591       6592       6603       6602  
      6471       6472       6483       6482       6592       6593       6604       6603  
      6472       6473       6484       6483       6593       6594       6605       6604  
      6473       6474       6485       6484       6594       6595       6606       6605  
      6474       6475       6486       6485       6595       6596       6607       6606  
      6475       6476       6487       6486       6596       6597       6608       6607  
      6476       6477       6488       6487       6597       6598       6609       6608  
      6477       6478       6489       6488       6598       6599       6610       6609  
      6478       6479       6490       6489       6599       6600       6611       6610  
      6480       6481       6492       6491       6601       6602       6613       6612  
      6481       6482       6493       6492       6602       6603       6614       6613  
      6482       6483       6494       6493       6603       6604       6615       6614  
      6483       6484       6495       6494       6604       6605       6616       6615  
      6484       6485       6496       6495       6605       6606       6617       6616  
      6485       6486       6497       6496       6606       6607       6618       6617  
      6486       6487       6498       6497       6607       6608       6619       6618  
      6487       6488       6499       6498       6608       6609       6620       6619  
      6488       6489       6500       6499       6609       6610       6621       6620  
      6489       6490       6501       6500       6610       6611       6622       6621  
      6491       6492       6503       6502       6612       6613       6624       6623  
      6492       6493       6504       6503       6613       6614       6625       6624  
      6493       6494       6505       6504       6614       6615       6626       6625  
      6494       6495       6506       6505       6615       6616       6627       6626  
      6495       6496       6507       6506       6616       6617       6628       6627  
      6496       6497       6508       6507       6617       6618       6629       6628  
      6497       6498       6509       6508       6618       6619       6630       6629  
      6498       6499       6510       6509       6619       6620       6631       6630  
      6499       6500       6511       6510       6620       6621       6632       6631  
      6500       6501       6512       6511       6621       6622       6633       6632  
      6502       6503       6514       6513       6623       6624       6635       6634  
      6503       6504       6515       6514       6624       6625       6636       6635  
      6504       6505       6516       6515       6625       6626       6637       6636  
      6505       6506       6517       6516       6626       6627       6638       6637  
      6506       6507       6518       6517       6627       6628       6639       6638  
      6507       6508       6519       6518       6628       6629       6640       6639  
      6508       6509       6520       6519       6629       6630       6641       6640  
      6509       6510       6521       6520       6630       6631       6642       6641  
      6510       6511       6522       6521       6631       6632       6643       6642  
      6511       6512       6523       6522       6632       6633       6644       6643  
      6513       6514       6525       6524       6634       6635       6646       6645  
      6514       6515       6526       6525       6635       6636       6647       6646  
      6515       6516       6527       6526       6636       6637       6648       6647  
      6516       6517       6528       6527       6637       6638       6649       6648  
      6517       6518       6529       6528       6638       6639       6650       6649  
      6518       6519       6530       6529       6639       6640       6651       6650  
      6519       6520       6531       6530       6640       6641       6652       6651  
      6520       6521       6532       6531       6641       6642       6653       6652  
      6521       6522       6533       6532       6642       6643       6654       6653  
      6522       6523       6534       6533       6643       6644       6655       6654  
      6535       6536       6547       6546       6656       6657       6668       6667  
      6536       6537       6548       6547       6657       6658       6669       6668  
      6537       6538       6549       6548       6658       6659       6670       6669  
      6538       6539       6550       6549       6659       6660       6671       6670  
      6539       6540       6551       6550       6660       6661       6672       6671  
      6540       6541       6552       6551       6661       6662       6673       6672  
      6541       6542       6553       6552       6662       6663       6674       6673  
      6542       6543       6554       6553       6663       6664       6675       6674  
      6543       6544       6555       6554       6664       6665       6676       6675  
      6544       6545       6556       6555       6665       6666       6677       6676  
      6546       6547       6558       6557       6667       6668       6679       6678  
      6547       6548       6559       6558       6668       6669       6680       6679  
      6548       6549       6560       6559       6669       6670       6681       6680  
      6549       6550       6561       6560       6670       6671       6682       6681  
      6550       6551       6562       6561       6671       6672       6683       6682  
      6551       6552       6563       6562       6672       6673       6684       6683  
      6552       6553       6564       6563       6673       6674       6685       6684  
      6553       6554       6565       6564       6674       6675       6686       6685  
      6554       6555       6566       6565       6675       6676       6687       6686  
      6555       6556       6567       6566       6676       6677       6688       6687  
      6557       6558       6569       6568       6678       6679       6690       6689  
      6558       6559       6570       6569       6679       6680       6691       6690  
      6559       6560       6571       6570       6680       6681       6692       6691  
      6560       6561       6572       6571       6681       6682       6693       6692  
      6561       6562       6573       6572       6682       6683       6694       6693  
      6562       6563       6574       6573       6683       6684       6695       6694  
      6563       6564       6575       6574       6684       6685       6696       6695  
      6564       6565       6576       6575       6685       6686       6697       6696  
      6565       6566       6577       6576       6686       6687       6698       6697  
      6566       6567       6578       6577       6687       6688       6699       6698  
      6568       6569       6580       6579       6689       6690       6701       6700  
      6569       6570       6581       6580       6690       6691       6702       6701  
      6570       6571       6582       6581       6691       6692       6703       6702  
      6571       6572       6583       6582       6692       6693       6704       6703  
      6572       6573       6584       6583       6693       6694       6705       6704  
      6573       6574       6585       6584       6694       6695       6706       6705  
      6574       6575       6586       6585       6695       6696       6707       6706  
      6575       6576       6587       6586       6696       6697       6708       6707  
      6576       6577       6588       6587       6697       6698       6709       6708  
      6577       6578       6589       6588       6698       6699       6710       6709  
      6579       6580       6591       6590       6700       6701       6712       6711  
      6580       6581       6592       6591       6701       6702       6713       6712  
      6581       6582       6593       6592       6702       6703       6714       6713  
      6582       6583       6594       6593       6703       6704       6715       6714  
      6583       6584       6595       6594       6704       6705       6716       6715  
      6584       6585       6596       6595       6705       6706       6717       6716  
      6585       6586       6597       6596       6706       6707       6718       6717  
      6586       6587       6598       6597       6707       6708       6719       6718  
      6587       6588       6599       6598       6708       6709       6720       6719  
      6588       6589       6600       6599       6709       6710       6721       6720  
      6590       6591       6602       6601       6711       6712       6723       6722  
      6591       6592       6603       6602       6712       6713       6724       6723  
      6592       6593       6604       6603       6713       6714       6725       6724  
      6593       6594       6605       6604       6714       6715       6726       6725  
      6594       6595       6606       6605       6715       6716       6727       6726  
      6595       6596       6607       6606       6716       6717       6728       6727  
      6596       6597       6608       6607       6717       6718       6729       6728  
      6597       6598       6609       6608       6718       6719       6730       6729  
      6598       6599       6610       6609       6719       6720       6731       6730  
      6599       6600       6611       6610       6720       6721       6732       6731  
      6601       6602       6613       6612       6722       6723       6734       6733  
      6602       6603       6614       6613       6723       6724       6735       6734  
      6603       6604       6615       6614       6724       6725       6736       6735  
      6604       6605       6616       6615       6725       6726       6737       6736  
      6605       6606       6617       6616       6726       6727       6738       6737  
      6606       6607       6618       6617       6727       6728       6739       6738  
      6607       6608       6619       6618       6728       6729       6740       6739  
      6608       6609       6620       6619       6729       6730       6741       6740  
      6609       6610       6621       6620       6730       6731       6742       6741  
      6610       6611       6622       6621       6731       6732       6743       6742  
      6612       6613       6624       6623       6733       6734       6745       6744  
      6613       6614       6625       6624       6734       6735       6746       6745  
      6614       6615       6626       6625       6735       6736       6747       6746  
      6615       6616       6627       6626       6736       6737       6748       6747  
      6616       6617       6628       6627       6737       6738       6749       6748  
      6617       6618       6629       6628       6738       6739       6750       6749  
      6618       6619       6630       6629       6739       6740       6751       6750  
      6619       6620       6631       6630       6740       6741       6752       6751  
      6620       6621       6632       6631       6741       6742       6753       6752  
      6621       6622       6633       6632       6742       6743       6754       6753  
      6623       6624       6635       6634       6744       6745       6756       6755  
      6624       6625       6636       6635       6745       6746       6757       6756  
      6625       6626       6637       6636       6746       6747       6758       6757  
      6626       6627       6638       6637       6747       6748       6759       6758  
      6627       6628       6639       6638       6748       6749       6760       6759  
      6628       6629       6640       6639       6749       6750       6761       6760  
      6629       6630       6641       6640       6750       6751       6762       6761  
      6630       6631       6642       6641       6751       6752       6763       6762  
      6631       6632       6643       6642       6752       6753       6764       6763  
      6632       6633       6644       6643       6753       6754       6765       6764  
      6634       6635       6646       6645       6755       6756       6767       6766  
      6635       6636       6647       6646       6756       6757       6768       6767  
      6636       6637       6648       6647       6757       6758       6769       6768  
      6637       6638       6649       6648       6758       6759       6770       6769  
      6638       6639       6650       6649       6759       6760       6771       6770  
      6639       6640       6651       6650       6760       6761       6772       6771  
      6640       6641       6652       6651       6761       6762       6773       6772  
      6641       6642       6653       6652       6762       6763       6774       6773  
      6642       6643       6654       6653       6763       6764       6775       6774  
      6643       6644       6655       6654       6764       6765       6776       6775  
      6656       6657       6668       6667       6777       6778       6789       6788  
      6657       6658       6669       6668       6778       6779       6790       6789  
      6658       6659       6670       6669       6779       6780       6791       6790  
      6659       6660       6671       6670       6780       6781       6792       6791  
      6660       6661       6672       6671       6781       6782       6793       6792  
      6661       6662       6673       6672       6782       6783       6794       6793  
      6662       6663       6674       6673       6783       6784       6795       6794  
      6663       6664       6675       6674       6784       6785       6796       6795  
      6664       6665       6676       6675       6785       6786       6797       6796  
      6665       6666       6677       6676       6786       6787       6798       6797  
      6667       6668       6679       6678       6788       6789       6800       6799  
      6668       6669       6680       6679       6789       6790       6801       6800  
      6669       6670       6681       6680       6790       6791       6802       6801  
      6670       6671       6682       6681       6791       6792       6803       6802  
      6671       6672       6683       6682       6792       6793       6804       6803  
      6672       6673       6684       6683       6793       6794       6805       6804  
      6673       6674       6685       6684       6794       6795       6806       6805  
      6674       6675       6686       6685       6795       6796       6807       6806  
      6675       6676       6687       6686       6796       6797       6808       6807  
      6676       6677       6688       6687       6797       6798       6809       6808  
      6678       6679       6690       6689       6799       6800       6811       6810  
      6679       6680       6691       6690       6800       6801       6812       6811  
      6680       6681       6692       6691       6801       6802       6813       6812  
      6681       6682       6693       6692       6802       6803       6814       6813  
      6682       6683       6694       6693       6803       6804       6815       6814  
      6683       6684       6695       6694       6804       6805       6816       6815  
      6684       6685       6696       6695       6805       6806       6817       6816  
      6685       6686       6697       6696       6806       6807       6818       6817  
      6686       6687       6698       6697       6807       6808       6819       6818  
      6687       6688       6699       6698       6808       6809       6820       6819  
      6689       6690       6701       6700       6810       6811       6822       6821  
      6690       6691       6702       6701       6811       6812       6823       6822  
      6691       6692       6703       6702       6812       6813       6824       6823  
      6692       6693       6704       6703       6813       6814       6825       6824  
      6693       6694       6705       6704       6814       6815       6826       6825  
      6694       6695       6706       6705       6815       6816       6827       6826  
      6695       6696       6707       6706       6816       6817       6828       6827  
      6696       6697       6708       6707       6817       6818       6829       6828  
      6697       6698       6709       6708       6818       6819       6830       6829  
      6698       6699       6710       6709       6819       6820       6831       6830  
      6700       6701       6712       6711       6821       6822       6833       6832  
      6701       6702       6713       6712       6822       6823       6834       6833  
      6702       6703       6714       6713       6823       6824       6835       6834  
      6703       6704       6715       6714       6824       6825       6836       6835  
      6704       6705       6716       6715       6825       6826       6837       6836  
      6705       6706       6717       6716       6826       6827       6838       6837  
      6706       6707       6718       6717       6827       6828       6839       6838  
      6707       6708       6719       6718       6828       6829       6840       6839  
      6708       6709       6720       6719       6829       6830       6841       6840  
      6709       6710       6721       6720       6830       6831       6842       6841  
      6711       6712       6723       6722       6832       6833       6844       6843  
      6712       6713       6724       6723       6833       6834       6845       6844  
      6713       6714       6725       6724       6834       6835       6846       6845  
      6714       6715       6726       6725       6835       6836       6847       6846  
      6715       6716       6727       6726       6836       6837       6848       6847  
      6716       6717       6728       6727       6837       6838       6849       6848  
      6717       6718       6729       6728       6838       6839       6850       6849  
      6718       6719       6730       6729       6839       6840       6851       6850  
      6719       6720       6731       6730       6840       6841       6852       6851  
      6720       6721       6732       6731       6841       6842       6853       6852  
      6722       6723       6734       6733       6843       6844       6855       6854  
      6723       6724       6735       6734       6844       6845       6856       6855  
      6724       6725       6736       6735       6845       6846       6857       6856  
      6725       6726       6737       6736       6846       6847       6858       6857  
      6726       6727       6738       6737       6847       6848       6859       6858  
      6727       6728       6739       6738       6848       6849       6860       6859  
      6728       6729       6740       6739       6849       6850       6861       6860  
      6729       6730       6741       6740       6850       6851       6862       6861  
      6730       6731       6742       6741       6851       6852       6863       6862  
      6731       6732       6743       6742       6852       6853       6864       6863  
      6733       6734       6745       6744       6854       6855       6866       6865  
      6734       6735       6746       6745       6855       6856       6867       6866  
      6735       6736       6747       6746       6856       6857       6868       6867  
      6736       6737       6748       6747       6857       6858       6869       6868  
      6737       6738       6749       6748       6858       6859       6870       6869  
      6738       6739       6750       6749       6859       6860       6871       6870  
      6739       6740       6751       6750       6860       6861       6872       6871  
      6740       6741       6752       6751       6861       6862       6873       6872  
      6741       6742       6753       6752       6862       6863       6874       6873  
      6742       6743       6754       6753       6863       6864       6875       6874  
      6744       6745       6756       6755       6865       6866       6877       6876  
      6745       6746       6757       6756       6866       6867       6878       6877  
      6746       6747       6758       6757       6867       6868       6879       6878  
      6747       6748       6759       6758       6868       6869       6880       6879  
      6748       6749       6760       6759       6869       6870       6881       6880  
      6749       6750       6761       6760       6870       6871       6882       6881  
      6750       6751       6762       6761       6871       6872       6883       6882  
      6751       6752       6763       6762       6872       6873       6884       6883  
      6752       6753       6764       6763       6873       6874       6885       6884  
      6753       6754       6765       6764       6874       6875       6886       6885  
      6755       6756       6767       6766       6876       6877       6888       6887  
      6756       6757       6768       6767       6877       6878       6889       6888  
      6757       6758       6769       6768       6878       6879       6890       6889  
      6758       6759       6770       6769       6879       6880       6891       6890  
      6759       6760       6771       6770       6880       6881       6892       6891  
      6760       6761       6772       6771       6881       6882       6893       6892  
      6761       6762       6773       6772       6882       6883       6894       6893  
      6762       6763       6774       6773       6883       6884       6895       6894  
      6763       6764       6775       6774       6884       6885       6896       6895  
      6764       6765       6776       6775       6885       6886       6897       6896  
      6777       6778       6789       6788       6898       6899       6910       6909  
      6778       6779       6790       6789       6899       6900       6911       6910  
      6779       6780       6791       6790       6900       6901       6912       6911  
      6780       6781       6792       6791       6901       6902       6913       6912  
      6781       6782       6793       6792       6902       6903       6914       6913  
      6782       6783       6794       6793       6903       6904       6915       6914  
      6783       6784       6795       6794       6904       6905       6916       6915  
      6784       6785       6796       6795       6905       6906       6917       6916  
      6785       6786       6797       6796       6906       6907       6918       6917  
      6786       6787       6798       6797       6907       6908       6919       6918  
      6788       6789       6800       6799       6909       6910       6921       6920  
      6789       6790       6801       6800       6910       6911       6922       6921  
      6790       6791       6802       6801       6911       6912       6923       6922  
      6791       6792       6803       6802       6912       6913       6924       6923  
      6792       6793       6804       6803       6913       6914       6925       6924  
      6793       6794       6805       6804       6914       6915       6926       6925  
      6794       6795       6806       6805       6915       6916       6927       6926  
      6795       6796       6807       6806       6916       6917       6928       6927  
      6796       6797       6808       6807       6917       6918       6929       6928  
      6797       6798       6809       6808       6918       6919       6930       6929  
      6799       6800       6811       6810       6920       6921       6932       6931  
      6800       6801       6812       6811       6921       6922       6933       6932  
      6801       6802       6813       6812       6922       6923       6934       6933  
      6802       6803       6814       6813       6923       6924       6935       6934  
      6803       6804       6815       6814       6924       6925       6936       6935  
      6804       6805       6816       6815       6925       6926       6937       6936  
      6805       6806       6817       6816       6926       6927       6938       6937  
      6806       6807       6818       6817       6927       6928       6939       6938  
      6807       6808       6819       6818       6928       6929       6940       6939  
      6808       6809       6820       6819       6929       6930       6941       6940  
      6810       6811       6822       6821       6931       6932       6943       6942  
      6811       6812       6823       6822       6932       6933       6944       6943  
      6812       6813       6824       6823       6933       6934       6945       6944  
      6813       6814       6825       6824       6934       6935       6946       6945  
      6814       6815       6826       6825       6935       6936       6947       6946  
      6815       6816       6827       6826       6936       6937       6948       6947  
      6816       6817       6828       6827       6937       6938       6949       6948  
      6817       6818       6829       6828       6938       6939       6950       6949  
      6818       6819       6830       6829       6939       6940       6951       6950  
      6819       6820       6831       6830       6940       6941       6952       6951  
      6821       6822       6833       6832       6942       6943       6954       6953  
      6822       6823       6834       6833       6943       6944       6955       6954  
      6823       6824       6835       6834       6944       6945       6956       6955  
      6824       6825       6836       6835       6945       6946       6957       6956  
      6825       6826       6837       6836       6946       6947       6958       6957  
      6826       6827       6838       6837       6947       6948       6959       6958  
      6827       6828       6839       6838       6948       6949       6960       6959  
      6828       6829       6840       6839       6949       6950       6961       6960  
      6829       6830       6841       6840       6950       6951       6962       6961  
      6830       6831       6842       6841       6951       6952       6963       6962  
      6832       6833       6844       6843       6953       6954       6965       6964  
      6833       6834       6845       6844       6954       6955       6966       6965  
      6834       6835       6846       6845       6955       6956       6967       6966  
      6835       6836       6847       6846       6956       6957       6968       6967  
      6836       6837       6848       6847       6957       6958       6969       6968  
      6837       6838       6849       6848       6958       6959       6970       6969  
      6838       6839       6850       6849       6959       6960       6971       6970  
      6839       6840       6851       6850       6960       6961       6972       6971  
      6840       6841       6852       6851       6961       6962       6973       6972  
      6841       6842       6853       6852       6962       6963       6974       6973  
      6843       6844       6855       6854       6964       6965       6976       6975  
      6844       6845       6856       6855       6965       6966       6977       6976  
      6845       6846       6857       6856       6966       6967       6978       6977  
      6846       6847       6858       6857       6967       6968       6979       6978  
      6847       6848       6859       6858       6968       6969       6980       6979  
      6848       6849       6860       6859       6969       6970       6981       6980  
      6849       6850       6861       6860       6970       6971       6982       6981  
      6850       6851       6862       6861       6971       6972       6983       6982  
      6851       6852       6863       6862       6972       6973       6984       6983  
      6852       6853       6864       6863       6973       6974       6985       6984  
      6854       6855       6866       6865       6975       6976       6987       6986  
      6855       6856       6867       6866       6976       6977       6988       6987  
      6856       6857       6868       6867       6977       6978       6989       6988  
      6857       6858       6869       6868       6978       6979       6990       6989  
      6858       6859       6870       6869       6979       6980       6991       6990  
      6859       6860       6871       6870       6980       6981       6992       6991  
      6860       6861       6872       6871       6981       6982       6993       6992  
      6861       6862       6873       6872       6982       6983       6994       6993  
      6862       6863       6874       6873       6983       6984       6995       6994  
      6863       6864       6875       6874       6984       6985       6996       6995  
      6865       6866       6877       6876       6986       6987       6998       6997  
      6866       6867       6878       6877       6987       6988       6999       6998  
      6867       6868       6879       6878       6988       6989       7000       6999  
      6868       6869       6880       6879       6989       6990       7001       7000  
      6869       6870       6881       6880       6990       6991       7002       7001  
      6870       6871       6882       6881       6991       6992       7003       7002  
      6871       6872       6883       6882       6992       6993       7004       7003  
      6872       6873       6884       6883       6993       6994       7005       7004  
      6873       6874       6885       6884       6994       6995       7006       7005  
      6874       6875       6886       6885       6995       6996       7007       7006  
      6876       6877       6888       6887       6997       6998       7009       7008  
      6877       6878       6889       6888       6998       6999       7010       7009  
      6878       6879       6890       6889       6999       7000       7011       7010  
      6879       6880       6891       6890       7000       7001       7012       7011  
      6880       6881       6892       6891       7001       7002       7013       7012  
      6881       6882       6893       6892       7002       7003       7014       7013  
      6882       6883       6894       6893       7003       7004       7015       7014  
      6883       6884       6895       6894       7004       7005       7016       7015  
      6884       6885       6896       6895       7005       7006       7017       7016  
      6885       6886       6897       6896       7006       7007       7018       7017  
      6898       6899       6910       6909       7019       7020       7031       7030  
      6899       6900       6911       6910       7020       7021       7032       7031  
      6900       6901       6912       6911       7021       7022       7033       7032  
      6901       6902       6913       6912       7022       7023       7034       7033  
      6902       6903       6914       6913       7023       7024       7035       7034  
      6903       6904       6915       6914       7024       7025       7036       7035  
      6904       6905       6916       6915       7025       7026       7037       7036  
      6905       6906       6917       6916       7026       7027       7038       7037  
      6906       6907       6918       6917       7027       7028       7039       7038  
      6907       6908       6919       6918       7028       7029       7040       7039  
      6909       6910       6921       6920       7030       7031       7042       7041  
      6910       6911       6922       6921       7031       7032       7043       7042  
      6911       6912       6923       6922       7032       7033       7044       7043  
      6912       6913       6924       6923       7033       7034       7045       7044  
      6913       6914       6925       6924       7034       7035       7046       7045  
      6914       6915       6926       6925       7035       7036       7047       7046  
      6915       6916       6927       6926       7036       7037       7048       7047  
      6916       6917       6928       6927       7037       7038       7049       7048  
      6917       6918       6929       6928       7038       7039       7050       7049  
      6918       6919       6930       6929       7039       7040       7051       7050  
      6920       6921       6932       6931       7041       7042       7053       7052  
      6921       6922       6933       6932       7042       7043       7054       7053  
      6922       6923       6934       6933       7043       7044       7055       7054  
      6923       6924       6935       6934       7044       7045       7056       7055  
      6924       6925       6936       6935       7045       7046       7057       7056  
      6925       6926       6937       6936       7046       7047       7058       7057  
      6926       6927       6938       6937       7047       7048       7059       7058  
      6927       6928       6939       6938       7048       7049       7060       7059  
      6928       6929       6940       6939       7049       7050       7061       7060  
      6929       6930       6941       6940       7050       7051       7062       7061  
      6931       6932       6943       6942       7052       7053       7064       7063  
      6932       6933       6944       6943       7053       7054       7065       7064  
      6933       6934       6945       6944       7054       7055       7066       7065  
      6934       6935       6946       6945       7055       7056       7067       7066  
      6935       6936       6947       6946       7056       7057       7068       7067  
      6936       6937       6948       6947       7057       7058       7069       7068  
      6937       6938       6949       6948       7058       7059       7070       7069  
      6938       6939       6950       6949       7059       7060       7071       7070  
      6939       6940       6951       6950       7060       7061       7072       7071  
      6940       6941       6952       6951       7061       7062       7073       7072  
      6942       6943       6954       6953       7063       7064       7075       7074  
      6943       6944       6955       6954       7064       7065       7076       7075  
      6944       6945       6956       6955       7065       7066       7077       7076  
      6945       6946       6957       6956       7066       7067       7078       7077  
      6946       6947       6958       6957       7067       7068       7079       7078  
      6947       6948       6959       6958       7068       7069       7080       7079  
      6948       6949       6960       6959       7069       7070       7081       7080  
      6949       6950       6961       6960       7070       7071       7082       7081  
      6950       6951       6962       6961       7071       7072       7083       7082  
      6951       6952       6963       6962       7072       7073       7084       7083  
      6953       6954       6965       6964       7074       7075       7086       7085  
      6954       6955       6966       6965       7075       7076       7087       7086  
      6955       6956       6967       6966       7076       7077       7088       7087  
      6956       6957       6968       6967       7077       7078       7089       7088  
      6957       6958       6969       6968       7078       7079       7090       7089  
      6958       6959       6970       6969       7079       7080       7091       7090  
      6959       6960       6971       6970       7080       7081       7092       7091  
      6960       6961       6972       6971       7081       7082       7093       7092  
      6961       6962       6973       6972       7082       7083       7094       7093  
      6962       6963       6974       6973       7083       7084       7095       7094  
      6964       6965       6976       6975       7085       7086       7097       7096  
      6965       6966       6977       6976       7086       7087       7098       7097  
      6966       6967       6978       6977       7087       7088       7099       7098  
      6967       6968       6979       6978       7088       7089       7100       7099  
      6968       6969       6980       6979       7089       7090       7101       7100  
      6969       6970       6981       6980       7090       7091       7102       7101  
      6970       6971       6982       6981       7091       7092       7103       7102  
      6971       6972       6983       6982       7092       7093       7104       7103  
      6972       6973       6984       6983       7093       7094       7105       7104  
      6973       6974       6985       6984       7094       7095       7106       7105  
      6975       6976       6987       6986       7096       7097       7108       7107  
      6976       6977       6988       6987       7097       7098       7109       7108  
      6977       6978       6989       6988       7098       7099       7110       7109  
      6978       6979       6990       6989       7099       7100       7111       7110  
      6979       6980       6991       6990       7100       7101       7112       7111  
      6980       6981       6992       6991       7101       7102       7113       7112  
      6981       6982       6993       6992       7102       7103       7114       7113  
      6982       6983       6994       6993       7103       7104       7115       7114  
      6983       6984       6995       6994       7104       7105       7116       7115  
      6984       6985       6996       6995       7105       7106       7117       7116  
      6986       6987       6998       6997       7107       7108       7119       7118  
      6987       6988       6999       6998       7108       7109       7120       7119  
      6988       6989       7000       6999       7109       7110       7121       7120  
      6989       6990       7001       7000       7110       7111       7122       7121  
      6990       6991       7002       7001       7111       7112       7123       7122  
      6991       6992       7003       7002       7112       7113       7124       7123  
      6992       6993       7004       7003       7113       7114       7125       7124  
      6993       6994       7005       7004       7114       7115       7126       7125  
      6994       6995       7006       7005       7115       7116       7127       7126  
      6995       6996       7007       7006       7116       7117       7128       7127  
      6997       6998       7009       7008       7118       7119       7130       7129  
      6998       6999       7010       7009       7119       7120       7131       7130  
      6999       7000       7011       7010       7120       7121       7132       7131  
      7000       7001       7012       7011       7121       7122       7133       7132  
      7001       7002       7013       7012       7122       7123       7134       7133  
      7002       7003       7014       7013       7123       7124       7135       7134  
      7003       7004       7015       7014       7124       7125       7136       7135  
      7004       7005       7016       7015       7125       7126       7137       7136  
      7005       7006       7017       7016       7126       7127       7138       7137  
      7006       7007       7018       7017       7127       7128       7139       7138  
      7019       7020       7031       7030       7140       7141       7152       7151  
      7020       7021       7032       7031       7141       7142       7153       7152  
      7021       7022       7033       7032       7142       7143       7154       7153  
      7022       7023       7034       7033       7143       7144       7155       7154  
      7023       7024       7035       7034       7144       7145       7156       7155  
      7024       7025       7036       7035       7145       7146       7157       7156  
      7025       7026       7037       7036       7146       7147       7158       7157  
      7026       7027       7038       7037       7147       7148       7159       7158  
      7027       7028       7039       7038       7148       7149       7160       7159  
      7028       7029       7040       7039       7149       7150       7161       7160  
      7030       7031       7042       7041       7151       7152       7163       7162  
      7031       7032       7043       7042       7152       7153       7164       7163  
      7032       7033       7044       7043       7153       7154       7165       7164  
      7033       7034       7045       7044       7154       7155       7166       7165  
      7034       7035       7046       7045       7155       7156       7167       7166  
      7035       7036       7047       7046       7156       7157       7168       7167  
      7036       7037       7048       7047       7157       7158       7169       7168  
      7037       7038       7049       7048       7158       7159       7170       7169  
      7038       7039       7050       7049       7159       7160       7171       7170  
      7039       7040       7051       7050       7160       7161       7172       7171  
      7041       7042       7053       7052       7162       7163       7174       7173  
      7042       7043       7054       7053       7163       7164       7175       7174  
      7043       7044       7055       7054       7164       7165       7176       7175  
      7044       7045       7056       7055       7165       7166       7177       7176  
      7045       7046       7057       7056       7166       7167       7178       7177  
      7046       7047       7058       7057       7167       7168       7179       7178  
      7047       7048       7059       7058       7168       7169       7180       7179  
      7048       7049       7060       7059       7169       7170       7181       7180  
      7049       7050       7061       7060       7170       7171       7182       7181  
      7050       7051       7062       7061       7171       7172       7183       7182  
      7052       7053       7064       7063       7173       7174       7185       7184  
      7053       7054       7065       7064       7174       7175       7186       7185  
      7054       7055       7066       7065       7175       7176       7187       7186  
      7055       7056       7067       7066       7176       7177       7188       7187  
      7056       7057       7068       7067       7177       7178       7189       7188  
      7057       7058       7069       7068       7178       7179       7190       7189  
      7058       7059       7070       7069       7179       7180       7191       7190  
      7059       7060       7071       7070       7180       7181       7192       7191  
      7060       7061       7072       7071       7181       7182       7193       7192  
      7061       7062       7073       7072       7182       7183       7194       7193  
      7063       7064       7075       7074       7184       7185       7196       7195  
      7064       7065       7076       7075       7185       7186       7197       7196  
      7065       7066       7077       7076       7186       7187       7198       7197  
      7066       7067       7078       7077       7187       7188       7199       7198  
      7067       7068       7079       7078       7188       7189       7200       7199  
      7068       7069       7080       7079       7189       7190       7201       7200  
      7069       7070       7081       7080       7190       7191       7202       7201  
      7070       7071       7082       7081       7191       7192       7203       7202  
      7071       7072       7083       7082       7192       7193       7204       7203  
      7072       7073       7084       7083       7193       7194       7205       7204  
      7074       7075       7086       7085       7195       7196       7207       7206  
      7075       7076       7087       7086       7196       7197       7208       7207  
      7076       7077       7088       7087       7197       7198       7209       7208  
      7077       7078       7089       7088       7198       7199       7210       7209  
      7078       7079       7090       7089       7199       7200       7211       7210  
      7079       7080       7091       7090       7200       7201       7212       7211  
      7080       7081       7092       7091       7201       7202       7213       7212  
      7081       7082       7093       7092       7202       7203       7214       7213  
      7082       7083       7094       7093       7203       7204       7215       7214  
      7083       7084       7095       7094       7204       7205       7216       7215  
      7085       7086       7097       7096       7206       7207       7218       7217  
      7086       7087       7098       7097       7207       7208       7219       7218  
      7087       7088       7099       7098       7208       7209       7220       7219  
      7088       7089       7100       7099       7209       7210       7221       7220  
      7089       7090       7101       7100       7210       7211       7222       7221  
      7090       7091       7102       7101       7211       7212       7223       7222  
      7091       7092       7103       7102       7212       7213       7224       7223  
      7092       7093       7104       7103       7213       7214       7225       7224  
      7093       7094       7105       7104       7214       7215       7226       7225  
      7094       7095       7106       7105       7215       7216       7227       7226  
      7096       7097       7108       7107       7217       7218       7229       7228  
      7097       7098       7109       7108       7218       7219       7230       7229  
      7098       7099       7110       7109       7219       7220       7231       7230  
      7099       7100       7111       7110       7220       7221       7232       7231  
      7100       7101       7112       7111       7221       7222       7233       7232  
      7101       7102       7113       7112       7222       7223       7234       7233  
      7102       7103       7114       7113       7223       7224       7235       7234  
      7103       7104       7115       7114       7224       7225       7236       7235  
      7104       7105       7116       7115       7225       7226       7237       7236  
      7105       7106       7117       7116       7226       7227       7238       7237  
      7107       7108       7119       7118       7228       7229       7240       7239  
      7108       7109       7120       7119       7229       7230       7241       7240  
      7109       7110       7121       7120       7230       7231       7242       7241  
      7110       7111       7122       7121       7231       7232       7243       7242  
      7111       7112       7123       7122       7232       7233       7244       7243  
      7112       7113       7124       7123       7233       7234       7245       7244  
      7113       7114       7125       7124       7234       7235       7246       7245  
      7114       7115       7126       7125       7235       7236       7247       7246  
      7115       7116       7127       7126       7236       7237       7248       7247  
      7116       7117       7128       7127       7237       7238       7249       7248  
      7118       7119       7130       7129       7239       7240       7251       7250  
      7119       7120       7131       7130       7240       7241       7252       7251  
      7120       7121       7132       7131       7241       7242       7253       7252  
      7121       7122       7133       7132       7242       7243       7254       7253  
      7122       7123       7134       7133       7243       7244       7255       7254  
      7123       7124       7135       7134       7244       7245       7256       7255  
      7124       7125       7136       7135       7245       7246       7257       7256  
      7125       7126       7137       7136       7246       7247       7258       7257  
      7126       7127       7138       7137       7247       7248       7259       7258  
      7127       7128       7139       7138       7248       7249       7260       7259  
      7140       7141       7152       7151       7261       7262       7273       7272  
      7141       7142       7153       7152       7262       7263       7274       7273  
      7142       7143       7154       7153       7263       7264       7275       7274  
      7143       7144       7155       7154       7264       7265       7276       7275  
      7144       7145       7156       7155       7265       7266       7277       7276  
      7145       7146       7157       7156       7266       7267       7278       7277  
      7146       7147       7158       7157       7267       7268       7279       7278  
      7147       7148       7159       7158       7268       7269       7280       7279  
      7148       7149       7160       7159       7269       7270       7281       7280  
      7149       7150       7161       7160       7270       7271       7282       7281  
      7151       7152       7163       7162       7272       7273       7284       7283  
      7152       7153       7164       7163       7273       7274       7285       7284  
      7153       7154       7165       7164       7274       7275       7286       7285  
      7154       7155       7166       7165       7275       7276       7287       7286  
      7155       7156       7167       7166       7276       7277       7288       7287  
      7156       7157       7168       7167       7277       7278       7289       7288  
      7157       7158       7169       7168       7278       7279       7290       7289  
      7158       7159       7170       7169       7279       7280       7291       7290  
      7159       7160       7171       7170       7280       7281       7292       7291  
      7160       7161       7172       7171       7281       7282       7293       7292  
      7162       7163       7174       7173       7283       7284       7295       7294  
      7163       7164       7175       7174       7284       7285       7296       7295  
      7164       7165       7176       7175       7285       7286       7297       7296  
      7165       7166       7177       7176       7286       7287       7298       7297  
      7166       7167       7178       7177       7287       7288       7299       7298  
      7167       7168       7179       7178       7288       7289       7300       7299  
      7168       7169       7180       7179       7289       7290       7301       7300  
      7169       7170       7181       7180       7290       7291       7302       7301  
      7170       7171       7182       7181       7291       7292       7303       7302  
      7171       7172       7183       7182       7292       7293       7304       7303  
      7173       7174       7185       7184       7294       7295       7306       7305  
      7174       7175       7186       7185       7295       7296       7307       7306  
      7175       7176       7187       7186       7296       7297       7308       7307  
      7176       7177       7188       7187       7297       7298       7309       7308  
      7177       7178       7189       7188       7298       7299       7310       7309  
      7178       7179       7190       7189       7299       7300       7311       7310  
      7179       7180       7191       7190       7300       7301       7312       7311  
      7180       7181       7192       7191       7301       7302       7313       7312  
      7181       7182       7193       7192       7302       7303       7314       7313  
      7182       7183       7194       7193       7303       7304       7315       7314  
      7184       7185       7196       7195       7305       7306       7317       7316  
      7185       7186       7197       7196       7306       7307       7318       7317  
      7186       7187       7198       7197       7307       7308       7319       7318  
      7187       7188       7199       7198       7308       7309       7320       7319  
      7188       7189       7200       7199       7309       7310       7321       7320  
      7189       7190       7201       7200       7310       7311       7322       7321  
      7190       7191       7202       7201       7311       7312       7323       7322  
      7191       7192       7203       7202       7312       7313       7324       7323  
      7192       7193       7204       7203       7313       7314       7325       7324  
      7193       7194       7205       7204       7314       7315       7326       7325  
      7195       7196       7207       7206       7316       7317       7328       7327  
      7196       7197       7208       7207       7317       7318       7329       7328  
      7197       7198       7209       7208       7318       7319       7330       7329  
      7198       7199       7210       7209       7319       7320       7331       7330  
      7199       7200       7211       7210       7320       7321       7332       7331  
      7200       7201       7212       7211       7321       7322       7333       7332  
      7201       7202       7213       7212       7322       7323       7334       7333  
      7202       7203       7214       7213       7323       7324       7335       7334  
      7203       7204       7215       7214       7324       7325       7336       7335  
      7204       7205       7216       7215       7325       7326       7337       7336  
      7206       7207       7218       7217       7327       7328       7339       7338  
      7207       7208       7219       7218       7328       7329       7340       7339  
      7208       7209       7220       7219       7329       7330       7341       7340  
      7209       7210       7221       7220       7330       7331       7342       7341  
      7210       7211       7222       7221       7331       7332       7343       7342  
      7211       7212       7223       7222       7332       7333       7344       7343  
      7212       7213       7224       7223       7333       7334       7345       7344  
      7213       7214       7225       7224       7334       7335       7346       7345  
      7214       7215       7226       7225       7335       7336       7347       7346  
      7215       7216       7227       7226       7336       7337       7348       7347  
      7217       7218       7229       7228       7338       7339       7350       7349  
      7218       7219       7230       7229       7339       7340       7351       7350  
      7219       7220       7231       7230       7340       7341       7352       7351  
      7220       7221       7232       7231       7341       7342       7353       7352  
      7221       7222       7233       7232       7342       7343       7354       7353  
      7222       7223       7234       7233       7343       7344       7355       7354  
      7223       7224       7235       7234       7344       7345       7356       7355  
      7224       7225       7236       7235       7345       7346       7357       7356  
      7225       7226       7237       7236       7346       7347       7358       7357  
      7226       7227       7238       7237       7347       7348       7359       7358  
      7228       7229       7240       7239       7349       7350       7361       7360  
      7229       7230       7241       7240       7350       7351       7362       7361  
      7230       7231       7242       7241       7351       7352       7363       7362  
      7231       7232       7243       7242       7352       7353       7364       7363  
      7232       7233       7244       7243       7353       7354       7365       7364  
      7233       7234       7245       7244       7354       7355       7366       7365  
      7234       7235       7246       7245       7355       7356       7367       7366  
      7235       7236       7247       7246       7356       7357       7368       7367  
      7236       7237       7248       7247       7357       7358       7369       7368  
      7237       7238       7249       7248       7358       7359       7370       7369  
      7239       7240       7251       7250       7360       7361       7372       7371  
      7240       7241       7252       7251       7361       7362       7373       7372  
      7241       7242       7253       7252       7362       7363       7374       7373  
      7242       7243       7254       7253       7363       7364       7375       7374  
      7243       7244       7255       7254       7364       7365       7376       7375  
      7244       7245       7256       7255       7365       7366       7377       7376  
      7245       7246       7257       7256       7366       7367       7378       7377  
      7246       7247       7258       7257       7367       7368       7379       7378  
      7247       7248       7259       7258       7368       7369       7380       7379  
      7248       7249       7260       7259       7369       7370       7381       7380  
      7261       7262       7273       7272       7382       7383       7394       7393  
      7262       7263       7274       7273       7383       7384       7395       7394  
      7263       7264       7275       7274       7384       7385       7396       7395  
      7264       7265       7276       7275       7385       7386       7397       7396  
      7265       7266       7277       7276       7386       7387       7398       7397  
      7266       7267       7278       7277       7387       7388       7399       7398  
      7267       7268       7279       7278       7388       7389       7400       7399  
      7268       7269       7280       7279       7389       7390       7401       7400  
      7269       7270       7281       7280       7390       7391       7402       7401  
      7270       7271       7282       7281       7391       7392       7403       7402  
      7272       7273       7284       7283       7393       7394       7405       7404  
      7273       7274       7285       7284       7394       7395       7406       7405  
      7274       7275       7286       7285       7395       7396       7407       7406  
      7275       7276       7287       7286       7396       7397       7408       7407  
      7276       7277       7288       7287       7397       7398       7409       7408  
      7277       7278       7289       7288       7398       7399       7410       7409  
      7278       7279       7290       7289       7399       7400       7411       7410  
      7279       7280       7291       7290       7400       7401       7412       7411  
      7280       7281       7292       7291       7401       7402       7413       7412  
      7281       7282       7293       7292       7402       7403       7414       7413  
      7283       7284       7295       7294       7404       7405       7416       7415  
      7284       7285       7296       7295       7405       7406       7417       7416  
      7285       7286       7297       7296       7406       7407       7418       7417  
      7286       7287       7298       7297       7407       7408       7419       7418  
      7287       7288       7299       7298       7408       7409       7420       7419  
      7288       7289       7300       7299       7409       7410       7421       7420  
      7289       7290       7301       7300       7410       7411       7422       7421  
      7290       7291       7302       7301       7411       7412       7423       7422  
      7291       7292       7303       7302       7412       7413       7424       7423  
      7292       7293       7304       7303       7413       7414       7425       7424  
      7294       7295       7306       7305       7415       7416       7427       7426  
      7295       7296       7307       7306       7416       7417       7428       7427  
      7296       7297       7308       7307       7417       7418       7429       7428  
      7297       7298       7309       7308       7418       7419       7430       7429  
      7298       7299       7310       7309       7419       7420       7431       7430  
      7299       7300       7311       7310       7420       7421       7432       7431  
      7300       7301       7312       7311       7421       7422       7433       7432  
      7301       7302       7313       7312       7422       7423       7434       7433  
      7302       7303       7314       7313       7423       7424       7435       7434  
      7303       7304       7315       7314       7424       7425       7436       7435  
      7305       7306       7317       7316       7426       7427       7438       7437  
      7306       7307       7318       7317       7427       7428       7439       7438  
      7307       7308       7319       7318       7428       7429       7440       7439  
      7308       7309       7320       7319       7429       7430       7441       7440  
      7309       7310       7321       7320       7430       7431       7442       7441  
      7310       7311       7322       7321       7431       7432       7443       7442  
      7311       7312       7323       7322       7432       7433       7444       7443  
      7312       7313       7324       7323       7433       7434       7445       7444  
      7313       7314       7325       7324       7434       7435       7446       7445  
      7314       7315       7326       7325       7435       7436       7447       7446  
      7316       7317       7328       7327       7437       7438       7449       7448  
      7317       7318       7329       7328       7438       7439       7450       7449  
      7318       7319       7330       7329       7439       7440       7451       7450  
      7319       7320       7331       7330       7440       7441       7452       7451  
      7320       7321       7332       7331       7441       7442       7453       7452  
      7321       7322       7333       7332       7442       7443       7454       7453  
      7322       7323       7334       7333       7443       7444       7455       7454  
      7323       7324       7335       7334       7444       7445       7456       7455  
      7324       7325       7336       7335       7445       7446       7457       7456  
      7325       7326       7337       7336       7446       7447       7458       7457  
      7327       7328       7339       7338       7448       7449       7460       7459  
      7328       7329       7340       7339       7449       7450       7461       7460  
      7329       7330       7341       7340       7450       7451       7462       7461  
      7330       7331       7342       7341       7451       7452       7463       7462  
      7331       7332       7343       7342       7452       7453       7464       7463  
      7332       7333       7344       7343       7453       7454       7465       7464  
      7333       7334       7345       7344       7454       7455       7466       7465  
      7334       7335       7346       7345       7455       7456       7467       7466  
      7335       7336       7347       7346       7456       7457       7468       7467  
      7336       7337       7348       7347       7457       7458       7469       7468  
      7338       7339       7350       7349       7459       7460       7471       7470  
      7339       7340       7351       7350       7460       7461       7472       7471  
      7340       7341       7352       7351       7461       7462       7473       7472  
      7341       7342       7353       7352       7462       7463       7474       7473  
      7342       7343       7354       7353       7463       7464       7475       7474  
      7343       7344       7355       7354       7464       7465       7476       7475  
      7344       7345       7356       7355       7465       7466       7477       7476  
      7345       7346       7357       7356       7466       7467       7478       7477  
      7346       7347       7358       7357       7467       7468       7479       7478  
      7347       7348       7359       7358       7468       7469       7480       7479  
      7349       7350       7361       7360       7470       7471       7482       7481  
      7350       7351       7362       7361       7471       7472       7483       7482  
      7351       7352       7363       7362       7472       7473       7484       7483  
      7352       7353       7364       7363       7473       7474       7485       7484  
      7353       7354       7365       7364       7474       7475       7486       7485  
      7354       7355       7366       7365       7475       7476       7487       7486  
      7355       7356       7367       7366       7476       7477       7488       7487  
      7356       7357       7368       7367       7477       7478       7489       7488  
      7357       7358       7369       7368       7478       7479       7490       7489  
      7358       7359       7370       7369       7479       7480       7491       7490  
      7360       7361       7372       7371       7481       7482       7493       7492  
      7361       7362       7373       7372       7482       7483       7494       7493  
      7362       7363       7374       7373       7483       7484       7495       7494  
      7363       7364       7375       7374       7484       7485       7496       7495  
      7364       7365       7376       7375       7485       7486       7497       7496  
      7365       7366       7377       7376       7486       7487       7498       7497  
      7366       7367       7378       7377       7487       7488       7499       7498  
      7367       7368       7379       7378       7488       7489       7500       7499  
      7368       7369       7380       7379       7489       7490       7501       7500  
      7369       7370       7381       7380       7490       7491       7502       7501  
      7382       7383       7394       7393       7503       7504       7515       7514  
      7383       7384       7395       7394       7504       7505       7516       7515  
      7384       7385       7396       7395       7505       7506       7517       7516  
      7385       7386       7397       7396       7506       7507       7518       7517  
      7386       7387       7398       7397       7507       7508       7519       7518  
      7387       7388       7399       7398       7508       7509       7520       7519  
      7388       7389       7400       7399       7509       7510       7521       7520  
      7389       7390       7401       7400       7510       7511       7522       7521  
      7390       7391       7402       7401       7511       7512       7523       7522  
      7391       7392       7403       7402       7512       7513       7524       7523  
      7393       7394       7405       7404       7514       7515       7526       7525  
      7394       7395       7406       7405       7515       7516       7527       7526  
      7395       7396       7407       7406       7516       7517       7528       7527  
      7396       7397       7408       7407       7517       7518       7529       7528  
      7397       7398       7409       7408       7518       7519       7530       7529  
      7398       7399       7410       7409       7519       7520       7531       7530  
      7399       7400       7411       7410       7520       7521       7532       7531  
      7400       7401       7412       7411       7521       7522       7533       7532  
      7401       7402       7413       7412       7522       7523       7534       7533  
      7402       7403       7414       7413       7523       7524       7535       7534  
      7404       7405       7416       7415       7525       7526       7537       7536  
      7405       7406       7417       7416       7526       7527       7538       7537  
      7406       7407       7418       7417       7527       7528       7539       7538  
      7407       7408       7419       7418       7528       7529       7540       7539  
      7408       7409       7420       7419       7529       7530       7541       7540  
      7409       7410       7421       7420       7530       7531       7542       7541  
      7410       7411       7422       7421       7531       7532       7543       7542  
      7411       7412       7423       7422       7532       7533       7544       7543  
      7412       7413       7424       7423       7533       7534       7545       7544  
      7413       7414       7425       7424       7534       7535       7546       7545  
      7415       7416       7427       7426       7536       7537       7548       7547  
      7416       7417       7428       7427       7537       7538       7549       7548  
      7417       7418       7429       7428       7538       7539       7550       7549  
      7418       7419       7430       7429       7539       7540       7551       7550  
      7419       7420       7431       7430       7540       7541       7552       7551  
      7420       7421       7432       7431       7541       7542       7553       7552  
      7421       7422       7433       7432       7542       7543       7554       7553  
      7422       7423       7434       7433       7543       7544       7555       7554  
      7423       7424       7435       7434       7544       7545       7556       7555  
      7424       7425       7436       7435       7545       7546       7557       7556  
      7426       7427       7438       7437       7547       7548       7559       7558  
      7427       7428       7439       7438       7548       7549       7560       7559  
      7428       7429       7440       7439       7549       7550       7561       7560  
      7429       7430       7441       7440       7550       7551       7562       7561  
      7430       7431       7442       7441       7551       7552       7563       7562  
      7431       7432       7443       7442       7552       7553       7564       7563  
      7432       7433       7444       7443       7553       7554       7565       7564  
      7433       7434       7445       7444       7554       7555       7566       7565  
      7434       7435       7446       7445       7555       7556       7567       7566  
      7435       7436       7447       7446       7556       7557       7568       7567  
      7437       7438       7449       7448       7558       7559       7570       7569  
      7438       7439       7450       7449       7559       7560       7571       7570  
      7439       7440       7451       7450       7560       7561       7572       7571  
      7440       7441       7452       7451       7561       7562       7573       7572  
      7441       7442       7453       7452       7562       7563       7574       7573  
      7442       7443       7454       7453       7563       7564       7575       7574  
      7443       7444       7455       7454       7564       7565       7576       7575  
      7444       7445       7456       7455       7565       7566       7577       7576  
      7445       7446       7457       7456       7566       7567       7578       7577  
      7446       7447       7458       7457       7567       7568       7579       7578  
      7448       7449       7460       7459       7569       7570       7581       7580  
      7449       7450       7461       7460       7570       7571       7582       7581  
      7450       7451       7462       7461       7571       7572       7583       7582  
      7451       7452       7463       7462       7572       7573       7584       7583  
      7452       7453       7464       7463       7573       7574       7585       7584  
      7453       7454       7465       7464       7574       7575       7586       7585  
      7454       7455       7466       7465       7575       7576       7587       7586  
      7455       7456       7467       7466       7576       7577       7588       7587  
      7456       7457       7468       7467       7577       7578       7589       7588  
      7457       7458       7469       7468       7578       7579       7590       7589  
      7459       7460       7471       7470       7580       7581       7592       7591  
      7460       7461       7472       7471       7581       7582       7593       7592  
      7461       7462       7473       7472       7582       7583       7594       7593  
      7462       7463       7474       7473       7583       7584       7595       7594  
      7463       7464       7475       7474       7584       7585       7596       7595  
      7464       7465       7476       7475       7585       7586       7597       7596  
      7465       7466       7477       7476       7586       7587       7598       7597  
      7466       7467       7478       7477       7587       7588       7599       7598  
      7467       7468       7479       7478       7588       7589       7600       7599  
      7468       7469       7480       7479       7589       7590       7601       7600  
      7470       7471       7482       7481       7591       7592       7603       7602  
      7471       7472       7483       7482       7592       7593       7604       7603  
      7472       7473       7484       7483       7593       7594       7605       7604  
      7473       7474       7485       7484       7594       7595       7606       7605  
      7474       7475       7486       7485       7595       7596       7607       7606  
      7475       7476       7487       7486       7596       7597       7608       7607  
      7476       7477       7488       7487       7597       7598       7609       7608  
      7477       7478       7489       7488       7598       7599       7610       7609  
      7478       7479       7490       7489       7599       7600       7611       7610  
      7479       7480       7491       7490       7600       7601       7612       7611  
      7481       7482       7493       7492       7602       7603       7614       7613  
      7482       7483       7494       7493       7603       7604       7615       7614  
      7483       7484       7495       7494       7604       7605       7616       7615  
      7484       7485       7496       7495       7605       7606       7617       7616  
      7485       7486       7497       7496       7606       7607       7618       7617  
      7486       7487       7498       7497       7607       7608       7619       7618  
      7487       7488       7499       7498       7608       7609       7620       7619  
      7488       7489       7500       7499       7609       7610       7621       7620  
      7489       7490       7501       7500       7610       7611       7622       7621  
      7490       7491       7502       7501       7611       7612       7623       7622  
      7503       7504       7515       7514       7624       7625       7636       7635  
      7504       7505       7516       7515       7625       7626       7637       7636  
      7505       7506       7517       7516       7626       7627       7638       7637  
      7506       7507       7518       7517       7627       7628       7639       7638  
      7507       7508       7519       7518       7628       7629       7640       7639  
      7508       7509       7520       7519       7629       7630       7641       7640  
      7509       7510       7521       7520       7630       7631       7642       7641  
      7510       7511       7522       7521       7631       7632       7643       7642  
      7511       7512       7523       7522       7632       7633       7644       7643  
      7512       7513       7524       7523       7633       7634       7645       7644  
      7514       7515       7526       7525       7635       7636       7647       7646  
      7515       7516       7527       7526       7636       7637       7648       7647  
      7516       7517       7528       7527       7637       7638       7649       7648  
      7517       7518       7529       7528       7638       7639       7650       7649  
      7518       7519       7530       7529       7639       7640       7651       7650  
      7519       7520       7531       7530       7640       7641       7652       7651  
      7520       7521       7532       7531       7641       7642       7653       7652  
      7521       7522       7533       7532       7642       7643       7654       7653  
      7522       7523       7534       7533       7643       7644       7655       7654  
      7523       7524       7535       7534       7644       7645       7656       7655  
      7525       7526       7537       7536       7646       7647       7658       7657  
      7526       7527       7538       7537       7647       7648       7659       7658  
      7527       7528       7539       7538       7648       7649       7660       7659  
      7528       7529       7540       7539       7649       7650       7661       7660  
      7529       7530       7541       7540       7650       7651       7662       7661  
      7530       7531       7542       7541       7651       7652       7663       7662  
      7531       7532       7543       7542       7652       7653       7664       7663  
      7532       7533       7544       7543       7653       7654       7665       7664  
      7533       7534       7545       7544       7654       7655       7666       7665  
      7534       7535       7546       7545       7655       7656       7667       7666  
      7536       7537       7548       7547       7657       7658       7669       7668  
      7537       7538       7549       7548       7658       7659       7670       7669  
      7538       7539       7550       7549       7659       7660       7671       7670  
      7539       7540       7551       7550       7660       7661       7672       7671  
      7540       7541       7552       7551       7661       7662       7673       7672  
      7541       7542       7553       7552       7662       7663       7674       7673  
      7542       7543       7554       7553       7663       7664       7675       7674  
      7543       7544       7555       7554       7664       7665       7676       7675  
      7544       7545       7556       7555       7665       7666       7677       7676  
      7545       7546       7557       7556       7666       7667       7678       7677  
      7547       7548       7559       7558       7668       7669       7680       7679  
      7548       7549       7560       7559       7669       7670       7681       7680  
      7549       7550       7561       7560       7670       7671       7682       7681  
      7550       7551       7562       7561       7671       7672       7683       7682  
      7551       7552       7563       7562       7672       7673       7684       7683  
      7552       7553       7564       7563       7673       7674       7685       7684  
      7553       7554       7565       7564       7674       7675       7686       7685  
      7554       7555       7566       7565       7675       7676       7687       7686  
      7555       7556       7567       7566       7676       7677       7688       7687  
      7556       7557       7568       7567       7677       7678       7689       7688  
      7558       7559       7570       7569       7679       7680       7691       7690  
      7559       7560       7571       7570       7680       7681       7692       7691  
      7560       7561       7572       7571       7681       7682       7693       7692  
      7561       7562       7573       7572       7682       7683       7694       7693  
      7562       7563       7574       7573       7683       7684       7695       7694  
      7563       7564       7575       7574       7684       7685       7696       7695  
      7564       7565       7576       7575       7685       7686       7697       7696  
      7565       7566       7577       7576       7686       7687       7698       7697  
      7566       7567       7578       7577       7687       7688       7699       7698  
      7567       7568       7579       7578       7688       7689       7700       7699  
      7569       7570       7581       7580       7690       7691       7702       7701  
      7570       7571       7582       7581       7691       7692       7703       7702  
      7571       7572       7583       7582       7692       7693       7704       7703  
      7572       7573       7584       7583       7693       7694       7705       7704  
      7573       7574       7585       7584       7694       7695       7706       7705  
      7574       7575       7586       7585       7695       7696       7707       7706  
      7575       7576       7587       7586       7696       7697       7708       7707  
      7576       7577       7588       7587       7697       7698       7709       7708  
      7577       7578       7589       7588       7698       7699       7710       7709  
      7578       7579       7590       7589       7699       7700       7711       7710  
      7580       7581       7592       7591       7701       7702       7713       7712  
      7581       7582       7593       7592       7702       7703       7714       7713  
      7582       7583       7594       7593       7703       7704       7715       7714  
      7583       7584       7595       7594       7704       7705       7716       7715  
      7584       7585       7596       7595       7705       7706       7717       7716  
      7585       7586       7597       7596       7706       7707       7718       7717  
      7586       7587       7598       7597       7707       7708       7719       7718  
      7587       7588       7599       7598       7708       7709       7720       7719  
      7588       7589       7600       7599       7709       7710       7721       7720  
      7589       7590       7601       7600       7710       7711       7722       7721  
      7591       7592       7603       7602       7712       7713       7724       7723  
      7592       7593       7604       7603       7713       7714       7725       7724  
      7593       7594       7605       7604       7714       7715       7726       7725  
      7594       7595       7606       7605       7715       7716       7727       7726  
      7595       7596       7607       7606       7716       7717       7728       7727  
      7596       7597       7608       7607       7717       7718       7729       7728  
      7597       7598       7609       7608       7718       7719       7730       7729  
      7598       7599       7610       7609       7719       7720       7731       7730  
      7599       7600       7611       7610       7720       7721       7732       7731  
      7600       7601       7612       7611       7721       7722       7733       7732  
      7602       7603       7614       7613       7723       7724       7735       7734  
      7603       7604       7615       7614       7724       7725       7736       7735  
      7604       7605       7616       7615       7725       7726       7737       7736  
      7605       7606       7617       7616       7726       7727       7738       7737  
      7606       7607       7618       7617       7727       7728       7739       7738  
      7607       7608       7619       7618       7728       7729       7740       7739  
      7608       7609       7620       7619       7729       7730       7741       7740  
      7609       7610       7621       7620       7730       7731       7742       7741  
      7610       7611       7622       7621       7731       7732       7743       7742  
      7611       7612       7623       7622       7732       7733       7744       7743  
      7624       7625       7636       7635       7745       7746       7757       7756  
      7625       7626       7637       7636       7746       7747       7758       7757  
      7626       7627       7638       7637       7747       7748       7759       7758  
      7627       7628       7639       7638       7748       7749       7760       7759  
      7628       7629       7640       7639       7749       7750       7761       7760  
      7629       7630       7641       7640       7750       7751       7762       7761  
      7630       7631       7642       7641       7751       7752       7763       7762  
      7631       7632       7643       7642       7752       7753       7764       7763  
      7632       7633       7644       7643       7753       7754       7765       7764  
      7633       7634       7645       7644       7754       7755       7766       7765  
      7635       7636       7647       7646       7756       7757       7768       7767  
      7636       7637       7648       7647       7757       7758       7769       7768  
      7637       7638       7649       7648       7758       7759       7770       7769  
      7638       7639       7650       7649       7759       7760       7771       7770  
      7639       7640       7651       7650       7760       7761       7772       7771  
      7640       7641       7652       7651       7761       7762       7773       7772  
      7641       7642       7653       7652       7762       7763       7774       7773  
      7642       7643       7654       7653       7763       7764       7775       7774  
      7643       7644       7655       7654       7764       7765       7776       7775  
      7644       7645       7656       7655       7765       7766       7777       7776  
      7646       7647       7658       7657       7767       7768       7779       7778  
      7647       7648       7659       7658       7768       7769       7780       7779  
      7648       7649       7660       7659       7769       7770       7781       7780  
      7649       7650       7661       7660       7770       7771       7782       7781  
      7650       7651       7662       7661       7771       7772       7783       7782  
      7651       7652       7663       7662       7772       7773       7784       7783  
      7652       7653       7664       7663       7773       7774       7785       7784  
      7653       7654       7665       7664       7774       7775       7786       7785  
      7654       7655       7666       7665       7775       7776       7787       7786  
      7655       7656       7667       7666       7776       7777       7788       7787  
      7657       7658       7669       7668       7778       7779       7790       7789  
      7658       7659       7670       7669       7779       7780       7791       7790  
      7659       7660       7671       7670       7780       7781       7792       7791  
      7660       7661       7672       7671       7781       7782       7793       7792  
      7661       7662       7673       7672       7782       7783       7794       7793  
      7662       7663       7674       7673       7783       7784       7795       7794  
      7663       7664       7675       7674       7784       7785       7796       7795  
      7664       7665       7676       7675       7785       7786       7797       7796  
      7665       7666       7677       7676       7786       7787       7798       7797  
      7666       7667       7678       7677       7787       7788       7799       7798  
      7668       7669       7680       7679       7789       7790       7801       7800  
      7669       7670       7681       7680       7790       7791       7802       7801  
      7670       7671       7682       7681       7791       7792       7803       7802  
      7671       7672       7683       7682       7792       7793       7804       7803  
      7672       7673       7684       7683       7793       7794       7805       7804  
      7673       7674       7685       7684       7794       7795       7806       7805  
      7674       7675       7686       7685       7795       7796       7807       7806  
      7675       7676       7687       7686       7796       7797       7808       7807  
      7676       7677       7688       7687       7797       7798       7809       7808  
      7677       7678       7689       7688       7798       7799       7810       7809  
      7679       7680       7691       7690       7800       7801       7812       7811  
      7680       7681       7692       7691       7801       7802       7813       7812  
      7681       7682       7693       7692       7802       7803       7814       7813  
      7682       7683       7694       7693       7803       7804       7815       7814  
      7683       7684       7695       7694       7804       7805       7816       7815  
      7684       7685       7696       7695       7805       7806       7817       7816  
      7685       7686       7697       7696       7806       7807       7818       7817  
      7686       7687       7698       7697       7807       7808       7819       7818  
      7687       7688       7699       7698       7808       7809       7820       7819  
      7688       7689       7700       7699       7809       7810       7821       7820  
      7690       7691       7702       7701       7811       7812       7823       7822  
      7691       7692       7703       7702       7812       7813       7824       7823  
      7692       7693       7704       7703       7813       7814       7825       7824  
      7693       7694       7705       7704       7814       7815       7826       7825  
      7694       7695       7706       7705       7815       7816       7827       7826  
      7695       7696       7707       7706       7816       7817       7828       7827  
      7696       7697       7708       7707       7817       7818       7829       7828  
      7697       7698       7709       7708       7818       7819       7830       7829  
      7698       7699       7710       7709       7819       7820       7831       7830  
      7699       7700       7711       7710       7820       7821       7832       7831  
      7701       7702       7713       7712       7822       7823       7834       7833  
      7702       7703       7714       7713       7823       7824       7835       7834  
      7703       7704       7715       7714       7824       7825       7836       7835  
      7704       7705       7716       7715       7825       7826       7837       7836  
      7705       7706       7717       7716       7826       7827       7838       7837  
      7706       7707       7718       7717       7827       7828       7839       7838  
      7707       7708       7719       7718       7828       7829       7840       7839  
      7708       7709       7720       7719       7829       7830       7841       7840  
      7709       7710       7721       7720       7830       7831       7842       7841  
      7710       7711       7722       7721       7831       7832       7843       7842  
      7712       7713       7724       7723       7833       7834       7845       7844  
      7713       7714       7725       7724       7834       7835       7846       7845  
      7714       7715       7726       7725       7835       7836       7847       7846  
      7715       7716       7727       7726       7836       7837       7848       7847  
      7716       7717       7728       7727       7837       7838       7849       7848  
      7717       7718       7729       7728       7838       7839       7850       7849  
      7718       7719       7730       7729       7839       7840       7851       7850  
      7719       7720       7731       7730       7840       7841       7852       7851  
      7720       7721       7732       7731       7841       7842       7853       7852  
      7721       7722       7733       7732       7842       7843       7854       7853  
      7723       7724       7735       7734       7844       7845       7856       7855  
      7724       7725       7736       7735       7845       7846       7857       7856  
      7725       7726       7737       7736       7846       7847       7858       7857  
      7726       7727       7738       7737       7847       7848       7859       7858  
      7727       7728       7739       7738       7848       7849       7860       7859  
      7728       7729       7740       7739       7849       7850       7861       7860  
      7729       7730       7741       7740       7850       7851       7862       7861  
      7730       7731       7742       7741       7851       7852       7863       7862  
      7731       7732       7743       7742       7852       7853       7864       7863  
      7732       7733       7744       7743       7853       7854       7865       7864  
      7745       7746       7757       7756       7866       7867       7878       7877  
      7746       7747       7758       7757       7867       7868       7879       7878  
      7747       7748       7759       7758       7868       7869       7880       7879  
      7748       7749       7760       7759       7869       7870       7881       7880  
      7749       7750       7761       7760       7870       7871       7882       7881  
      7750       7751       7762       7761       7871       7872       7883       7882  
      7751       7752       7763       7762       7872       7873       7884       7883  
      7752       7753       7764       7763       7873       7874       7885       7884  
      7753       7754       7765       7764       7874       7875       7886       7885  
      7754       7755       7766       7765       7875       7876       7887       7886  
      7756       7757       7768       7767       7877       7878       7889       7888  
      7757       7758       7769       7768       7878       7879       7890       7889  
      7758       7759       7770       7769       7879       7880       7891       7890  
      7759       7760       7771       7770       7880       7881       7892       7891  
      7760       7761       7772       7771       7881       7882       7893       7892  
      7761       7762       7773       7772       7882       7883       7894       7893  
      7762       7763       7774       7773       7883       7884       7895       7894  
      7763       7764       7775       7774       7884       7885       7896       7895  
      7764       7765       7776       7775       7885       7886       7897       7896  
      7765       7766       7777       7776       7886       7887       7898       7897  
      7767       7768       7779       7778       7888       7889       7900       7899  
      7768       7769       7780       7779       7889       7890       7901       7900  
      7769       7770       7781       7780       7890       7891       7902       7901  
      7770       7771       7782       7781       7891       7892       7903       7902  
      7771       7772       7783       7782       7892       7893       7904       7903  
      7772       7773       7784       7783       7893       7894       7905       7904  
      7773       7774       7785       7784       7894       7895       7906       7905  
      7774       7775       7786       7785       7895       7896       7907       7906  
      7775       7776       7787       7786       7896       7897       7908       7907  
      7776       7777       7788       7787       7897       7898       7909       7908  
      7778       7779       7790       7789       7899       7900       7911       7910  
      7779       7780       7791       7790       7900       7901       7912       7911  
      7780       7781       7792       7791       7901       7902       7913       7912  
      7781       7782       7793       7792       7902       7903       7914       7913  
      7782       7783       7794       7793       7903       7904       7915       7914  
      7783       7784       7795       7794       7904       7905       7916       7915  
      7784       7785       7796       7795       7905       7906       7917       7916  
      7785       7786       7797       7796       7906       7907       7918       7917  
      7786       7787       7798       7797       7907       7908       7919       7918  
      7787       7788       7799       7798       7908       7909       7920       7919  
      7789       7790       7801       7800       7910       7911       7922       7921  
      7790       7791       7802       7801       7911       7912       7923       7922  
      7791       7792       7803       7802       7912       7913       7924       7923  
      7792       7793       7804       7803       7913       7914       7925       7924  
      7793       7794       7805       7804       7914       7915       7926       7925  
      7794       7795       7806       7805       7915       7916       7927       7926  
      7795       7796       7807       7806       7916       7917       7928       7927  
      7796       7797       7808       7807       7917       7918       7929       7928  
      7797       7798       7809       7808       7918       7919       7930       7929  
      7798       7799       7810       7809       7919       7920       7931       7930  
      7800       7801       7812       7811       7921       7922       7933       7932  
      7801       7802       7813       7812       7922       7923       7934       7933  
      7802       7803       7814       7813       7923       7924       7935       7934  
      7803       7804       7815       7814       7924       7925       7936       7935  
      7804       7805       7816       7815       7925       7926       7937       7936  
      7805       7806       7817       7816       7926       7927       7938       7937  
      7806       7807       7818       7817       7927       7928       7939       7938  
      7807       7808       7819       7818       7928       7929       7940       7939  
      7808       7809       7820       7819       7929       7930       7941       7940  
      7809       7810       7821       7820       7930       7931       7942       7941  
      7811       7812       7823       7822       7932       7933       7944       7943  
      7812       7813       7824       7823       7933       7934       7945       7944  
      7813       7814       7825       7824       7934       7935       7946       7945  
      7814       7815       7826       7825       7935       7936       7947       7946  
      7815       7816       7827       7826       7936       7937       7948       7947  
      7816       7817       7828       7827       7937       7938       7949       7948  
      7817       7818       7829       7828       7938       7939       7950       7949  
      7818       7819       7830       7829       7939       7940       7951       7950  
      7819       7820       7831       7830       7940       7941       7952       7951  
      7820       7821       7832       7831       7941       7942       7953       7952  
      7822       7823       7834       7833       7943       7944       7955       7954  
      7823       7824       7835       7834       7944       7945       7956       7955  
      7824       7825       7836       7835       7945       7946       7957       7956  
      7825       7826       7837       7836       7946       7947       7958       7957  
      7826       7827       7838       7837       7947       7948       7959       7958  
      7827       7828       7839       7838       7948       7949       7960       7959  
      7828       7829       7840       7839       7949       7950       7961       7960  
      7829       7830       7841       7840       7950       7951       7962       7961  
      7830       7831       7842       7841       7951       7952       7963       7962  
      7831       7832       7843       7842       7952       7953       7964       7963  
      7833       7834       7845       7844       7954       7955       7966       7965  
      7834       7835       7846       7845       7955       7956       7967       7966  
      7835       7836       7847       7846       7956       7957       7968       7967  
      7836       7837       7848       7847       7957       7958       7969       7968  
      7837       7838       7849       7848       7958       7959       7970       7969  
      7838       7839       7850       7849       7959       7960       7971       7970  
      7839       7840       7851       7850       7960       7961       7972       7971  
      7840       7841       7852       7851       7961       7962       7973       7972  
      7841       7842       7853       7852       7962       7963       7974       7973  
      7842       7843       7854       7853       7963       7964       7975       7974  
      7844       7845       7856       7855       7965       7966       7977       7976  
      7845       7846       7857       7856       7966       7967       7978       7977  
      7846       7847       7858       7857       7967       7968       7979       7978  
      7847       7848       7859       7858       7968       7969       7980       7979  
      7848       7849       7860       7859       7969       7970       7981       7980  
      7849       7850       7861       7860       7970       7971       7982       7981  
      7850       7851       7862       7861       7971       7972       7983       7982  
      7851       7852       7863       7862       7972       7973       7984       7983  
      7852       7853       7864       7863       7973       7974       7985       7984  
      7853       7854       7865       7864       7974       7975       7986       7985  
      7866       7867       7878       7877       7987       7988       7999       7998  
      7867       7868       7879       7878       7988       7989       8000       7999  
      7868       7869       7880       7879       7989       7990       8001       8000  
      7869       7870       7881       7880       7990       7991       8002       8001  
      7870       7871       7882       7881       7991       7992       8003       8002  
      7871       7872       7883       7882       7992       7993       8004       8003  
      7872       7873       7884       7883       7993       7994       8005       8004  
      7873       7874       7885       7884       7994       7995       8006       8005  
      7874       7875       7886       7885       7995       7996       8007       8006  
      7875       7876       7887       7886       7996       7997       8008       8007  
      7877       7878       7889       7888       7998       7999       8010       8009  
      7878       7879       7890       7889       7999       8000       8011       8010  
      7879       7880       7891       7890       8000       8001       8012       8011  
      7880       7881       7892       7891       8001       8002       8013       8012  
      7881       7882       7893       7892       8002       8003       8014       8013  
      7882       7883       7894       7893       8003       8004       8015       8014  
      7883       7884       7895       7894       8004       8005       8016       8015  
      7884       7885       7896       7895       8005       8006       8017       8016  
      7885       7886       7897       7896       8006       8007       8018       8017  
      7886       7887       7898       7897       8007       8008       8019       8018  
      7888       7889       7900       7899       8009       8010       8021       8020  
      7889       7890       7901       7900       8010       8011       8022       8021  
      7890       7891       7902       7901       8011       8012       8023       8022  
      7891       7892       7903       7902       8012       8013       8024       8023  
      7892       7893       7904       7903       8013       8014       8025       8024  
      7893       7894       7905       7904       8014       8015       8026       8025  
      7894       7895       7906       7905       8015       8016       8027       8026  
      7895       7896       7907       7906       8016       8017       8028       8027  
      7896       7897       7908       7907       8017       8018       8029       8028  
      7897       7898       7909       7908       8018       8019       8030       8029  
      7899       7900       7911       7910       8020       8021       8032       8031  
      7900       7901       7912       7911       8021       8022       8033       8032  
      7901       7902       7913       7912       8022       8023       8034       8033  
      7902       7903       7914       7913       8023       8024       8035       8034  
      7903       7904       7915       7914       8024       8025       8036       8035  
      7904       7905       7916       7915       8025       8026       8037       8036  
      7905       7906       7917       7916       8026       8027       8038       8037  
      7906       7907       7918       7917       8027       8028       8039       8038  
      7907       7908       7919       7918       8028       8029       8040       8039  
      7908       7909       7920       7919       8029       8030       8041       8040  
      7910       7911       7922       7921       8031       8032       8043       8042  
      7911       7912       7923       7922       8032       8033       8044       8043  
      7912       7913       7924       7923       8033       8034       8045       8044  
      7913       7914       7925       7924       8034       8035       8046       8045  
      7914       7915       7926       7925       8035       8036       8047       8046  
      7915       7916       7927       7926       8036       8037       8048       8047  
      7916       7917       7928       7927       8037       8038       8049       8048  
      7917       7918       7929       7928       8038       8039       8050       8049  
      7918       7919       7930       7929       8039       8040       8051       8050  
      7919       7920       7931       7930       8040       8041       8052       8051  
      7921       7922       7933       7932       8042       8043       8054       8053  
      7922       7923       7934       7933       8043       8044       8055       8054  
      7923       7924       7935       7934       8044       8045       8056       8055  
      7924       7925       7936       7935       8045       8046       8057       8056  
      7925       7926       7937       7936       8046       8047       8058       8057  
      7926       7927       7938       7937       8047       8048       8059       8058  
      7927       7928       7939       7938       8048       8049       8060       8059  
      7928       7929       7940       7939       8049       8050       8061       8060  
      7929       7930       7941       7940       8050       8051       8062       8061  
      7930       7931       7942       7941       8051       8052       8063       8062  
      7932       7933       7944       7943       8053       8054       8065       8064  
      7933       7934       7945       7944       8054       8055       8066       8065  
      7934       7935       7946       7945       8055       8056       8067       8066  
      7935       7936       7947       7946       8056       8057       8068       8067  
      7936       7937       7948       7947       8057       8058       8069       8068  
      7937       7938       7949       7948       8058       8059       8070       8069  
      7938       7939       7950       7949       8059       8060       8071       8070  
      7939       7940       7951       7950       8060       8061       8072       8071  
      7940       7941       7952       7951       8061       8062       8073       8072  
      7941       7942       7953       7952       8062       8063       8074       8073  
      7943       7944       7955       7954       8064       8065       8076       8075  
      7944       7945       7956       7955       8065       8066       8077       8076  
      7945       7946       7957       7956       8066       8067       8078       8077  
      7946       7947       7958       7957       8067       8068       8079       8078  
      7947       7948       7959       7958       8068       8069       8080       8079  
      7948       7949       7960       7959       8069       8070       8081       8080  
      7949       7950       7961       7960       8070       8071       8082       8081  
      7950       7951       7962       7961       8071       8072       8083       8082  
      7951       7952       7963       7962       8072       8073       8084       8083  
      7952       7953       7964       7963       8073       8074       8085       8084  
      7954       7955       7966       7965       8075       8076       8087       8086  
      7955       7956       7967       7966       8076       8077       8088       8087  
      7956       7957       7968       7967       8077       8078       8089       8088  
      7957       7958       7969       7968       8078       8079       8090       8089  
      7958       7959       7970       7969       8079       8080       8091       8090  
      7959       7960       7971       7970       8080       8081       8092       8091  
      7960       7961       7972       7971       8081       8082       8093       8092  
      7961       7962       7973       7972       8082       8083       8094       8093  
      7962       7963       7974       7973       8083       8084       8095       8094  
      7963       7964       7975       7974       8084       8085       8096       8095  
      7965       7966       7977       7976       8086       8087       8098       8097  
      7966       7967       7978       7977       8087       8088       8099       8098  
      7967       7968       7979       7978       8088       8089       8100       8099  
      7968       7969       7980       7979       8089       8090       8101       8100  
      7969       7970       7981       7980       8090       8091       8102       8101  
      7970       7971       7982       7981       8091       8092       8103       8102  
      7971       7972       7983       7982       8092       8093       8104       8103  
      7972       7973       7984       7983       8093       8094       8105       8104  
      7973       7974       7985       7984       8094       8095       8106       8105  
      7974       7975       7986       7985       8095       8096       8107       8106  
      7987       7988       7999       7998       8108       8109       8120       8119  
      7988       7989       8000       7999       8109       8110       8121       8120  
      7989       7990       8001       8000       8110       8111       8122       8121  
      7990       7991       8002       8001       8111       8112       8123       8122  
      7991       7992       8003       8002       8112       8113       8124       8123  
      7992       7993       8004       8003       8113       8114       8125       8124  
      7993       7994       8005       8004       8114       8115       8126       8125  
      7994       7995       8006       8005       8115       8116       8127       8126  
      7995       7996       8007       8006       8116       8117       8128       8127  
      7996       7997       8008       8007       8117       8118       8129       8128  
      7998       7999       8010       8009       8119       8120       8131       8130  
      7999       8000       8011       8010       8120       8121       8132       8131  
      8000       8001       8012       8011       8121       8122       8133       8132  
      8001       8002       8013       8012       8122       8123       8134       8133  
      8002       8003       8014       8013       8123       8124       8135       8134  
      8003       8004       8015       8014       8124       8125       8136       8135  
      8004       8005       8016       8015       8125       8126       8137       8136  
      8005       8006       8017       8016       8126       8127       8138       8137  
      8006       8007       8018       8017       8127       8128       8139       8138  
      8007       8008       8019       8018       8128       8129       8140       8139  
      8009       8010       8021       8020       8130       8131       8142       8141  
      8010       8011       8022       8021       8131       8132       8143       8142  
      8011       8012       8023       8022       8132       8133       8144       8143  
      8012       8013       8024       8023       8133       8134       8145       8144  
      8013       8014       8025       8024       8134       8135       8146       8145  
      8014       8015       8026       8025       8135       8136       8147       8146  
      8015       8016       8027       8026       8136       8137       8148       8147  
      8016       8017       8028       8027       8137       8138       8149       8148  
      8017       8018       8029       8028       8138       8139       8150       8149  
      8018       8019       8030       8029       8139       8140       8151       8150  
      8020       8021       8032       8031       8141       8142       8153       8152  
      8021       8022       8033       8032       8142       8143       8154       8153  
      8022       8023       8034       8033       8143       8144       8155       8154  
      8023       8024       8035       8034       8144       8145       8156       8155  
      8024       8025       8036       8035       8145       8146       8157       8156  
      8025       8026       8037       8036       8146       8147       8158       8157  
      8026       8027       8038       8037       8147       8148       8159       8158  
      8027       8028       8039       8038       8148       8149       8160       8159  
      8028       8029       8040       8039       8149       8150       8161       8160  
      8029       8030       8041       8040       8150       8151       8162       8161  
      8031       8032       8043       8042       8152       8153       8164       8163  
      8032       8033       8044       8043       8153       8154       8165       8164  
      8033       8034       8045       8044       8154       8155       8166       8165  
      8034       8035       8046       8045       8155       8156       8167       8166  
      8035       8036       8047       8046       8156       8157       8168       8167  
      8036       8037       8048       8047       8157       8158       8169       8168  
      8037       8038       8049       8048       8158       8159       8170       8169  
      8038       8039       8050       8049       8159       8160       8171       8170  
      8039       8040       8051       8050       8160       8161       8172       8171  
      8040       8041       8052       8051       8161       8162       8173       8172  
      8042       8043       8054       8053       8163       8164       8175       8174  
      8043       8044       8055       8054       8164       8165       8176       8175  
      8044       8045       8056       8055       8165       8166       8177       8176  
      8045       8046       8057       8056       8166       8167       8178       8177  
      8046       8047       8058       8057       8167       8168       8179       8178  
      8047       8048       8059       8058       8168       8169       8180       8179  
      8048       8049       8060       8059       8169       8170       8181       8180  
      8049       8050       8061       8060       8170       8171       8182       8181  
      8050       8051       8062       8061       8171       8172       8183       8182  
      8051       8052       8063       8062       8172       8173       8184       8183  
      8053       8054       8065       8064       8174       8175       8186       8185  
      8054       8055       8066       8065       8175       8176       8187       8186  
      8055       8056       8067       8066       8176       8177       8188       8187  
      8056       8057       8068       8067       8177       8178       8189       8188  
      8057       8058       8069       8068       8178       8179       8190       8189  
      8058       8059       8070       8069       8179       8180       8191       8190  
      8059       8060       8071       8070       8180       8181       8192       8191  
      8060       8061       8072       8071       8181       8182       8193       8192  
      8061       8062       8073       8072       8182       8183       8194       8193  
      8062       8063       8074       8073       8183       8184       8195       8194  
      8064       8065       8076       8075       8185       8186       8197       8196  
      8065       8066       8077       8076       8186       8187       8198       8197  
      8066       8067       8078       8077       8187       8188       8199       8198  
      8067       8068       8079       8078       8188       8189       8200       8199  
      8068       8069       8080       8079       8189       8190       8201       8200  
      8069       8070       8081       8080       8190       8191       8202       8201  
      8070       8071       8082       8081       8191       8192       8203       8202  
      8071       8072       8083       8082       8192       8193       8204       8203  
      8072       8073       8084       8083       8193       8194       8205       8204  
      8073       8074       8085       8084       8194       8195       8206       8205  
      8075       8076       8087       8086       8196       8197       8208       8207  
      8076       8077       8088       8087       8197       8198       8209       8208  
      8077       8078       8089       8088       8198       8199       8210       8209  
      8078       8079       8090       8089       8199       8200       8211       8210  
      8079       8080       8091       8090       8200       8201       8212       8211  
      8080       8081       8092       8091       8201       8202       8213       8212  
      8081       8082       8093       8092       8202       8203       8214       8213  
      8082       8083       8094       8093       8203       8204       8215       8214  
      8083       8084       8095       8094       8204       8205       8216       8215  
      8084       8085       8096       8095       8205       8206       8217       8216  
      8086       8087       8098       8097       8207       8208       8219       8218  
      8087       8088       8099       8098       8208       8209       8220       8219  
      8088       8089       8100       8099       8209       8210       8221       8220  
      8089       8090       8101       8100       8210       8211       8222       8221  
      8090       8091       8102       8101       8211       8212       8223       8222  
      8091       8092       8103       8102       8212       8213       8224       8223  
      8092       8093       8104       8103       8213       8214       8225       8224  
      8093       8094       8105       8104       8214       8215       8226       8225  
      8094       8095       8106       8105       8215       8216       8227       8226  
      8095       8096       8107       8106       8216       8217       8228       8227  
      8108       8109       8120       8119       8229       8230       8241       8240  
      8109       8110       8121       8120       8230       8231       8242       8241  
      8110       8111       8122       8121       8231       8232       8243       8242  
      8111       8112       8123       8122       8232       8233       8244       8243  
      8112       8113       8124       8123       8233       8234       8245       8244  
      8113       8114       8125       8124       8234       8235       8246       8245  
      8114       8115       8126       8125       8235       8236       8247       8246  
      8115       8116       8127       8126       8236       8237       8248       8247  
      8116       8117       8128       8127       8237       8238       8249       8248  
      8117       8118       8129       8128       8238       8239       8250       8249  
      8119       8120       8131       8130       8240       8241       8252       8251  
      8120       8121       8132       8131       8241       8242       8253       8252  
      8121       8122       8133       8132       8242       8243       8254       8253  
      8122       8123       8134       8133       8243       8244       8255       8254  
      8123       8124       8135       8134       8244       8245       8256       8255  
      8124       8125       8136       8135       8245       8246       8257       8256  
      8125       8126       8137       8136       8246       8247       8258       8257  
      8126       8127       8138       8137       8247       8248       8259       8258  
      8127       8128       8139       8138       8248       8249       8260       8259  
      8128       8129       8140       8139       8249       8250       8261       8260  
      8130       8131       8142       8141       8251       8252       8263       8262  
      8131       8132       8143       8142       8252       8253       8264       8263  
      8132       8133       8144       8143       8253       8254       8265       8264  
      8133       8134       8145       8144       8254       8255       8266       8265  
      8134       8135       8146       8145       8255       8256       8267       8266  
      8135       8136       8147       8146       8256       8257       8268       8267  
      8136       8137       8148       8147       8257       8258       8269       8268  
      8137       8138       8149       8148       8258       8259       8270       8269  
      8138       8139       8150       8149       8259       8260       8271       8270  
      8139       8140       8151       8150       8260       8261       8272       8271  
      8141       8142       8153       8152       8262       8263       8274       8273  
      8142       8143       8154       8153       8263       8264       8275       8274  
      8143       8144       8155       8154       8264       8265       8276       8275  
      8144       8145       8156       8155       8265       8266       8277       8276  
      8145       8146       8157       8156       8266       8267       8278       8277  
      8146       8147       8158       8157       8267       8268       8279       8278  
      8147       8148       8159       8158       8268       8269       8280       8279  
      8148       8149       8160       8159       8269       8270       8281       8280  
      8149       8150       8161       8160       8270       8271       8282       8281  
      8150       8151       8162       8161       8271       8272       8283       8282  
      8152       8153       8164       8163       8273       8274       8285       8284  
      8153       8154       8165       8164       8274       8275       8286       8285  
      8154       8155       8166       8165       8275       8276       8287       8286  
      8155       8156       8167       8166       8276       8277       8288       8287  
      8156       8157       8168       8167       8277       8278       8289       8288  
      8157       8158       8169       8168       8278       8279       8290       8289  
      8158       8159       8170       8169       8279       8280       8291       8290  
      8159       8160       8171       8170       8280       8281       8292       8291  
      8160       8161       8172       8171       8281       8282       8293       8292  
      8161       8162       8173       8172       8282       8283       8294       8293  
      8163       8164       8175       8174       8284       8285       8296       8295  
      8164       8165       8176       8175       8285       8286       8297       8296  
      8165       8166       8177       8176       8286       8287       8298       8297  
      8166       8167       8178       8177       8287       8288       8299       8298  
      8167       8168       8179       8178       8288       8289       8300       8299  
      8168       8169       8180       8179       8289       8290       8301       8300  
      8169       8170       8181       8180       8290       8291       8302       8301  
      8170       8171       8182       8181       8291       8292       8303       8302  
      8171       8172       8183       8182       8292       8293       8304       8303  
      8172       8173       8184       8183       8293       8294       8305       8304  
      8174       8175       8186       8185       8295       8296       8307       8306  
      8175       8176       8187       8186       8296       8297       8308       8307  
      8176       8177       8188       8187       8297       8298       8309       8308  
      8177       8178       8189       8188       8298       8299       8310       8309  
      8178       8179       8190       8189       8299       8300       8311       8310  
      8179       8180       8191       8190       8300       8301       8312       8311  
      8180       8181       8192       8191       8301       8302       8313       8312  
      8181       8182       8193       8192       8302       8303       8314       8313  
      8182       8183       8194       8193       8303       8304       8315       8314  
      8183       8184       8195       8194       8304       8305       8316       8315  
      8185       8186       8197       8196       8306       8307       8318       8317  
      8186       8187       8198       8197       8307       8308       8319       8318  
      8187       8188       8199       8198       8308       8309       8320       8319  
      8188       8189       8200       8199       8309       8310       8321       8320  
      8189       8190       8201       8200       8310       8311       8322       8321  
      8190       8191       8202       8201       8311       8312       8323       8322  
      8191       8192       8203       8202       8312       8313       8324       8323  
      8192       8193       8204       8203       8313       8314       8325       8324  
      8193       8194       8205       8204       8314       8315       8326       8325  
      8194       8195       8206       8205       8315       8316       8327       8326  
      8196       8197       8208       8207       8317       8318       8329       8328  
      8197       8198       8209       8208       8318       8319       8330       8329  
      8198       8199       8210       8209       8319       8320       8331       8330  
      8199       8200       8211       8210       8320       8321       8332       8331  
      8200       8201       8212       8211       8321       8322       8333       8332  
      8201       8202       8213       8212       8322       8323       8334       8333  
      8202       8203       8214       8213       8323       8324       8335       8334  
      8203       8204       8215       8214       8324       8325       8336       8335  
      8204       8205       8216       8215       8325       8326       8337       8336  
      8205       8206       8217       8216       8326       8327       8338       8337  
      8207       8208       8219       8218       8328       8329       8340       8339  
      8208       8209       8220       8219       8329       8330       8341       8340  
      8209       8210       8221       8220       8330       8331       8342       8341  
      8210       8211       8222       8221       8331       8332       8343       8342  
      8211       8212       8223       8222       8332       8333       8344       8343  
      8212       8213       8224       8223       8333       8334       8345       8344  
      8213       8214       8225       8224       8334       8335       8346       8345  
      8214       8215       8226       8225       8335       8336       8347       8346  
      8215       8216       8227       8226       8336       8337       8348       8347  
      8216       8217       8228       8227       8337       8338       8349       8348  
      8229       8230       8241       8240       8350       8351       8362       8361  
      8230       8231       8242       8241       8351       8352       8363       8362  
      8231       8232       8243       8242       8352       8353       8364       8363  
      8232       8233       8244       8243       8353       8354       8365       8364  
      8233       8234       8245       8244       8354       8355       8366       8365  
      8234       8235       8246       8245       8355       8356       8367       8366  
      8235       8236       8247       8246       8356       8357       8368       8367  
      8236       8237       8248       8247       8357       8358       8369       8368  
      8237       8238       8249       8248       8358       8359       8370       8369  
      8238       8239       8250       8249       8359       8360       8371       8370  
      8240       8241       8252       8251       8361       8362       8373       8372  
      8241       8242       8253       8252       8362       8363       8374       8373  
      8242       8243       8254       8253       8363       8364       8375       8374  
      8243       8244       8255       8254       8364       8365       8376       8375  
      8244       8245       8256       8255       8365       8366       8377       8376  
      8245       8246       8257       8256       8366       8367       8378       8377  
      8246       8247       8258       8257       8367       8368       8379       8378  
      8247       8248       8259       8258       8368       8369       8380       8379  
      8248       8249       8260       8259       8369       8370       8381       8380  
      8249       8250       8261       8260       8370       8371       8382       8381  
      8251       8252       8263       8262       8372       8373       8384       8383  
      8252       8253       8264       8263       8373       8374       8385       8384  
      8253       8254       8265       8264       8374       8375       8386       8385  
      8254       8255       8266       8265       8375       8376       8387       8386  
      8255       8256       8267       8266       8376       8377       8388       8387  
      8256       8257       8268       8267       8377       8378       8389       8388  
      8257       8258       8269       8268       8378       8379       8390       8389  
      8258       8259       8270       8269       8379       8380       8391       8390  
      8259       8260       8271       8270       8380       8381       8392       8391  
      8260       8261       8272       8271       8381       8382       8393       8392  
      8262       8263       8274       8273       8383       8384       8395       8394  
      8263       8264       8275       8274       8384       8385       8396       8395  
      8264       8265       8276       8275       8385       8386       8397       8396  
      8265       8266       8277       8276       8386       8387       8398       8397  
      8266       8267       8278       8277       8387       8388       8399       8398  
      8267       8268       8279       8278       8388       8389       8400       8399  
      8268       8269       8280       8279       8389       8390       8401       8400  
      8269       8270       8281       8280       8390       8391       8402       8401  
      8270       8271       8282       8281       8391       8392       8403       8402  
      8271       8272       8283       8282       8392       8393       8404       8403  
      8273       8274       8285       8284       8394       8395       8406       8405  
      8274       8275       8286       8285       8395       8396       8407       8406  
      8275       8276       8287       8286       8396       8397       8408       8407  
      8276       8277       8288       8287       8397       8398       8409       8408  
      8277       8278       8289       8288       8398       8399       8410       8409  
      8278       8279       8290       8289       8399       8400       8411       8410  
      8279       8280       8291       8290       8400       8401       8412       8411  
      8280       8281       8292       8291       8401       8402       8413       8412  
      8281       8282       8293       8292       8402       8403       8414       8413  
      8282       8283       8294       8293       8403       8404       8415       8414  
      8284       8285       8296       8295       8405       8406       8417       8416  
      8285       8286       8297       8296       8406       8407       8418       8417  
      8286       8287       8298       8297       8407       8408       8419       8418  
      8287       8288       8299       8298       8408       8409       8420       8419  
      8288       8289       8300       8299       8409       8410       8421       8420  
      8289       8290       8301       8300       8410       8411       8422       8421  
      8290       8291       8302       8301       8411       8412       8423       8422  
      8291       8292       8303       8302       8412       8413       8424       8423  
      8292       8293       8304       8303       8413       8414       8425       8424  
      8293       8294       8305       8304       8414       8415       8426       8425  
      8295       8296       8307       8306       8416       8417       8428       8427  
      8296       8297       8308       8307       8417       8418       8429       8428  
      8297       8298       8309       8308       8418       8419       8430       8429  
      8298       8299       8310       8309       8419       8420       8431       8430  
      8299       8300       8311       8310       8420       8421       8432       8431  
      8300       8301       8312       8311       8421       8422       8433       8432  
      8301       8302       8313       8312       8422       8423       8434       8433  
      8302       8303       8314       8313       8423       8424       8435       8434  
      8303       8304       8315       8314       8424       8425       8436       8435  
      8304       8305       8316       8315       8425       8426       8437       8436  
      8306       8307       8318       8317       8427       8428       8439       8438  
      8307       8308       8319       8318       8428       8429       8440       8439  
      8308       8309       8320       8319       8429       8430       8441       8440  
      8309       8310       8321       8320       8430       8431       8442       8441  
      8310       8311       8322       8321       8431       8432       8443       8442  
      8311       8312       8323       8322       8432       8433       8444       8443  
      8312       8313       8324       8323       8433       8434       8445       8444  
      8313       8314       8325       8324       8434       8435       8446       8445  
      8314       8315       8326       8325       8435       8436       8447       8446  
      8315       8316       8327       8326       8436       8437       8448       8447  
      8317       8318       8329       8328       8438       8439       8450       8449  
      8318       8319       8330       8329       8439       8440       8451       8450  
      8319       8320       8331       8330       8440       8441       8452       8451  
      8320       8321       8332       8331       8441       8442       8453       8452  
      8321       8322       8333       8332       8442       8443       8454       8453  
      8322       8323       8334       8333       8443       8444       8455       8454  
      8323       8324       8335       8334       8444       8445       8456       8455  
      8324       8325       8336       8335       8445       8446       8457       8456  
      8325       8326       8337       8336       8446       8447       8458       8457  
      8326       8327       8338       8337       8447       8448       8459       8458  
      8328       8329       8340       8339       8449       8450       8461       8460  
      8329       8330       8341       8340       8450       8451       8462       8461  
      8330       8331       8342       8341       8451       8452       8463       8462  
      8331       8332       8343       8342       8452       8453       8464       8463  
      8332       8333       8344       8343       8453       8454       8465       8464  
      8333       8334       8345       8344       8454       8455       8466       8465  
      8334       8335       8346       8345       8455       8456       8467       8466  
      8335       8336       8347       8346       8456       8457       8468       8467  
      8336       8337       8348       8347       8457       8458       8469       8468  
      8337       8338       8349       8348       8458       8459       8470       8469  
      8350       8351       8362       8361       8471       8472       8483       8482  
      8351       8352       8363       8362       8472       8473       8484       8483  
      8352       8353       8364       8363       8473       8474       8485       8484  
      8353       8354       8365       8364       8474       8475       8486       8485  
      8354       8355       8366       8365       8475       8476       8487       8486  
      8355       8356       8367       8366       8476       8477       8488       8487  
      8356       8357       8368       8367       8477       8478       8489       8488  
      8357       8358       8369       8368       8478       8479       8490       8489  
      8358       8359       8370       8369       8479       8480       8491       8490  
      8359       8360       8371       8370       8480       8481       8492       8491  
      8361       8362       8373       8372       8482       8483       8494       8493  
      8362       8363       8374       8373       8483       8484       8495       8494  
      8363       8364       8375       8374       8484       8485       8496       8495  
      8364       8365       8376       8375       8485       8486       8497       8496  
      8365       8366       8377       8376       8486       8487       8498       8497  
      8366       8367       8378       8377       8487       8488       8499       8498  
      8367       8368       8379       8378       8488       8489       8500       8499  
      8368       8369       8380       8379       8489       8490       8501       8500  
      8369       8370       8381       8380       8490       8491       8502       8501  
      8370       8371       8382       8381       8491       8492       8503       8502  
      8372       8373       8384       8383       8493       8494       8505       8504  
      8373       8374       8385       8384       8494       8495       8506       8505  
      8374       8375       8386       8385       8495       8496       8507       8506  
      8375       8376       8387       8386       8496       8497       8508       8507  
      8376       8377       8388       8387       8497       8498       8509       8508  
      8377       8378       8389       8388       8498       8499       8510       8509  
      8378       8379       8390       8389       8499       8500       8511       8510  
      8379       8380       8391       8390       8500       8501       8512       8511  
      8380       8381       8392       8391       8501       8502       8513       8512  
      8381       8382       8393       8392       8502       8503       8514       8513  
      8383       8384       8395       8394       8504       8505       8516       8515  
      8384       8385       8396       8395       8505       8506       8517       8516  
      8385       8386       8397       8396       8506       8507       8518       8517  
      8386       8387       8398       8397       8507       8508       8519       8518  
      8387       8388       8399       8398       8508       8509       8520       8519  
      8388       8389       8400       8399       8509       8510       8521       8520  
      8389       8390       8401       8400       8510       8511       8522       8521  
      8390       8391       8402       8401       8511       8512       8523       8522  
      8391       8392       8403       8402       8512       8513       8524       8523  
      8392       8393       8404       8403       8513       8514       8525       8524  
      8394       8395       8406       8405       8515       8516       8527       8526  
      8395       8396       8407       8406       8516       8517       8528       8527  
      8396       8397       8408       8407       8517       8518       8529       8528  
      8397       8398       8409       8408       8518       8519       8530       8529  
      8398       8399       8410       8409       8519       8520       8531       8530  
      8399       8400       8411       8410       8520       8521       8532       8531  
      8400       8401       8412       8411       8521       8522       8533       8532  
      8401       8402       8413       8412       8522       8523       8534       8533  
      8402       8403       8414       8413       8523       8524       8535       8534  
      8403       8404       8415       8414       8524       8525       8536       8535  
      8405       8406       8417       8416       8526       8527       8538       8537  
      8406       8407       8418       8417       8527       8528       8539       8538  
      8407       8408       8419       8418       8528       8529       8540       8539  
      8408       8409       8420       8419       8529       8530       8541       8540  
      8409       8410       8421       8420       8530       8531       8542       8541  
      8410       8411       8422       8421       8531       8532       8543       8542  
      8411       8412       8423       8422       8532       8533       8544       8543  
      8412       8413       8424       8423       8533       8534       8545       8544  
      8413       8414       8425       8424       8534       8535       8546       8545  
      8414       8415       8426       8425       8535       8536       8547       8546  
      8416       8417       8428       8427       8537       8538       8549       8548  
      8417       8418       8429       8428       8538       8539       8550       8549  
      8418       8419       8430       8429       8539       8540       8551       8550  
      8419       8420       8431       8430       8540       8541       8552       8551  
      8420       8421       8432       8431       8541       8542       8553       8552  
      8421       8422       8433       8432       8542       8543       8554       8553  
      8422       8423       8434       8433       8543       8544       8555       8554  
      8423       8424       8435       8434       8544       8545       8556       8555  
      8424       8425       8436       8435       8545       8546       8557       8556  
      8425       8426       8437       8436       8546       8547       8558       8557  
      8427       8428       8439       8438       8548       8549       8560       8559  
      8428       8429       8440       8439       8549       8550       8561       8560  
      8429       8430       8441       8440       8550       8551       8562       8561  
      8430       8431       8442       8441       8551       8552       8563       8562  
      8431       8432       8443       8442       8552       8553       8564       8563  
      8432       8433       8444       8443       8553       8554       8565       8564  
      8433       8434       8445       8444       8554       8555       8566       8565  
      8434       8435       8446       8445       8555       8556       8567       8566  
      8435       8436       8447       8446       8556       8557       8568       8567  
      8436       8437       8448       8447       8557       8558       8569       8568  
      8438       8439       8450       8449       8559       8560       8571       8570  
      8439       8440       8451       8450       8560       8561       8572       8571  
      8440       8441       8452       8451       8561       8562       8573       8572  
      8441       8442       8453       8452       8562       8563       8574       8573  
      8442       8443       8454       8453       8563       8564       8575       8574  
      8443       8444       8455       8454       8564       8565       8576       8575  
      8444       8445       8456       8455       8565       8566       8577       8576  
      8445       8446       8457       8456       8566       8567       8578       8577  
      8446       8447       8458       8457       8567       8568       8579       8578  
      8447       8448       8459       8458       8568       8569       8580       8579  
      8449       8450       8461       8460       8570       8571       8582       8581  
      8450       8451       8462       8461       8571       8572       8583       8582  
      8451       8452       8463       8462       8572       8573       8584       8583  
      8452       8453       8464       8463       8573       8574       8585       8584  
      8453       8454       8465       8464       8574       8575       8586       8585  
      8454       8455       8466       8465       8575       8576       8587       8586  
      8455       8456       8467       8466       8576       8577       8588       8587  
      8456       8457       8468       8467       8577       8578       8589       8588  
      8457       8458       8469       8468       8578       8579       8590       8589  
      8458       8459       8470       8469       8579       8580       8591       8590  
      8471       8472       8483       8482       8592       8593       8604       8603  
      8472       8473       8484       8483       8593       8594       8605       8604  
      8473       8474       8485       8484       8594       8595       8606       8605  
      8474       8475       8486       8485       8595       8596       8607       8606  
      8475       8476       8487       8486       8596       8597       8608       8607  
      8476       8477       8488       8487       8597       8598       8609       8608  
      8477       8478       8489       8488       8598       8599       8610       8609  
      8478       8479       8490       8489       8599       8600       8611       8610  
      8479       8480       8491       8490       8600       8601       8612       8611  
      8480       8481       8492       8491       8601       8602       8613       8612  
      8482       8483       8494       8493       8603       8604       8615       8614  
      8483       8484       8495       8494       8604       8605       8616       8615  
      8484       8485       8496       8495       8605       8606       8617       8616  
      8485       8486       8497       8496       8606       8607       8618       8617  
      8486       8487       8498       8497       8607       8608       8619       8618  
      8487       8488       8499       8498       8608       8609       8620       8619  
      8488       8489       8500       8499       8609       8610       8621       8620  
      8489       8490       8501       8500       8610       8611       8622       8621  
      8490       8491       8502       8501       8611       8612       8623       8622  
      8491       8492       8503       8502       8612       8613       8624       8623  
      8493       8494       8505       8504       8614       8615       8626       8625  
      8494       8495       8506       8505       8615       8616       8627       8626  
      8495       8496       8507       8506       8616       8617       8628       8627  
      8496       8497       8508       8507       8617       8618       8629       8628  
      8497       8498       8509       8508       8618       8619       8630       8629  
      8498       8499       8510       8509       8619       8620       8631       8630  
      8499       8500       8511       8510       8620       8621       8632       8631  
      8500       8501       8512       8511       8621       8622       8633       8632  
      8501       8502       8513       8512       8622       8623       8634       8633  
      8502       8503       8514       8513       8623       8624       8635       8634  
      8504       8505       8516       8515       8625       8626       8637       8636  
      8505       8506       8517       8516       8626       8627       8638       8637  
      8506       8507       8518       8517       8627       8628       8639       8638  
      8507       8508       8519       8518       8628       8629       8640       8639  
      8508       8509       8520       8519       8629       8630       8641       8640  
      8509       8510       8521       8520       8630       8631       8642       8641  
      8510       8511       8522       8521       8631       8632       8643       8642  
      8511       8512       8523       8522       8632       8633       8644       8643  
      8512       8513       8524       8523       8633       8634       8645       8644  
      8513       8514       8525       8524       8634       8635       8646       8645  
      8515       8516       8527       8526       8636       8637       8648       8647  
      8516       8517       8528       8527       8637       8638       8649       8648  
      8517       8518       8529       8528       8638       8639       8650       8649  
      8518       8519       8530       8529       8639       8640       8651       8650  
      8519       8520       8531       8530       8640       8641       8652       8651  
      8520       8521       8532       8531       8641       8642       8653       8652  
      8521       8522       8533       8532       8642       8643       8654       8653  
      8522       8523       8534       8533       8643       8644       8655       8654  
      8523       8524       8535       8534       8644       8645       8656       8655  
      8524       8525       8536       8535       8645       8646       8657       8656  
      8526       8527       8538       8537       8647       8648       8659       8658  
      8527       8528       8539       8538       8648       8649       8660       8659  
      8528       8529       8540       8539       8649       8650       8661       8660  
      8529       8530       8541       8540       8650       8651       8662       8661  
      8530       8531       8542       8541       8651       8652       8663       8662  
      8531       8532       8543       8542       8652       8653       8664       8663  
      8532       8533       8544       8543       8653       8654       8665       8664  
      8533       8534       8545       8544       8654       8655       8666       8665  
      8534       8535       8546       8545       8655       8656       8667       8666  
      8535       8536       8547       8546       8656       8657       8668       8667  
      8537       8538       8549       8548       8658       8659       8670       8669  
      8538       8539       8550       8549       8659       8660       8671       8670  
      8539       8540       8551       8550       8660       8661       8672       8671  
      8540       8541       8552       8551       8661       8662       8673       8672  
      8541       8542       8553       8552       8662       8663       8674       8673  
      8542       8543       8554       8553       8663       8664       8675       8674  
      8543       8544       8555       8554       8664       8665       8676       8675  
      8544       8545       8556       8555       8665       8666       8677       8676  
      8545       8546       8557       8556       8666       8667       8678       8677  
      8546       8547       8558       8557       8667       8668       8679       8678  
      8548       8549       8560       8559       8669       8670       8681       8680  
      8549       8550       8561       8560       8670       8671       8682       8681  
      8550       8551       8562       8561       8671       8672       8683       8682  
      8551       8552       8563       8562       8672       8673       8684       8683  
      8552       8553       8564       8563       8673       8674       8685       8684  
      8553       8554       8565       8564       8674       8675       8686       8685  
      8554       8555       8566       8565       8675       8676       8687       8686  
      8555       8556       8567       8566       8676       8677       8688       8687  
      8556       8557       8568       8567       8677       8678       8689       8688  
      8557       8558       8569       8568       8678       8679       8690       8689  
      8559       8560       8571       8570       8680       8681       8692       8691  
      8560       8561       8572       8571       8681       8682       8693       8692  
      8561       8562       8573       8572       8682       8683       8694       8693  
      8562       8563       8574       8573       8683       8684       8695       8694  
      8563       8564       8575       8574       8684       8685       8696       8695  
      8564       8565       8576       8575       8685       8686       8697       8696  
      8565       8566       8577       8576       8686       8687       8698       8697  
      8566       8567       8578       8577       8687       8688       8699       8698  
      8567       8568       8579       8578       8688       8689       8700       8699  
      8568       8569       8580       8579       8689       8690       8701       8700  
      8570       8571       8582       8581       8691       8692       8703       8702  
      8571       8572       8583       8582       8692       8693       8704       8703  
      8572       8573       8584       8583       8693       8694       8705       8704  
      8573       8574       8585       8584       8694       8695       8706       8705  
      8574       8575       8586       8585       8695       8696       8707       8706  
      8575       8576       8587       8586       8696       8697       8708       8707  
      8576       8577       8588       8587       8697       8698       8709       8708  
      8577       8578       8589       8588       8698       8699       8710       8709  
      8578       8579       8590       8589       8699       8700       8711       8710  
      8579       8580       8591       8590       8700       8701       8712       8711  
      8592       8593       8604       8603       8713       8714       8725       8724  
      8593       8594       8605       8604       8714       8715       8726       8725  
      8594       8595       8606       8605       8715       8716       8727       8726  
      8595       8596       8607       8606       8716       8717       8728       8727  
      8596       8597       8608       8607       8717       8718       8729       8728  
      8597       8598       8609       8608       8718       8719       8730       8729  
      8598       8599       8610       8609       8719       8720       8731       8730  
      8599       8600       8611       8610       8720       8721       8732       8731  
      8600       8601       8612       8611       8721       8722       8733       8732  
      8601       8602       8613       8612       8722       8723       8734       8733  
      8603       8604       8615       8614       8724       8725       8736       8735  
      8604       8605       8616       8615       8725       8726       8737       8736  
      8605       8606       8617       8616       8726       8727       8738       8737  
      8606       8607       8618       8617       8727       8728       8739       8738  
      8607       8608       8619       8618       8728       8729       8740       8739  
      8608       8609       8620       8619       8729       8730       8741       8740  
      8609       8610       8621       8620       8730       8731       8742       8741  
      8610       8611       8622       8621       8731       8732       8743       8742  
      8611       8612       8623       8622       8732       8733       8744       8743  
      8612       8613       8624       8623       8733       8734       8745       8744  
      8614       8615       8626       8625       8735       8736       8747       8746  
      8615       8616       8627       8626       8736       8737       8748       8747  
      8616       8617       8628       8627       8737       8738       8749       8748  
      8617       8618       8629       8628       8738       8739       8750       8749  
      8618       8619       8630       8629       8739       8740       8751       8750  
      8619       8620       8631       8630       8740       8741       8752       8751  
      8620       8621       8632       8631       8741       8742       8753       8752  
      8621       8622       8633       8632       8742       8743       8754       8753  
      8622       8623       8634       8633       8743       8744       8755       8754  
      8623       8624       8635       8634       8744       8745       8756       8755  
      8625       8626       8637       8636       8746       8747       8758       8757  
      8626       8627       8638       8637       8747       8748       8759       8758  
      8627       8628       8639       8638       8748       8749       8760       8759  
      8628       8629       8640       8639       8749       8750       8761       8760  
      8629       8630       8641       8640       8750       8751       8762       8761  
      8630       8631       8642       8641       8751       8752       8763       8762  
      8631       8632       8643       8642       8752       8753       8764       8763  
      8632       8633       8644       8643       8753       8754       8765       8764  
      8633       8634       8645       8644       8754       8755       8766       8765  
      8634       8635       8646       8645       8755       8756       8767       8766  
      8636       8637       8648       8647       8757       8758       8769       8768  
      8637       8638       8649       8648       8758       8759       8770       8769  
      8638       8639       8650       8649       8759       8760       8771       8770  
      8639       8640       8651       8650       8760       8761       8772       8771  
      8640       8641       8652       8651       8761       8762       8773       8772  
      8641       8642       8653       8652       8762       8763       8774       8773  
      8642       8643       8654       8653       8763       8764       8775       8774  
      8643       8644       8655       8654       8764       8765       8776       8775  
      8644       8645       8656       8655       8765       8766       8777       8776  
      8645       8646       8657       8656       8766       8767       8778       8777  
      8647       8648       8659       8658       8768       8769       8780       8779  
      8648       8649       8660       8659       8769       8770       8781       8780  
      8649       8650       8661       8660       8770       8771       8782       8781  
      8650       8651       8662       8661       8771       8772       8783       8782  
      8651       8652       8663       8662       8772       8773       8784       8783  
      8652       8653       8664       8663       8773       8774       8785       8784  
      8653       8654       8665       8664       8774       8775       8786       8785  
      8654       8655       8666       8665       8775       8776       8787       8786  
      8655       8656       8667       8666       8776       8777       8788       8787  
      8656       8657       8668       8667       8777       8778       8789       8788  
      8658       8659       8670       8669       8779       8780       8791       8790  
      8659       8660       8671       8670       8780       8781       8792       8791  
      8660       8661       8672       8671       8781       8782       8793       8792  
      8661       8662       8673       8672       8782       8783       8794       8793  
      8662       8663       8674       8673       8783       8784       8795       8794  
      8663       8664       8675       8674       8784       8785       8796       8795  
      8664       8665       8676       8675       8785       8786       8797       8796  
      8665       8666       8677       8676       8786       8787       8798       8797  
      8666       8667       8678       8677       8787       8788       8799       8798  
      8667       8668       8679       8678       8788       8789       8800       8799  
      8669       8670       8681       8680       8790       8791       8802       8801  
      8670       8671       8682       8681       8791       8792       8803       8802  
      8671       8672       8683       8682       8792       8793       8804       8803  
      8672       8673       8684       8683       8793       8794       8805       8804  
      8673       8674       8685       8684       8794       8795       8806       8805  
      8674       8675       8686       8685       8795       8796       8807       8806  
      8675       8676       8687       8686       8796       8797       8808       8807  
      8676       8677       8688       8687       8797       8798       8809       8808  
      8677       8678       8689       8688       8798       8799       8810       8809  
      8678       8679       8690       8689       8799       8800       8811       8810  
      8680       8681       8692       8691       8801       8802       8813       8812  
      8681       8682       8693       8692       8802       8803       8814       8813  
      8682       8683       8694       8693       8803       8804       8815       8814  
      8683       8684       8695       8694       8804       8805       8816       8815  
      8684       8685       8696       8695       8805       8806       8817       8816  
      8685       8686       8697       8696       8806       8807       8818       8817  
      8686       8687       8698       8697       8807       8808       8819       8818  
      8687       8688       8699       8698       8808       8809       8820       8819  
      8688       8689       8700       8699       8809       8810       8821       8820  
      8689       8690       8701       8700       8810       8811       8822       8821  
      8691       8692       8703       8702       8812       8813       8824       8823  
      8692       8693       8704       8703       8813       8814       8825       8824  
      8693       8694       8705       8704       8814       8815       8826       8825  
      8694       8695       8706       8705       8815       8816       8827       8826  
      8695       8696       8707       8706       8816       8817       8828       8827  
      8696       8697       8708       8707       8817       8818       8829       8828  
      8697       8698       8709       8708       8818       8819       8830       8829  
      8698       8699       8710       8709       8819       8820       8831       8830  
      8699       8700       8711       8710       8820       8821       8832       8831  
      8700       8701       8712       8711       8821       8822       8833       8832  
      8713       8714       8725       8724       8834       8835       8846       8845  
      8714       8715       8726       8725       8835       8836       8847       8846  
      8715       8716       8727       8726       8836       8837       8848       8847  
      8716       8717       8728       8727       8837       8838       8849       8848  
      8717       8718       8729       8728       8838       8839       8850       8849  
      8718       8719       8730       8729       8839       8840       8851       8850  
      8719       8720       8731       8730       8840       8841       8852       8851  
      8720       8721       8732       8731       8841       8842       8853       8852  
      8721       8722       8733       8732       8842       8843       8854       8853  
      8722       8723       8734       8733       8843       8844       8855       8854  
      8724       8725       8736       8735       8845       8846       8857       8856  
      8725       8726       8737       8736       8846       8847       8858       8857  
      8726       8727       8738       8737       8847       8848       8859       8858  
      8727       8728       8739       8738       8848       8849       8860       8859  
      8728       8729       8740       8739       8849       8850       8861       8860  
      8729       8730       8741       8740       8850       8851       8862       8861  
      8730       8731       8742       8741       8851       8852       8863       8862  
      8731       8732       8743       8742       8852       8853       8864       8863  
      8732       8733       8744       8743       8853       8854       8865       8864  
      8733       8734       8745       8744       8854       8855       8866       8865  
      8735       8736       8747       8746       8856       8857       8868       8867  
      8736       8737       8748       8747       8857       8858       8869       8868  
      8737       8738       8749       8748       8858       8859       8870       8869  
      8738       8739       8750       8749       8859       8860       8871       8870  
      8739       8740       8751       8750       8860       8861       8872       8871  
      8740       8741       8752       8751       8861       8862       8873       8872  
      8741       8742       8753       8752       8862       8863       8874       8873  
      8742       8743       8754       8753       8863       8864       8875       8874  
      8743       8744       8755       8754       8864       8865       8876       8875  
      8744       8745       8756       8755       8865       8866       8877       8876  
      8746       8747       8758       8757       8867       8868       8879       8878  
      8747       8748       8759       8758       8868       8869       8880       8879  
      8748       8749       8760       8759       8869       8870       8881       8880  
      8749       8750       8761       8760       8870       8871       8882       8881  
      8750       8751       8762       8761       8871       8872       8883       8882  
      8751       8752       8763       8762       8872       8873       8884       8883  
      8752       8753       8764       8763       8873       8874       8885       8884  
      8753       8754       8765       8764       8874       8875       8886       8885  
      8754       8755       8766       8765       8875       8876       8887       8886  
      8755       8756       8767       8766       8876       8877       8888       8887  
      8757       8758       8769       8768       8878       8879       8890       8889  
      8758       8759       8770       8769       8879       8880       8891       8890  
      8759       8760       8771       8770       8880       8881       8892       8891  
      8760       8761       8772       8771       8881       8882       8893       8892  
      8761       8762       8773       8772       8882       8883       8894       8893  
      8762       8763       8774       8773       8883       8884       8895       8894  
      8763       8764       8775       8774       8884       8885       8896       8895  
      8764       8765       8776       8775       8885       8886       8897       8896  
      8765       8766       8777       8776       8886       8887       8898       8897  
      8766       8767       8778       8777       8887       8888       8899       8898  
      8768       8769       8780       8779       8889       8890       8901       8900  
      8769       8770       8781       8780       8890       8891       8902       8901  
      8770       8771       8782       8781       8891       8892       8903       8902  
      8771       8772       8783       8782       8892       8893       8904       8903  
      8772       8773       8784       8783       8893       8894       8905       8904  
      8773       8774       8785       8784       8894       8895       8906       8905  
      8774       8775       8786       8785       8895       8896       8907       8906  
      8775       8776       8787       8786       8896       8897       8908       8907  
      8776       8777       8788       8787       8897       8898       8909       8908  
      8777       8778       8789       8788       8898       8899       8910       8909  
      8779       8780       8791       8790       8900       8901       8912       8911  
      8780       8781       8792       8791       8901       8902       8913       8912  
      8781       8782       8793       8792       8902       8903       8914       8913  
      8782       8783       8794       8793       8903       8904       8915       8914  
      8783       8784       8795       8794       8904       8905       8916       8915  
      8784       8785       8796       8795       8905       8906       8917       8916  
      8785       8786       8797       8796       8906       8907       8918       8917  
      8786       8787       8798       8797       8907       8908       8919       8918  
      8787       8788       8799       8798       8908       8909       8920       8919  
      8788       8789       8800       8799       8909       8910       8921       8920  
      8790       8791       8802       8801       8911       8912       8923       8922  
      8791       8792       8803       8802       8912       8913       8924       8923  
      8792       8793       8804       8803       8913       8914       8925       8924  
      8793       8794       8805       8804       8914       8915       8926       8925  
      8794       8795       8806       8805       8915       8916       8927       8926  
      8795       8796       8807       8806       8916       8917       8928       8927  
      8796       8797       8808       8807       8917       8918       8929       8928  
      8797       8798       8809       8808       8918       8919       8930       8929  
      8798       8799       8810       8809       8919       8920       8931       8930  
      8799       8800       8811       8810       8920       8921       8932       8931  
      8801       8802       8813       8812       8922       8923       8934       8933  
      8802       8803       8814       8813       8923       8924       8935       8934  
      8803       8804       8815       8814       8924       8925       8936       8935  
      8804       8805       8816       8815       8925       8926       8937       8936  
      8805       8806       8817       8816       8926       8927       8938       8937  
      8806       8807       8818       8817       8927       8928       8939       8938  
      8807       8808       8819       8818       8928       8929       8940       8939  
      8808       8809       8820       8819       8929       8930       8941       8940  
      8809       8810       8821       8820       8930       8931       8942       8941  
      8810       8811       8822       8821       8931       8932       8943       8942  
      8812       8813       8824       8823       8933       8934       8945       8944  
      8813       8814       8825       8824       8934       8935       8946       8945  
      8814       8815       8826       8825       8935       8936       8947       8946  
      8815       8816       8827       8826       8936       8937       8948       8947  
      8816       8817       8828       8827       8937       8938       8949       8948  
      8817       8818       8829       8828       8938       8939       8950       8949  
      8818       8819       8830       8829       8939       8940       8951       8950  
      8819       8820       8831       8830       8940       8941       8952       8951  
      8820       8821       8832       8831       8941       8942       8953       8952  
      8821       8822       8833       8832       8942       8943       8954       8953  
      8834       8835       8846       8845       8955       8956       8967       8966  
      8835       8836       8847       8846       8956       8957       8968       8967  
      8836       8837       8848       8847       8957       8958       8969       8968  
      8837       8838       8849       8848       8958       8959       8970       8969  
      8838       8839       8850       8849       8959       8960       8971       8970  
      8839       8840       8851       8850       8960       8961       8972       8971  
      8840       8841       8852       8851       8961       8962       8973       8972  
      8841       8842       8853       8852       8962       8963       8974       8973  
      8842       8843       8854       8853       8963       8964       8975       8974  
      8843       8844       8855       8854       8964       8965       8976       8975  
      8845       8846       8857       8856       8966       8967       8978       8977  
      8846       8847       8858       8857       8967       8968       8979       8978  
      8847       8848       8859       8858       8968       8969       8980       8979  
      8848       8849       8860       8859       8969       8970       8981       8980  
      8849       8850       8861       8860       8970       8971       8982       8981  
      8850       8851       8862       8861       8971       8972       8983       8982  
      8851       8852       8863       8862       8972       8973       8984       8983  
      8852       8853       8864       8863       8973       8974       8985       8984  
      8853       8854       8865       8864       8974       8975       8986       8985  
      8854       8855       8866       8865       8975       8976       8987       8986  
      8856       8857       8868       8867       8977       8978       8989       8988  
      8857       8858       8869       8868       8978       8979       8990       8989  
      8858       8859       8870       8869       8979       8980       8991       8990  
      8859       8860       8871       8870       8980       8981       8992       8991  
      8860       8861       8872       8871       8981       8982       8993       8992  
      8861       8862       8873       8872       8982       8983       8994       8993  
      8862       8863       8874       8873       8983       8984       8995       8994  
      8863       8864       8875       8874       8984       8985       8996       8995  
      8864       8865       8876       8875       8985       8986       8997       8996  
      8865       8866       8877       8876       8986       8987       8998       8997  
      8867       8868       8879       8878       8988       8989       9000       8999  
      8868       8869       8880       8879       8989       8990       9001       9000  
      8869       8870       8881       8880       8990       8991       9002       9001  
      8870       8871       8882       8881       8991       8992       9003       9002  
      8871       8872       8883       8882       8992       8993       9004       9003  
      8872       8873       8884       8883       8993       8994       9005       9004  
      8873       8874       8885       8884       8994       8995       9006       9005  
      8874       8875       8886       8885       8995       8996       9007       9006  
      8875       8876       8887       8886       8996       8997       9008       9007  
      8876       8877       8888       8887       8997       8998       9009       9008  
      8878       8879       8890       8889       8999       9000       9011       9010  
      8879       8880       8891       8890       9000       9001       9012       9011  
      8880       8881       8892       8891       9001       9002       9013       9012  
      8881       8882       8893       8892       9002       9003       9014       9013  
      8882       8883       8894       8893       9003       9004       9015       9014  
      8883       8884       8895       8894       9004       9005       9016       9015  
      8884       8885       8896       8895       9005       9006       9017       9016  
      8885       8886       8897       8896       9006       9007       9018       9017  
      8886       8887       8898       8897       9007       9008       9019       9018  
      8887       8888       8899       8898       9008       9009       9020       9019  
      8889       8890       8901       8900       9010       9011       9022       9021  
      8890       8891       8902       8901       9011       9012       9023       9022  
      8891       8892       8903       8902       9012       9013       9024       9023  
      8892       8893       8904       8903       9013       9014       9025       9024  
      8893       8894       8905       8904       9014       9015       9026       9025  
      8894       8895       8906       8905       9015       9016       9027       9026  
      8895       8896       8907       8906       9016       9017       9028       9027  
      8896       8897       8908       8907       9017       9018       9029       9028  
      8897       8898       8909       8908       9018       9019       9030       9029  
      8898       8899       8910       8909       9019       9020       9031       9030  
      8900       8901       8912       8911       9021       9022       9033       9032  
      8901       8902       8913       8912       9022       9023       9034       9033  
      8902       8903       8914       8913       9023       9024       9035       9034  
      8903       8904       8915       8914       9024       9025       9036       9035  
      8904       8905       8916       8915       9025       9026       9037       9036  
      8905       8906       8917       8916       9026       9027       9038       9037  
      8906       8907       8918       8917       9027       9028       9039       9038  
      8907       8908       8919       8918       9028       9029       9040       9039  
      8908       8909       8920       8919       9029       9030       9041       9040  
      8909       8910       8921       8920       9030       9031       9042       9041  
      8911       8912       8923       8922       9032       9033       9044       9043  
      8912       8913       8924       8923       9033       9034       9045       9044  
      8913       8914       8925       8924       9034       9035       9046       9045  
      8914       8915       8926       8925       9035       9036       9047       9046  
      8915       8916       8927       8926       9036       9037       9048       9047  
      8916       8917       8928       8927       9037       9038       9049       9048  
      8917       8918       8929       8928       9038       9039       9050       9049  
      8918       8919       8930       8929       9039       9040       9051       9050  
      8919       8920       8931       8930       9040       9041       9052       9051  
      8920       8921       8932       8931       9041       9042       9053       9052  
      8922       8923       8934       8933       9043       9044       9055       9054  
      8923       8924       8935       8934       9044       9045       9056       9055  
      8924       8925       8936       8935       9045       9046       9057       9056  
      8925       8926       8937       8936       9046       9047       9058       9057  
      8926       8927       8938       8937       9047       9048       9059       9058  
      8927       8928       8939       8938       9048       9049       9060       9059  
      8928       8929       8940       8939       9049       9050       9061       9060  
      8929       8930       8941       8940       9050       9051       9062       9061  
      8930       8931       8942       8941       9051       9052       9063       9062  
      8931       8932       8943       8942       9052       9053       9064       9063  
      8933       8934       8945       8944       9054       9055       9066       9065  
      8934       8935       8946       8945       9055       9056       9067       9066  
      8935       8936       8947       8946       9056       9057       9068       9067  
      8936       8937       8948       8947       9057       9058       9069       9068  
      8937       8938       8949       8948       9058       9059       9070       9069  
      8938       8939       8950       8949       9059       9060       9071       9070  
      8939       8940       8951       8950       9060       9061       9072       9071  
      8940       8941       8952       8951       9061       9062       9073       9072  
      8941       8942       8953       8952       9062       9063       9074       9073  
      8942       8943       8954       8953       9063       9064       9075       9074  
      8955       8956       8967       8966       9076       9077       9088       9087  
      8956       8957       8968       8967       9077       9078       9089       9088  
      8957       8958       8969       8968       9078       9079       9090       9089  
      8958       8959       8970       8969       9079       9080       9091       9090  
      8959       8960       8971       8970       9080       9081       9092       9091  
      8960       8961       8972       8971       9081       9082       9093       9092  
      8961       8962       8973       8972       9082       9083       9094       9093  
      8962       8963       8974       8973       9083       9084       9095       9094  
      8963       8964       8975       8974       9084       9085       9096       9095  
      8964       8965       8976       8975       9085       9086       9097       9096  
      8966       8967       8978       8977       9087       9088       9099       9098  
      8967       8968       8979       8978       9088       9089       9100       9099  
      8968       8969       8980       8979       9089       9090       9101       9100  
      8969       8970       8981       8980       9090       9091       9102       9101  
      8970       8971       8982       8981       9091       9092       9103       9102  
      8971       8972       8983       8982       9092       9093       9104       9103  
      8972       8973       8984       8983       9093       9094       9105       9104  
      8973       8974       8985       8984       9094       9095       9106       9105  
      8974       8975       8986       8985       9095       9096       9107       9106  
      8975       8976       8987       8986       9096       9097       9108       9107  
      8977       8978       8989       8988       9098       9099       9110       9109  
      8978       8979       8990       8989       9099       9100       9111       9110  
      8979       8980       8991       8990       9100       9101       9112       9111  
      8980       8981       8992       8991       9101       9102       9113       9112  
      8981       8982       8993       8992       9102       9103       9114       9113  
      8982       8983       8994       8993       9103       9104       9115       9114  
      8983       8984       8995       8994       9104       9105       9116       9115  
      8984       8985       8996       8995       9105       9106       9117       9116  
      8985       8986       8997       8996       9106       9107       9118       9117  
      8986       8987       8998       8997       9107       9108       9119       9118  
      8988       8989       9000       8999       9109       9110       9121       9120  
      8989       8990       9001       9000       9110       9111       9122       9121  
      8990       8991       9002       9001       9111       9112       9123       9122  
      8991       8992       9003       9002       9112       9113       9124       9123  
      8992       8993       9004       9003       9113       9114       9125       9124  
      8993       8994       9005       9004       9114       9115       9126       9125  
      8994       8995       9006       9005       9115       9116       9127       9126  
      8995       8996       9007       9006       9116       9117       9128       9127  
      8996       8997       9008       9007       9117       9118       9129       9128  
      8997       8998       9009       9008       9118       9119       9130       9129  
      8999       9000       9011       9010       9120       9121       9132       9131  
      9000       9001       9012       9011       9121       9122       9133       9132  
      9001       9002       9013       9012       9122       9123       9134       9133  
      9002       9003       9014       9013       9123       9124       9135       9134  
      9003       9004       9015       9014       9124       9125       9136       9135  
      9004       9005       9016       9015       9125       9126       9137       9136  
      9005       9006       9017       9016       9126       9127       9138       9137  
      9006       9007       9018       9017       9127       9128       9139       9138  
      9007       9008       9019       9018       9128       9129       9140       9139  
      9008       9009       9020       9019       9129       9130       9141       9140  
      9010       9011       9022       9021       9131       9132       9143       9142  
      9011       9012       9023       9022       9132       9133       9144       9143  
      9012       9013       9024       9023       9133       9134       9145       9144  
      9013       9014       9025       9024       9134       9135       9146       9145  
      9014       9015       9026       9025       9135       9136       9147       9146  
      9015       9016       9027       9026       9136       9137       9148       9147  
      9016       9017       9028       9027       9137       9138       9149       9148  
      9017       9018       9029       9028       9138       9139       9150       9149  
      9018       9019       9030       9029       9139       9140       9151       9150  
      9019       9020       9031       9030       9140       9141       9152       9151  
      9021       9022       9033       9032       9142       9143       9154       9153  
      9022       9023       9034       9033       9143       9144       9155       9154  
      9023       9024       9035       9034       9144       9145       9156       9155  
      9024       9025       9036       9035       9145       9146       9157       9156  
      9025       9026       9037       9036       9146       9147       9158       9157  
      9026       9027       9038       9037       9147       9148       9159       9158  
      9027       9028       9039       9038       9148       9149       9160       9159  
      9028       9029       9040       9039       9149       9150       9161       9160  
      9029       9030       9041       9040       9150       9151       9162       9161  
      9030       9031       9042       9041       9151       9152       9163       9162  
      9032       9033       9044       9043       9153       9154       9165       9164  
      9033       9034       9045       9044       9154       9155       9166       9165  
      9034       9035       9046       9045       9155       9156       9167       9166  
      9035       9036       9047       9046       9156       9157       9168       9167  
      9036       9037       9048       9047       9157       9158       9169       9168  
      9037       9038       9049       9048       9158       9159       9170       9169  
      9038       9039       9050       9049       9159       9160       9171       9170  
      9039       9040       9051       9050       9160       9161       9172       9171  
      9040       9041       9052       9051       9161       9162       9173       9172  
      9041       9042       9053       9052       9162       9163       9174       9173  
      9043       9044       9055       9054       9164       9165       9176       9175  
      9044       9045       9056       9055       9165       9166       9177       9176  
      9045       9046       9057       9056       9166       9167       9178       9177  
      9046       9047       9058       9057       9167       9168       9179       9178  
      9047       9048       9059       9058       9168       9169       9180       9179  
      9048       9049       9060       9059       9169       9170       9181       9180  
      9049       9050       9061       9060       9170       9171       9182       9181  
      9050       9051       9062       9061       9171       9172       9183       9182  
      9051       9052       9063       9062       9172       9173       9184       9183  
      9052       9053       9064       9063       9173       9174       9185       9184  
      9054       9055       9066       9065       9175       9176       9187       9186  
      9055       9056       9067       9066       9176       9177       9188       9187  
      9056       9057       9068       9067       9177       9178       9189       9188  
      9057       9058       9069       9068       9178       9179       9190       9189  
      9058       9059       9070       9069       9179       9180       9191       9190  
      9059       9060       9071       9070       9180       9181       9192       9191  
      9060       9061       9072       9071       9181       9182       9193       9192  
      9061       9062       9073       9072       9182       9183       9194       9193  
      9062       9063       9074       9073       9183       9184       9195       9194  
      9063       9064       9075       9074       9184       9185       9196       9195  
      9076       9077       9088       9087       9197       9198       9209       9208  
      9077       9078       9089       9088       9198       9199       9210       9209  
      9078       9079       9090       9089       9199       9200       9211       9210  
      9079       9080       9091       9090       9200       9201       9212       9211  
      9080       9081       9092       9091       9201       9202       9213       9212  
      9081       9082       9093       9092       9202       9203       9214       9213  
      9082       9083       9094       9093       9203       9204       9215       9214  
      9083       9084       9095       9094       9204       9205       9216       9215  
      9084       9085       9096       9095       9205       9206       9217       9216  
      9085       9086       9097       9096       9206       9207       9218       9217  
      9087       9088       9099       9098       9208       9209       9220       9219  
      9088       9089       9100       9099       9209       9210       9221       9220  
      9089       9090       9101       9100       9210       9211       9222       9221  
      9090       9091       9102       9101       9211       9212       9223       9222  
      9091       9092       9103       9102       9212       9213       9224       9223  
      9092       9093       9104       9103       9213       9214       9225       9224  
      9093       9094       9105       9104       9214       9215       9226       9225  
      9094       9095       9106       9105       9215       9216       9227       9226  
      9095       9096       9107       9106       9216       9217       9228       9227  
      9096       9097       9108       9107       9217       9218       9229       9228  
      9098       9099       9110       9109       9219       9220       9231       9230  
      9099       9100       9111       9110       9220       9221       9232       9231  
      9100       9101       9112       9111       9221       9222       9233       9232  
      9101       9102       9113       9112       9222       9223       9234       9233  
      9102       9103       9114       9113       9223       9224       9235       9234  
      9103       9104       9115       9114       9224       9225       9236       9235  
      9104       9105       9116       9115       9225       9226       9237       9236  
      9105       9106       9117       9116       9226       9227       9238       9237  
      9106       9107       9118       9117       9227       9228       9239       9238  
      9107       9108       9119       9118       9228       9229       9240       9239  
      9109       9110       9121       9120       9230       9231       9242       9241  
      9110       9111       9122       9121       9231       9232       9243       9242  
      9111       9112       9123       9122       9232       9233       9244       9243  
      9112       9113       9124       9123       9233       9234       9245       9244  
      9113       9114       9125       9124       9234       9235       9246       9245  
      9114       9115       9126       9125       9235       9236       9247       9246  
      9115       9116       9127       9126       9236       9237       9248       9247  
      9116       9117       9128       9127       9237       9238       9249       9248  
      9117       9118       9129       9128       9238       9239       9250       9249  
      9118       9119       9130       9129       9239       9240       9251       9250  
      9120       9121       9132       9131       9241       9242       9253       9252  
      9121       9122       9133       9132       9242       9243       9254       9253  
      9122       9123       9134       9133       9243       9244       9255       9254  
      9123       9124       9135       9134       9244       9245       9256       9255  
      9124       9125       9136       9135       9245       9246       9257       9256  
      9125       9126       9137       9136       9246       9247       9258       9257  
      9126       9127       9138       9137       9247       9248       9259       9258  
      9127       9128       9139       9138       9248       9249       9260       9259  
      9128       9129       9140       9139       9249       9250       9261       9260  
      9129       9130       9141       9140       9250       9251       9262       9261  
      9131       9132       9143       9142       9252       9253       9264       9263  
      9132       9133       9144       9143       9253       9254       9265       9264  
      9133       9134       9145       9144       9254       9255       9266       9265  
      9134       9135       9146       9145       9255       9256       9267       9266  
      9135       9136       9147       9146       9256       9257       9268       9267  
      9136       9137       9148       9147       9257       9258       9269       9268  
      9137       9138       9149       9148       9258       9259       9270       9269  
      9138       9139       9150       9149       9259       9260       9271       9270  
      9139       9140       9151       9150       9260       9261       9272       9271  
      9140       9141       9152       9151       9261       9262       9273       9272  
      9142       9143       9154       9153       9263       9264       9275       9274  
      9143       9144       9155       9154       9264       9265       9276       9275  
      9144       9145       9156       9155       9265       9266       9277       9276  
      9145       9146       9157       9156       9266       9267       9278       9277  
      9146       9147       9158       9157       9267       9268       9279       9278  
      9147       9148       9159       9158       9268       9269       9280       9279  
      9148       9149       9160       9159       9269       9270       9281       9280  
      9149       9150       9161       9160       9270       9271       9282       9281  
      9150       9151       9162       9161       9271       9272       9283       9282  
      9151       9152       9163       9162       9272       9273       9284       9283  
      9153       9154       9165       9164       9274       9275       9286       9285  
      9154       9155       9166       9165       9275       9276       9287       9286  
      9155       9156       9167       9166       9276       9277       9288       9287  
      9156       9157       9168       9167       9277       9278       9289       9288  
      9157       9158       9169       9168       9278       9279       9290       9289  
      9158       9159       9170       9169       9279       9280       9291       9290  
      9159       9160       9171       9170       9280       9281       9292       9291  
      9160       9161       9172       9171       9281       9282       9293       9292  
      9161       9162       9173       9172       9282       9283       9294       9293  
      9162       9163       9174       9173       9283       9284       9295       9294  
      9164       9165       9176       9175       9285       9286       9297       9296  
      9165       9166       9177       9176       9286       9287       9298       9297  
      9166       9167       9178       9177       9287       9288       9299       9298  
      9167       9168       9179       9178       9288       9289       9300       9299  
      9168       9169       9180       9179       9289       9290       9301       9300  
      9169       9170       9181       9180       9290       9291       9302       9301  
      9170       9171       9182       9181       9291       9292       9303       9302  
      9171       9172       9183       9182       9292       9293       9304       9303  
      9172       9173       9184       9183       9293       9294       9305       9304  
      9173       9174       9185       9184       9294       9295       9306       9305  
      9175       9176       9187       9186       9296       9297       9308       9307  
      9176       9177       9188       9187       9297       9298       9309       9308  
      9177       9178       9189       9188       9298       9299       9310       9309  
      9178       9179       9190       9189       9299       9300       9311       9310  
      9179       9180       9191       9190       9300       9301       9312       9311  
      9180       9181       9192       9191       9301       9302       9313       9312  
      9181       9182       9193       9192       9302       9303       9314       9313  
      9182       9183       9194       9193       9303       9304       9315       9314  
      9183       9184       9195       9194       9304       9305       9316       9315  
      9184       9185       9196       9195       9305       9306       9317       9316  
      9197       9198       9209       9208       9318       9319       9330       9329  
      9198       9199       9210       9209       9319       9320       9331       9330  
      9199       9200       9211       9210       9320       9321       9332       9331  
      9200       9201       9212       9211       9321       9322       9333       9332  
      9201       9202       9213       9212       9322       9323       9334       9333  
      9202       9203       9214       9213       9323       9324       9335       9334  
      9203       9204       9215       9214       9324       9325       9336       9335  
      9204       9205       9216       9215       9325       9326       9337       9336  
      9205       9206       9217       9216       9326       9327       9338       9337  
      9206       9207       9218       9217       9327       9328       9339       9338  
      9208       9209       9220       9219       9329       9330       9341       9340  
      9209       9210       9221       9220       9330       9331       9342       9341  
      9210       9211       9222       9221       9331       9332       9343       9342  
      9211       9212       9223       9222       9332       9333       9344       9343  
      9212       9213       9224       9223       9333       9334       9345       9344  
      9213       9214       9225       9224       9334       9335       9346       9345  
      9214       9215       9226       9225       9335       9336       9347       9346  
      9215       9216       9227       9226       9336       9337       9348       9347  
      9216       9217       9228       9227       9337       9338       9349       9348  
      9217       9218       9229       9228       9338       9339       9350       9349  
      9219       9220       9231       9230       9340       9341       9352       9351  
      9220       9221       9232       9231       9341       9342       9353       9352  
      9221       9222       9233       9232       9342       9343       9354       9353  
      9222       9223       9234       9233       9343       9344       9355       9354  
      9223       9224       9235       9234       9344       9345       9356       9355  
      9224       9225       9236       9235       9345       9346       9357       9356  
      9225       9226       9237       9236       9346       9347       9358       9357  
      9226       9227       9238       9237       9347       9348       9359       9358  
      9227       9228       9239       9238       9348       9349       9360       9359  
      9228       9229       9240       9239       9349       9350       9361       9360  
      9230       9231       9242       9241       9351       9352       9363       9362  
      9231       9232       9243       9242       9352       9353       9364       9363  
      9232       9233       9244       9243       9353       9354       9365       9364  
      9233       9234       9245       9244       9354       9355       9366       9365  
      9234       9235       9246       9245       9355       9356       9367       9366  
      9235       9236       9247       9246       9356       9357       9368       9367  
      9236       9237       9248       9247       9357       9358       9369       9368  
      9237       9238       9249       9248       9358       9359       9370       9369  
      9238       9239       9250       9249       9359       9360       9371       9370  
      9239       9240       9251       9250       9360       9361       9372       9371  
      9241       9242       9253       9252       9362       9363       9374       9373  
      9242       9243       9254       9253       9363       9364       9375       9374  
      9243       9244       9255       9254       9364       9365       9376       9375  
      9244       9245       9256       9255       9365       9366       9377       9376  
      9245       9246       9257       9256       9366       9367       9378       9377  
      9246       9247       9258       9257       9367       9368       9379       9378  
      9247       9248       9259       9258       9368       9369       9380       9379  
      9248       9249       9260       9259       9369       9370       9381       9380  
      9249       9250       9261       9260       9370       9371       9382       9381  
      9250       9251       9262       9261       9371       9372       9383       9382  
      9252       9253       9264       9263       9373       9374       9385       9384  
      9253       9254       9265       9264       9374       9375       9386       9385  
      9254       9255       9266       9265       9375       9376       9387       9386  
      9255       9256       9267       9266       9376       9377       9388       9387  
      9256       9257       9268       9267       9377       9378       9389       9388  
      9257       9258       9269       9268       9378       9379       9390       9389  
      9258       9259       9270       9269       9379       9380       9391       9390  
      9259       9260       9271       9270       9380       9381       9392       9391  
      9260       9261       9272       9271       9381       9382       9393       9392  
      9261       9262       9273       9272       9382       9383       9394       9393  
      9263       9264       9275       9274       9384       9385       9396       9395  
      9264       9265       9276       9275       9385       9386       9397       9396  
      9265       9266       9277       9276       9386       9387       9398       9397  
      9266       9267       9278       9277       9387       9388       9399       9398  
      9267       9268       9279       9278       9388       9389       9400       9399  
      9268       9269       9280       9279       9389       9390       9401       9400  
      9269       9270       9281       9280       9390       9391       9402       9401  
      9270       9271       9282       9281       9391       9392       9403       9402  
      9271       9272       9283       9282       9392       9393       9404       9403  
      9272       9273       9284       9283       9393       9394       9405       9404  
      9274       9275       9286       9285       9395       9396       9407       9406  
      9275       9276       9287       9286       9396       9397       9408       9407  
      9276       9277       9288       9287       9397       9398       9409       9408  
      9277       9278       9289       9288       9398       9399       9410       9409  
      9278       9279       9290       9289       9399       9400       9411       9410  
      9279       9280       9291       9290       9400       9401       9412       9411  
      9280       9281       9292       9291       9401       9402       9413       9412  
      9281       9282       9293       9292       9402       9403       9414       9413  
      9282       9283       9294       9293       9403       9404       9415       9414  
      9283       9284       9295       9294       9404       9405       9416       9415  
      9285       9286       9297       9296       9406       9407       9418       9417  
      9286       9287       9298       9297       9407       9408       9419       9418  
      9287       9288       9299       9298       9408       9409       9420       9419  
      9288       9289       9300       9299       9409       9410       9421       9420  
      9289       9290       9301       9300       9410       9411       9422       9421  
      9290       9291       9302       9301       9411       9412       9423       9422  
      9291       9292       9303       9302       9412       9413       9424       9423  
      9292       9293       9304       9303       9413       9414       9425       9424  
      9293       9294       9305       9304       9414       9415       9426       9425  
      9294       9295       9306       9305       9415       9416       9427       9426  
      9296       9297       9308       9307       9417       9418       9429       9428  
      9297       9298       9309       9308       9418       9419       9430       9429  
      9298       9299       9310       9309       9419       9420       9431       9430  
      9299       9300       9311       9310       9420       9421       9432       9431  
      9300       9301       9312       9311       9421       9422       9433       9432  
      9301       9302       9313       9312       9422       9423       9434       9433  
      9302       9303       9314       9313       9423       9424       9435       9434  
      9303       9304       9315       9314       9424       9425       9436       9435  
      9304       9305       9316       9315       9425       9426       9437       9436  
      9305       9306       9317       9316       9426       9427       9438       9437  
      9318       9319       9330       9329       9439       9440       9451       9450  
      9319       9320       9331       9330       9440       9441       9452       9451  
      9320       9321       9332       9331       9441       9442       9453       9452  
      9321       9322       9333       9332       9442       9443       9454       9453  
      9322       9323       9334       9333       9443       9444       9455       9454  
      9323       9324       9335       9334       9444       9445       9456       9455  
      9324       9325       9336       9335       9445       9446       9457       9456  
      9325       9326       9337       9336       9446       9447       9458       9457  
      9326       9327       9338       9337       9447       9448       9459       9458  
      9327       9328       9339       9338       9448       9449       9460       9459  
      9329       9330       9341       9340       9450       9451       9462       9461  
      9330       9331       9342       9341       9451       9452       9463       9462  
      9331       9332       9343       9342       9452       9453       9464       9463  
      9332       9333       9344       9343       9453       9454       9465       9464  
      9333       9334       9345       9344       9454       9455       9466       9465  
      9334       9335       9346       9345       9455       9456       9467       9466  
      9335       9336       9347       9346       9456       9457       9468       9467  
      9336       9337       9348       9347       9457       9458       9469       9468  
      9337       9338       9349       9348       9458       9459       9470       9469  
      9338       9339       9350       9349       9459       9460       9471       9470  
      9340       9341       9352       9351       9461       9462       9473       9472  
      9341       9342       9353       9352       9462       9463       9474       9473  
      9342       9343       9354       9353       9463       9464       9475       9474  
      9343       9344       9355       9354       9464       9465       9476       9475  
      9344       9345       9356       9355       9465       9466       9477       9476  
      9345       9346       9357       9356       9466       9467       9478       9477  
      9346       9347       9358       9357       9467       9468       9479       9478  
      9347       9348       9359       9358       9468       9469       9480       9479  
      9348       9349       9360       9359       9469       9470       9481       9480  
      9349       9350       9361       9360       9470       9471       9482       9481  
      9351       9352       9363       9362       9472       9473       9484       9483  
      9352       9353       9364       9363       9473       9474       9485       9484  
      9353       9354       9365       9364       9474       9475       9486       9485  
      9354       9355       9366       9365       9475       9476       9487       9486  
      9355       9356       9367       9366       9476       9477       9488       9487  
      9356       9357       9368       9367       9477       9478       9489       9488  
      9357       9358       9369       9368       9478       9479       9490       9489  
      9358       9359       9370       9369       9479       9480       9491       9490  
      9359       9360       9371       9370       9480       9481       9492       9491  
      9360       9361       9372       9371       9481       9482       9493       9492  
      9362       9363       9374       9373       9483       9484       9495       9494  
      9363       9364       9375       9374       9484       9485       9496       9495  
      9364       9365       9376       9375       9485       9486       9497       9496  
      9365       9366       9377       9376       9486       9487       9498       9497  
      9366       9367       9378       9377       9487       9488       9499       9498  
      9367       9368       9379       9378       9488       9489       9500       9499  
      9368       9369       9380       9379       9489       9490       9501       9500  
      9369       9370       9381       9380       9490       9491       9502       9501  
      9370       9371       9382       9381       9491       9492       9503       9502  
      9371       9372       9383       9382       9492       9493       9504       9503  
      9373       9374       9385       9384       9494       9495       9506       9505  
      9374       9375       9386       9385       9495       9496       9507       9506  
      9375       9376       9387       9386       9496       9497       9508       9507  
      9376       9377       9388       9387       9497       9498       9509       9508  
      9377       9378       9389       9388       9498       9499       9510       9509  
      9378       9379       9390       9389       9499       9500       9511       9510  
      9379       9380       9391       9390       9500       9501       9512       9511  
      9380       9381       9392       9391       9501       9502       9513       9512  
      9381       9382       9393       9392       9502       9503       9514       9513  
      9382       9383       9394       9393       9503       9504       9515       9514  
      9384       9385       9396       9395       9505       9506       9517       9516  
      9385       9386       9397       9396       9506       9507       9518       9517  
      9386       9387       9398       9397       9507       9508       9519       9518  
      9387       9388       9399       9398       9508       9509       9520       9519  
      9388       9389       9400       9399       9509       9510       9521       9520  
      9389       9390       9401       9400       9510       9511       9522       9521  
      9390       9391       9402       9401       9511       9512       9523       9522  
      9391       9392       9403       9402       9512       9513       9524       9523  
      9392       9393       9404       9403       9513       9514       9525       9524  
      9393       9394       9405       9404       9514       9515       9526       9525  
      9395       9396       9407       9406       9516       9517       9528       9527  
      9396       9397       9408       9407       9517       9518       9529       9528  
      9397       9398       9409       9408       9518       9519       9530       9529  
      9398       9399       9410       9409       9519       9520       9531       9530  
      9399       9400       9411       9410       9520       9521       9532       9531  
      9400       9401       9412       9411       9521       9522       9533       9532  
      9401       9402       9413       9412       9522       9523       9534       9533  
      9402       9403       9414       9413       9523       9524       9535       9534  
      9403       9404       9415       9414       9524       9525       9536       9535  
      9404       9405       9416       9415       9525       9526       9537       9536  
      9406       9407       9418       9417       9527       9528       9539       9538  
      9407       9408       9419       9418       9528       9529       9540       9539  
      9408       9409       9420       9419       9529       9530       9541       9540  
      9409       9410       9421       9420       9530       9531       9542       9541  
      9410       9411       9422       9421       9531       9532       9543       9542  
      9411       9412       9423       9422       9532       9533       9544       9543  
      9412       9413       9424       9423       9533       9534       9545       9544  
      9413       9414       9425       9424       9534       9535       9546       9545  
      9414       9415       9426       9425       9535       9536       9547       9546  
      9415       9416       9427       9426       9536       9537       9548       9547  
      9417       9418       9429       9428       9538       9539       9550       9549  
      9418       9419       9430       9429       9539       9540       9551       9550  
      9419       9420       9431       9430       9540       9541       9552       9551  
      9420       9421       9432       9431       9541       9542       9553       9552  
      9421       9422       9433       9432       9542       9543       9554       9553  
      9422       9423       9434       9433       9543       9544       9555       9554  
      9423       9424       9435       9434       9544       9545       9556       9555  
      9424       9425       9436       9435       9545       9546       9557       9556  
      9425       9426       9437       9436       9546       9547       9558       9557  
      9426       9427       9438       9437       9547       9548       9559       9558  
      9439       9440       9451       9450       9560       9561       9572       9571  
      9440       9441       9452       9451       9561       9562       9573       9572  
      9441       9442       9453       9452       9562       9563       9574       9573  
      9442       9443       9454       9453       9563       9564       9575       9574  
      9443       9444       9455       9454       9564       9565       9576       9575  
      9444       9445       9456       9455       9565       9566       9577       9576  
      9445       9446       9457       9456       9566       9567       9578       9577  
      9446       9447       9458       9457       9567       9568       9579       9578  
      9447       9448       9459       9458       9568       9569       9580       9579  
      9448       9449       9460       9459       9569       9570       9581       9580  
      9450       9451       9462       9461       9571       9572       9583       9582  
      9451       9452       9463       9462       9572       9573       9584       9583  
      9452       9453       9464       9463       9573       9574       9585       9584  
      9453       9454       9465       9464       9574       9575       9586       9585  
      9454       9455       9466       9465       9575       9576       9587       9586  
      9455       9456       9467       9466       9576       9577       9588       9587  
      9456       9457       9468       9467       9577       9578       9589       9588  
      9457       9458       9469       9468       9578       9579       9590       9589  
      9458       9459       9470       9469       9579       9580       9591       9590  
      9459       9460       9471       9470       9580       9581       9592       9591  
      9461       9462       9473       9472       9582       9583       9594       9593  
      9462       9463       9474       9473       9583       9584       9595       9594  
      9463       9464       9475       9474       9584       9585       9596       9595  
      9464       9465       9476       9475       9585       9586       9597       9596  
      9465       9466       9477       9476       9586       9587       9598       9597  
      9466       9467       9478       9477       9587       9588       9599       9598  
      9467       9468       9479       9478       9588       9589       9600       9599  
      9468       9469       9480       9479       9589       9590       9601       9600  
      9469       9470       9481       9480       9590       9591       9602       9601  
      9470       9471       9482       9481       9591       9592       9603       9602  
      9472       9473       9484       9483       9593       9594       9605       9604  
      9473       9474       9485       9484       9594       9595       9606       9605  
      9474       9475       9486       9485       9595       9596       9607       9606  
      9475       9476       9487       9486       9596       9597       9608       9607  
      9476       9477       9488       9487       9597       9598       9609       9608  
      9477       9478       9489       9488       9598       9599       9610       9609  
      9478       9479       9490       9489       9599       9600       9611       9610  
      9479       9480       9491       9490       9600       9601       9612       9611  
      9480       9481       9492       9491       9601       9602       9613       9612  
      9481       9482       9493       9492       9602       9603       9614       9613  
      9483       9484       9495       9494       9604       9605       9616       9615  
      9484       9485       9496       9495       9605       9606       9617       9616  
      9485       9486       9497       9496       9606       9607       9618       9617  
      9486       9487       9498       9497       9607       9608       9619       9618  
      9487       9488       9499       9498       9608       9609       9620       9619  
      9488       9489       9500       9499       9609       9610       9621       9620  
      9489       9490       9501       9500       9610       9611       9622       9621  
      9490       9491       9502       9501       9611       9612       9623       9622  
      9491       9492       9503       9502       9612       9613       9624       9623  
      9492       9493       9504       9503       9613       9614       9625       9624  
      9494       9495       9506       9505       9615       9616       9627       9626  
      9495       9496       9507       9506       9616       9617       9628       9627  
      9496       9497       9508       9507       9617       9618       9629       9628  
      9497       9498       9509       9508       9618       9619       9630       9629  
      9498       9499       9510       9509       9619       9620       9631       9630  
      9499       9500       9511       9510       9620       9621       9632       9631  
      9500       9501       9512       9511       9621       9622       9633       9632  
      9501       9502       9513       9512       9622       9623       9634       9633  
      9502       9503       9514       9513       9623       9624       9635       9634  
      9503       9504       9515       9514       9624       9625       9636       9635  
      9505       9506       9517       9516       9626       9627       9638       9637  
      9506       9507       9518       9517       9627       9628       9639       9638  
      9507       9508       9519       9518       9628       9629       9640       9639  
      9508       9509       9520       9519       9629       9630       9641       9640  
      9509       9510       9521       9520       9630       9631       9642       9641  
      9510       9511       9522       9521       9631       9632       9643       9642  
      9511       9512       9523       9522       9632       9633       9644       9643  
      9512       9513       9524       9523       9633       9634       9645       9644  
      9513       9514       9525       9524       9634       9635       9646       9645  
      9514       9515       9526       9525       9635       9636       9647       9646  
      9516       9517       9528       9527       9637       9638       9649       9648  
      9517       9518       9529       9528       9638       9639       9650       9649  
      9518       9519       9530       9529       9639       9640       9651       9650  
      9519       9520       9531       9530       9640       9641       9652       9651  
      9520       9521       9532       9531       9641       9642       9653       9652  
      9521       9522       9533       9532       9642       9643       9654       9653  
      9522       9523       9534       9533       9643       9644       9655       9654  
      9523       9524       9535       9534       9644       9645       9656       9655  
      9524       9525       9536       9535       9645       9646       9657       9656  
      9525       9526       9537       9536       9646       9647       9658       9657  
      9527       9528       9539       9538       9648       9649       9660       9659  
      9528       9529       9540       9539       9649       9650       9661       9660  
      9529       9530       9541       9540       9650       9651       9662       9661  
      9530       9531       9542       9541       9651       9652       9663       9662  
      9531       9532       9543       9542       9652       9653       9664       9663  
      9532       9533       9544       9543       9653       9654       9665       9664  
      9533       9534       9545       9544       9654       9655       9666       9665  
      9534       9535       9546       9545       9655       9656       9667       9666  
      9535       9536       9547       9546       9656       9657       9668       9667  
      9536       9537       9548       9547       9657       9658       9669       9668  
      9538       9539       9550       9549       9659       9660       9671       9670  
      9539       9540       9551       9550       9660       9661       9672       9671  
      9540       9541       9552       9551       9661       9662       9673       9672  
      9541       9542       9553       9552       9662       9663       9674       9673  
      9542       9543       9554       9553       9663       9664       9675       9674  
      9543       9544       9555       9554       9664       9665       9676       9675  
      9544       9545       9556       9555       9665       9666       9677       9676  
      9545       9546       9557       9556       9666       9667       9678       9677  
      9546       9547       9558       9557       9667       9668       9679       9678  
      9547       9548       9559       9558       9668       9669       9680       9679  
      9560       9561       9572       9571       9681       9682       9693       9692  
      9561       9562       9573       9572       9682       9683       9694       9693  
      9562       9563       9574       9573       9683       9684       9695       9694  
      9563       9564       9575       9574       9684       9685       9696       9695  
      9564       9565       9576       9575       9685       9686       9697       9696  
      9565       9566       9577       9576       9686       9687       9698       9697  
      9566       9567       9578       9577       9687       9688       9699       9698  
      9567       9568       9579       9578       9688       9689       9700       9699  
      9568       9569       9580       9579       9689       9690       9701       9700  
      9569       9570       9581       9580       9690       9691       9702       9701  
      9571       9572       9583       9582       9692       9693       9704       9703  
      9572       9573       9584       9583       9693       9694       9705       9704  
      9573       9574       9585       9584       9694       9695       9706       9705  
      9574       9575       9586       9585       9695       9696       9707       9706  
      9575       9576       9587       9586       9696       9697       9708       9707  
      9576       9577       9588       9587       9697       9698       9709       9708  
      9577       9578       9589       9588       9698       9699       9710       9709  
      9578       9579       9590       9589       9699       9700       9711       9710  
      9579       9580       9591       9590       9700       9701       9712       9711  
      9580       9581       9592       9591       9701       9702       9713       9712  
      9582       9583       9594       9593       9703       9704       9715       9714  
      9583       9584       9595       9594       9704       9705       9716       9715  
      9584       9585       9596       9595       9705       9706       9717       9716  
      9585       9586       9597       9596       9706       9707       9718       9717  
      9586       9587       9598       9597       9707       9708       9719       9718  
      9587       9588       9599       9598       9708       9709       9720       9719  
      9588       9589       9600       9599       9709       9710       9721       9720  
      9589       9590       9601       9600       9710       9711       9722       9721  
      9590       9591       9602       9601       9711       9712       9723       9722  
      9591       9592       9603       9602       9712       9713       9724       9723  
      9593       9594       9605       9604       9714       9715       9726       9725  
      9594       9595       9606       9605       9715       9716       9727       9726  
      9595       9596       9607       9606       9716       9717       9728       9727  
      9596       9597       9608       9607       9717       9718       9729       9728  
      9597       9598       9609       9608       9718       9719       9730       9729  
      9598       9599       9610       9609       9719       9720       9731       9730  
      9599       9600       9611       9610       9720       9721       9732       9731  
      9600       9601       9612       9611       9721       9722       9733       9732  
      9601       9602       9613       9612       9722       9723       9734       9733  
      9602       9603       9614       9613       9723       9724       9735       9734  
      9604       9605       9616       9615       9725       9726       9737       9736  
      9605       9606       9617       9616       9726       9727       9738       9737  
      9606       9607       9618       9617       9727       9728       9739       9738  
      9607       9608       9619       9618       9728       9729       9740       9739  
      9608       9609       9620       9619       9729       9730       9741       9740  
      9609       9610       9621       9620       9730       9731       9742       9741  
      9610       9611       9622       9621       9731       9732       9743       9742  
      9611       9612       9623       9622       9732       9733       9744       9743  
      9612       9613       9624       9623       9733       9734       9745       9744  
      9613       9614       9625       9624       9734       9735       9746       9745  
      9615       9616       9627       9626       9736       9737       9748       9747  
      9616       9617       9628       9627       9737       9738       9749       9748  
      9617       9618       9629       9628       9738       9739       9750       9749  
      9618       9619       9630       9629       9739       9740       9751       9750  
      9619       9620       9631       9630       9740       9741       9752       9751  
      9620       9621       9632       9631       9741       9742       9753       9752  
      9621       9622       9633       9632       9742       9743       9754       9753  
      9622       9623       9634       9633       9743       9744       9755       9754  
      9623       9624       9635       9634       9744       9745       9756       9755  
      9624       9625       9636       9635       9745       9746       9757       9756  
      9626       9627       9638       9637       9747       9748       9759       9758  
      9627       9628       9639       9638       9748       9749       9760       9759  
      9628       9629       9640       9639       9749       9750       9761       9760  
      9629       9630       9641       9640       9750       9751       9762       9761  
      9630       9631       9642       9641       9751       9752       9763       9762  
      9631       9632       9643       9642       9752       9753       9764       9763  
      9632       9633       9644       9643       9753       9754       9765       9764  
      9633       9634       9645       9644       9754       9755       9766       9765  
      9634       9635       9646       9645       9755       9756       9767       9766  
      9635       9636       9647       9646       9756       9757       9768       9767  
      9637       9638       9649       9648       9758       9759       9770       9769  
      9638       9639       9650       9649       9759       9760       9771       9770  
      9639       9640       9651       9650       9760       9761       9772       9771  
      9640       9641       9652       9651       9761       9762       9773       9772  
      9641       9642       9653       9652       9762       9763       9774       9773  
      9642       9643       9654       9653       9763       9764       9775       9774  
      9643       9644       9655       9654       9764       9765       9776       9775  
      9644       9645       9656       9655       9765       9766       9777       9776  
      9645       9646       9657       9656       9766       9767       9778       9777  
      9646       9647       9658       9657       9767       9768       9779       9778  
      9648       9649       9660       9659       9769       9770       9781       9780  
      9649       9650       9661       9660       9770       9771       9782       9781  
      9650       9651       9662       9661       9771       9772       9783       9782  
      9651       9652       9663       9662       9772       9773       9784       9783  
      9652       9653       9664       9663       9773       9774       9785       9784  
      9653       9654       9665       9664       9774       9775       9786       9785  
      9654       9655       9666       9665       9775       9776       9787       9786  
      9655       9656       9667       9666       9776       9777       9788       9787  
      9656       9657       9668       9667       9777       9778       9789       9788  
      9657       9658       9669       9668       9778       9779       9790       9789  
      9659       9660       9671       9670       9780       9781       9792       9791  
      9660       9661       9672       9671       9781       9782       9793       9792  
      9661       9662       9673       9672       9782       9783       9794       9793  
      9662       9663       9674       9673       9783       9784       9795       9794  
      9663       9664       9675       9674       9784       9785       9796       9795  
      9664       9665       9676       9675       9785       9786       9797       9796  
      9665       9666       9677       9676       9786       9787       9798       9797  
      9666       9667       9678       9677       9787       9788       9799       9798  
      9667       9668       9679       9678       9788       9789       9800       9799  
      9668       9669       9680       9679       9789       9790       9801       9800  
      9681       9682       9693       9692       9802       9803       9814       9813  
      9682       9683       9694       9693       9803       9804       9815       9814  
      9683       9684       9695       9694       9804       9805       9816       9815  
      9684       9685       9696       9695       9805       9806       9817       9816  
      9685       9686       9697       9696       9806       9807       9818       9817  
      9686       9687       9698       9697       9807       9808       9819       9818  
      9687       9688       9699       9698       9808       9809       9820       9819  
      9688       9689       9700       9699       9809       9810       9821       9820  
      9689       9690       9701       9700       9810       9811       9822       9821  
      9690       9691       9702       9701       9811       9812       9823       9822  
      9692       9693       9704       9703       9813       9814       9825       9824  
      9693       9694       9705       9704       9814       9815       9826       9825  
      9694       9695       9706       9705       9815       9816       9827       9826  
      9695       9696       9707       9706       9816       9817       9828       9827  
      9696       9697       9708       9707       9817       9818       9829       9828  
      9697       9698       9709       9708       9818       9819       9830       9829  
      9698       9699       9710       9709       9819       9820       9831       9830  
      9699       9700       9711       9710       9820       9821       9832       9831  
      9700       9701       9712       9711       9821       9822       9833       9832  
      9701       9702       9713       9712       9822       9823       9834       9833  
      9703       9704       9715       9714       9824       9825       9836       9835  
      9704       9705       9716       9715       9825       9826       9837       9836  
      9705       9706       9717       9716       9826       9827       9838       9837  
      9706       9707       9718       9717       9827       9828       9839       9838  
      9707       9708       9719       9718       9828       9829       9840       9839  
      9708       9709       9720       9719       9829       9830       9841       9840  
      9709       9710       9721       9720       9830       9831       9842       9841  
      9710       9711       9722       9721       9831       9832       9843       9842  
      9711       9712       9723       9722       9832       9833       9844       9843  
      9712       9713       9724       9723       9833       9834       9845       9844  
      9714       9715       9726       9725       9835       9836       9847       9846  
      9715       9716       9727       9726       9836       9837       9848       9847  
      9716       9717       9728       9727       9837       9838       9849       9848  
      9717       9718       9729       9728       9838       9839       9850       9849  
      9718       9719       9730       9729       9839       9840       9851       9850  
      9719       9720       9731       9730       9840       9841       9852       9851  
      9720       9721       9732       9731       9841       9842       9853       9852  
      9721       9722       9733       9732       9842       9843       9854       9853  
      9722       9723       9734       9733       9843       9844       9855       9854  
      9723       9724       9735       9734       9844       9845       9856       9855  
      9725       9726       9737       9736       9846       9847       9858       9857  
      9726       9727       9738       9737       9847       9848       9859       9858  
      9727       9728       9739       9738       9848       9849       9860       9859  
      9728       9729       9740       9739       9849       9850       9861       9860  
      9729       9730       9741       9740       9850       9851       9862       9861  
      9730       9731       9742       9741       9851       9852       9863       9862  
      9731       9732       9743       9742       9852       9853       9864       9863  
      9732       9733       9744       9743       9853       9854       9865       9864  
      9733       9734       9745       9744       9854       9855       9866       9865  
      9734       9735       9746       9745       9855       9856       9867       9866  
      9736       9737       9748       9747       9857       9858       9869       9868  
      9737       9738       9749       9748       9858       9859       9870       9869  
      9738       9739       9750       9749       9859       9860       9871       9870  
      9739       9740       9751       9750       9860       9861       9872       9871  
      9740       9741       9752       9751       9861       9862       9873       9872  
      9741       9742       9753       9752       9862       9863       9874       9873  
      9742       9743       9754       9753       9863       9864       9875       9874  
      9743       9744       9755       9754       9864       9865       9876       9875  
      9744       9745       9756       9755       9865       9866       9877       9876  
      9745       9746       9757       9756       9866       9867       9878       9877  
      9747       9748       9759       9758       9868       9869       9880       9879  
      9748       9749       9760       9759       9869       9870       9881       9880  
      9749       9750       9761       9760       9870       9871       9882       9881  
      9750       9751       9762       9761       9871       9872       9883       9882  
      9751       9752       9763       9762       9872       9873       9884       9883  
      9752       9753       9764       9763       9873       9874       9885       9884  
      9753       9754       9765       9764       9874       9875       9886       9885  
      9754       9755       9766       9765       9875       9876       9887       9886  
      9755       9756       9767       9766       9876       9877       9888       9887  
      9756       9757       9768       9767       9877       9878       9889       9888  
      9758       9759       9770       9769       9879       9880       9891       9890  
      9759       9760       9771       9770       9880       9881       9892       9891  
      9760       9761       9772       9771       9881       9882       9893       9892  
      9761       9762       9773       9772       9882       9883       9894       9893  
      9762       9763       9774       9773       9883       9884       9895       9894  
      9763       9764       9775       9774       9884       9885       9896       9895  
      9764       9765       9776       9775       9885       9886       9897       9896  
      9765       9766       9777       9776       9886       9887       9898       9897  
      9766       9767       9778       9777       9887       9888       9899       9898  
      9767       9768       9779       9778       9888       9889       9900       9899  
      9769       9770       9781       9780       9890       9891       9902       9901  
      9770       9771       9782       9781       9891       9892       9903       9902  
      9771       9772       9783       9782       9892       9893       9904       9903  
      9772       9773       9784       9783       9893       9894       9905       9904  
      9773       9774       9785       9784       9894       9895       9906       9905  
      9774       9775       9786       9785       9895       9896       9907       9906  
      9775       9776       9787       9786       9896       9897       9908       9907  
      9776       9777       9788       9787       9897       9898       9909       9908  
      9777       9778       9789       9788       9898       9899       9910       9909  
      9778       9779       9790       9789       9899       9900       9911       9910  
      9780       9781       9792       9791       9901       9902       9913       9912  
      9781       9782       9793       9792       9902       9903       9914       9913  
      9782       9783       9794       9793       9903       9904       9915       9914  
      9783       9784       9795       9794       9904       9905       9916       9915  
      9784       9785       9796       9795       9905       9906       9917       9916  
      9785       9786       9797       9796       9906       9907       9918       9917  
      9786       9787       9798       9797       9907       9908       9919       9918  
      9787       9788       9799       9798       9908       9909       9920       9919  
      9788       9789       9800       9799       9909       9910       9921       9920  
      9789       9790       9801       9800       9910       9911       9922       9921  
      9802       9803       9814       9813       9923       9924       9935       9934  
      9803       9804       9815       9814       9924       9925       9936       9935  
      9804       9805       9816       9815       9925       9926       9937       9936  
      9805       9806       9817       9816       9926       9927       9938       9937  
      9806       9807       9818       9817       9927       9928       9939       9938  
      9807       9808       9819       9818       9928       9929       9940       9939  
      9808       9809       9820       9819       9929       9930       9941       9940  
      9809       9810       9821       9820       9930       9931       9942       9941  
      9810       9811       9822       9821       9931       9932       9943       9942  
      9811       9812       9823       9822       9932       9933       9944       9943  
      9813       9814       9825       9824       9934       9935       9946       9945  
      9814       9815       9826       9825       9935       9936       9947       9946  
      9815       9816       9827       9826       9936       9937       9948       9947  
      9816       9817       9828       9827       9937       9938       9949       9948  
      9817       9818       9829       9828       9938       9939       9950       9949  
      9818       9819       9830       9829       9939       9940       9951       9950  
      9819       9820       9831       9830       9940       9941       9952       9951  
      9820       9821       9832       9831       9941       9942       9953       9952  
      9821       9822       9833       9832       9942       9943       9954       9953  
      9822       9823       9834       9833       9943       9944       9955       9954  
      9824       9825       9836       9835       9945       9946       9957       9956  
      9825       9826       9837       9836       9946       9947       9958       9957  
      9826       9827       9838       9837       9947       9948       9959       9958  
      9827       9828       9839       9838       9948       9949       9960       9959  
      9828       9829       9840       9839       9949       9950       9961       9960  
      9829       9830       9841       9840       9950       9951       9962       9961  
      9830       9831       9842       9841       9951       9952       9963       9962  
      9831       9832       9843       9842       9952       9953       9964       9963  
      9832       9833       9844       9843       9953       9954       9965       9964  
      9833       9834       9845       9844       9954       9955       9966       9965  
      9835       9836       9847       9846       9956       9957       9968       9967  
      9836       9837       9848       9847       9957       9958       9969       9968  
      9837       9838       9849       9848       9958       9959       9970       9969  
      9838       9839       9850       9849       9959       9960       9971       9970  
      9839       9840       9851       9850       9960       9961       9972       9971  
      9840       9841       9852       9851       9961       9962       9973       9972  
      9841       9842       9853       9852       9962       9963       9974       9973  
      9842       9843       9854       9853       9963       9964       9975       9974  
      9843       9844       9855       9854       9964       9965       9976       9975  
      9844       9845       9856       9855       9965       9966       9977       9976  
      9846       9847       9858       9857       9967       9968       9979       9978  
      9847       9848       9859       9858       9968       9969       9980       9979  
      9848       9849       9860       9859       9969       9970       9981       9980  
      9849       9850       9861       9860       9970       9971       9982       9981  
      9850       9851       9862       9861       9971       9972       9983       9982  
      9851       9852       9863       9862       9972       9973       9984       9983  
      9852       9853       9864       9863       9973       9974       9985       9984  
      9853       9854       9865       9864       9974       9975       9986       9985  
      9854       9855       9866       9865       9975       9976       9987       9986  
      9855       9856       9867       9866       9976       9977       9988       9987  
      9857       9858       9869       9868       9978       9979       9990       9989  
      9858       9859       9870       9869       9979       9980       9991       9990  
      9859       9860       9871       9870       9980       9981       9992       9991  
      9860       9861       9872       9871       9981       9982       9993       9992  
      9861       9862       9873       9872       9982       9983       9994       9993  
      9862       9863       9874       9873       9983       9984       9995       9994  
      9863       9864       9875       9874       9984       9985       9996       9995  
      9864       9865       9876       9875       9985       9986       9997       9996  
      9865       9866       9877       9876       9986       9987       9998       9997  
      9866       9867       9878       9877       9987       9988       9999       9998  
      9868       9869       9880       9879       9989       9990      10001      10000  
      9869       9870       9881       9880       9990       9991      10002      10001  
      9870       9871       9882       9881       9991       9992      10003      10002  
      9871       9872       9883       9882       9992       9993      10004      10003  
      9872       9873       9884       9883       9993       9994      10005      10004  
      9873       9874       9885       9884       9994       9995      10006      10005  
      9874       9875       9886       9885       9995       9996      10007      10006  
      9875       9876       9887       9886       9996       9997      10008      10007  
      9876       9877       9888       9887       9997       9998      10009      10008  
      9877       9878       9889       9888       9998       9999      10010      10009  
      9879       9880       9891       9890      10000      10001      10012      10011  
      9880       9881       9892       9891      10001      10002      10013      10012  
      9881       9882       9893       9892      10002      10003      10014      10013  
      9882       9883       9894       9893      10003      10004      10015      10014  
      9883       9884       9895       9894      10004      10005      10016      10015  
      9884       9885       9896       9895      10005      10006      10017      10016  
      9885       9886       9897       9896      10006      10007      10018      10017  
      9886       9887       9898       9897      10007      10008      10019      10018  
      9887       9888       9899       9898      10008      10009      10020      10019  
      9888       9889       9900       9899      10009      10010      10021      10020  
      9890       9891       9902       9901      10011      10012      10023      10022  
      9891       9892       9903       9902      10012      10013      10024      10023  
      9892       9893       9904       9903      10013      10014      10025      10024  
      9893       9894       9905       9904      10014      10015      10026      10025  
      9894       9895       9906       9905      10015      10016      10027      10026  
      9895       9896       9907       9906      10016      10017      10028      10027  
      9896       9897       9908       9907      10017      10018      10029      10028  
      9897       9898       9909       9908      10018      10019      10030      10029  
      9898       9899       9910       9909      10019      10020      10031      10030  
      9899       9900       9911       9910      10020      10021      10032      10031  
      9901       9902       9913       9912      10022      10023      10034      10033  
      9902       9903       9914       9913      10023      10024      10035      10034  
      9903       9904       9915       9914      10024      10025      10036      10035  
      9904       9905       9916       9915      10025      10026      10037      10036  
      9905       9906       9917       9916      10026      10027      10038      10037  
      9906       9907       9918       9917      10027      10028      10039      10038  
      9907       9908       9919       9918      10028      10029      10040      10039  
      9908       9909       9920       9919      10029      10030      10041      10040  
      9909       9910       9921       9920      10030      10031      10042      10041  
      9910       9911       9922       9921      10031      10032      10043      10042  
      9923       9924       9935       9934      10044      10045      10056      10055  
      9924       9925       9936       9935      10045      10046      10057      10056  
      9925       9926       9937       9936      10046      10047      10058      10057  
      9926       9927       9938       9937      10047      10048      10059      10058  
      9927       9928       9939       9938      10048      10049      10060      10059  
      9928       9929       9940       9939      10049      10050      10061      10060  
      9929       9930       9941       9940      10050      10051      10062      10061  
      9930       9931       9942       9941      10051      10052      10063      10062  
      9931       9932       9943       9942      10052      10053      10064      10063  
      9932       9933       9944       9943      10053      10054      10065      10064  
      9934       9935       9946       9945      10055      10056      10067      10066  
      9935       9936       9947       9946      10056      10057      10068      10067  
      9936       9937       9948       9947      10057      10058      10069      10068  
      9937       9938       9949       9948      10058      10059      10070      10069  
      9938       9939       9950       9949      10059      10060      10071      10070  
      9939       9940       9951       9950      10060      10061      10072      10071  
      9940       9941       9952       9951      10061      10062      10073      10072  
      9941       9942       9953       9952      10062      10063      10074      10073  
      9942       9943       9954       9953      10063      10064      10075      10074  
      9943       9944       9955       9954      10064      10065      10076      10075  
      9945       9946       9957       9956      10066      10067      10078      10077  
      9946       9947       9958       9957      10067      10068      10079      10078  
      9947       9948       9959       9958      10068      10069      10080      10079  
      9948       9949       9960       9959      10069      10070      10081      10080  
      9949       9950       9961       9960      10070      10071      10082      10081  
      9950       9951       9962       9961      10071      10072      10083      10082  
      9951       9952       9963       9962      10072      10073      10084      10083  
      9952       9953       9964       9963      10073      10074      10085      10084  
      9953       9954       9965       9964      10074      10075      10086      10085  
      9954       9955       9966       9965      10075      10076      10087      10086  
      9956       9957       9968       9967      10077      10078      10089      10088  
      9957       9958       9969       9968      10078      10079      10090      10089  
      9958       9959       9970       9969      10079      10080      10091      10090  
      9959       9960       9971       9970      10080      10081      10092      10091  
      9960       9961       9972       9971      10081      10082      10093      10092  
      9961       9962       9973       9972      10082      10083      10094      10093  
      9962       9963       9974       9973      10083      10084      10095      10094  
      9963       9964       9975       9974      10084      10085      10096      10095  
      9964       9965       9976       9975      10085      10086      10097      10096  
      9965       9966       9977       9976      10086      10087      10098      10097  
      9967       9968       9979       9978      10088      10089      10100      10099  
      9968       9969       9980       9979      10089      10090      10101      10100  
      9969       9970       9981       9980      10090      10091      10102      10101  
      9970       9971       9982       9981      10091      10092      10103      10102  
      9971       9972       9983       9982      10092      10093      10104      10103  
      9972       9973       9984       9983      10093      10094      10105      10104  
      9973       9974       9985       9984      10094      10095      10106      10105  
      9974       9975       9986       9985      10095      10096      10107      10106  
      9975       9976       9987       9986      10096      10097      10108      10107  
      9976       9977       9988       9987      10097      10098      10109      10108  
      9978       9979       9990       9989      10099      10100      10111      10110  
      9979       9980       9991       9990      10100      10101      10112      10111  
      9980       9981       9992       9991      10101      10102      10113      10112  
      9981       9982       9993       9992      10102      10103      10114      10113  
      9982       9983       9994       9993      10103      10104      10115      10114  
      9983       9984       9995       9994      10104      10105      10116      10115  
      9984       9985       9996       9995      10105      10106      10117      10116  
      9985       9986       9997       9996      10106      10107      10118      10117  
      9986       9987       9998       9997      10107      10108      10119      10118  
      9987       9988       9999       9998      10108      10109      10120      10119  
      9989       9990      10001      10000      10110      10111      10122      10121  
      9990       9991      10002      10001      10111      10112      10123      10122  
      9991       9992      10003      10002      10112      10113      10124      10123  
      9992       9993      10004      10003      10113      10114      10125      10124  
      9993       9994      10005      10004      10114      10115      10126      10125  
      9994       9995      10006      10005      10115      10116      10127      10126  
      9995       9996      10007      10006      10116      10117      10128      10127  
      9996       9997      10008      10007      10117      10118      10129      10128  
      9997       9998      10009      10008      10118      10119      10130      10129  
      9998       9999      10010      10009      10119      10120      10131      10130  
     10000      10001      10012      10011      10121      10122      10133      10132  
     10001      10002      10013      10012      10122      10123      10134      10133  
     10002      10003      10014      10013      10123      10124      10135      10134  
     10003      10004      10015      10014      10124      10125      10136      10135  
     10004      10005      10016      10015      10125      10126      10137      10136  
     10005      10006      10017      10016      10126      10127      10138      10137  
     10006      10007      10018      10017      10127      10128      10139      10138  
     10007      10008      10019      10018      10128      10129      10140      10139  
     10008      10009      10020      10019      10129      10130      10141      10140  
     10009      10010      10021      10020      10130      10131      10142      10141  
     10011      10012      10023      10022      10132      10133      10144      10143  
     10012      10013      10024      10023      10133      10134      10145      10144  
     10013      10014      10025      10024      10134      10135      10146      10145  
     10014      10015      10026      10025      10135      10136      10147      10146  
     10015      10016      10027      10026      10136      10137      10148      10147  
     10016      10017      10028      10027      10137      10138      10149      10148  
     10017      10018      10029      10028      10138      10139      10150      10149  
     10018      10019      10030      10029      10139      10140      10151      10150  
     10019      10020      10031      10030      10140      10141      10152      10151  
     10020      10021      10032      10031      10141      10142      10153      10152  
     10022      10023      10034      10033      10143      10144      10155      10154  
     10023      10024      10035      10034      10144      10145      10156      10155  
     10024      10025      10036      10035      10145      10146      10157      10156  
     10025      10026      10037      10036      10146      10147      10158      10157  
     10026      10027      10038      10037      10147      10148      10159      10158  
     10027      10028      10039      10038      10148      10149      10160      10159  
     10028      10029      10040      10039      10149      10150      10161      10160  
     10029      10030      10041      10040      10150      10151      10162      10161  
     10030      10031      10042      10041      10151      10152      10163      10162  
     10031      10032      10043      10042      10152      10153      10164      10163  
     10044      10045      10056      10055      10165      10166      10177      10176  
     10045      10046      10057      10056      10166      10167      10178      10177  
     10046      10047      10058      10057      10167      10168      10179      10178  
     10047      10048      10059      10058      10168      10169      10180      10179  
     10048      10049      10060      10059      10169      10170      10181      10180  
     10049      10050      10061      10060      10170      10171      10182      10181  
     10050      10051      10062      10061      10171      10172      10183      10182  
     10051      10052      10063      10062      10172      10173      10184      10183  
     10052      10053      10064      10063      10173      10174      10185      10184  
     10053      10054      10065      10064      10174      10175      10186      10185  
     10055      10056      10067      10066      10176      10177      10188      10187  
     10056      10057      10068      10067      10177      10178      10189      10188  
     10057      10058      10069      10068      10178      10179      10190      10189  
     10058      10059      10070      10069      10179      10180      10191      10190  
     10059      10060      10071      10070      10180      10181      10192      10191  
     10060      10061      10072      10071      10181      10182      10193      10192  
     10061      10062      10073      10072      10182      10183      10194      10193  
     10062      10063      10074      10073      10183      10184      10195      10194  
     10063      10064      10075      10074      10184      10185      10196      10195  
     10064      10065      10076      10075      10185      10186      10197      10196  
     10066      10067      10078      10077      10187      10188      10199      10198  
     10067      10068      10079      10078      10188      10189      10200      10199  
     10068      10069      10080      10079      10189      10190      10201      10200  
     10069      10070      10081      10080      10190      10191      10202      10201  
     10070      10071      10082      10081      10191      10192      10203      10202  
     10071      10072      10083      10082      10192      10193      10204      10203  
     10072      10073      10084      10083      10193      10194      10205      10204  
     10073      10074      10085      10084      10194      10195      10206      10205  
     10074      10075      10086      10085      10195      10196      10207      10206  
     10075      10076      10087      10086      10196      10197      10208      10207  
     10077      10078      10089      10088      10198      10199      10210      10209  
     10078      10079      10090      10089      10199      10200      10211      10210  
     10079      10080      10091      10090      10200      10201      10212      10211  
     10080      10081      10092      10091      10201      10202      10213      10212  
     10081      10082      10093      10092      10202      10203      10214      10213  
     10082      10083      10094      10093      10203      10204      10215      10214  
     10083      10084      10095      10094      10204      10205      10216      10215  
     10084      10085      10096      10095      10205      10206      10217      10216  
     10085      10086      10097      10096      10206      10207      10218      10217  
     10086      10087      10098      10097      10207      10208      10219      10218  
     10088      10089      10100      10099      10209      10210      10221      10220  
     10089      10090      10101      10100      10210      10211      10222      10221  
     10090      10091      10102      10101      10211      10212      10223      10222  
     10091      10092      10103      10102      10212      10213      10224      10223  
     10092      10093      10104      10103      10213      10214      10225      10224  
     10093      10094      10105      10104      10214      10215      10226      10225  
     10094      10095      10106      10105      10215      10216      10227      10226  
     10095      10096      10107      10106      10216      10217      10228      10227  
     10096      10097      10108      10107      10217      10218      10229      10228  
     10097      10098      10109      10108      10218      10219      10230      10229  
     10099      10100      10111      10110      10220      10221      10232      10231  
     10100      10101      10112      10111      10221      10222      10233      10232  
     10101      10102      10113      10112      10222      10223      10234      10233  
     10102      10103      10114      10113      10223      10224      10235      10234  
     10103      10104      10115      10114      10224      10225      10236      10235  
     10104      10105      10116      10115      10225      10226      10237      10236  
     10105      10106      10117      10116      10226      10227      10238      10237  
     10106      10107      10118      10117      10227      10228      10239      10238  
     10107      10108      10119      10118      10228      10229      10240      10239  
     10108      10109      10120      10119      10229      10230      10241      10240  
     10110      10111      10122      10121      10231      10232      10243      10242  
     10111      10112      10123      10122      10232      10233      10244      10243  
     10112      10113      10124      10123      10233      10234      10245      10244  
     10113      10114      10125      10124      10234      10235      10246      10245  
     10114      10115      10126      10125      10235      10236      10247      10246  
     10115      10116      10127      10126      10236      10237      10248      10247  
     10116      10117      10128      10127      10237      10238      10249      10248  
     10117      10118      10129      10128      10238      10239      10250      10249  
     10118      10119      10130      10129      10239      10240      10251      10250  
     10119      10120      10131      10130      10240      10241      10252      10251  
     10121      10122      10133      10132      10242      10243      10254      10253  
     10122      10123      10134      10133      10243      10244      10255      10254  
     10123      10124      10135      10134      10244      10245      10256      10255  
     10124      10125      10136      10135      10245      10246      10257      10256  
     10125      10126      10137      10136      10246      10247      10258      10257  
     10126      10127      10138      10137      10247      10248      10259      10258  
     10127      10128      10139      10138      10248      10249      10260      10259  
     10128      10129      10140      10139      10249      10250      10261      10260  
     10129      10130      10141      10140      10250      10251      10262      10261  
     10130      10131      10142      10141      10251      10252      10263      10262  
     10132      10133      10144      10143      10253      10254      10265      10264  
     10133      10134      10145      10144      10254      10255      10266      10265  
     10134      10135      10146      10145      10255      10256      10267      10266  
     10135      10136      10147      10146      10256      10257      10268      10267  
     10136      10137      10148      10147      10257      10258      10269      10268  
     10137      10138      10149      10148      10258      10259      10270      10269  
     10138      10139      10150      10149      10259      10260      10271      10270  
     10139      10140      10151      10150      10260      10261      10272      10271  
     10140      10141      10152      10151      10261      10262      10273      10272  
     10141      10142      10153      10152      10262      10263      10274      10273  
     10143      10144      10155      10154      10264      10265      10276      10275  
     10144      10145      10156      10155      10265      10266      10277      10276  
     10145      10146      10157      10156      10266      10267      10278      10277  
     10146      10147      10158      10157      10267      10268      10279      10278  
     10147      10148      10159      10158      10268      10269      10280      10279  
     10148      10149      10160      10159      10269      10270      10281      10280  
     10149      10150      10161      10160      10270      10271      10282      10281  
     10150      10151      10162      10161      10271      10272      10283      10282  
     10151      10152      10163      10162      10272      10273      10284      10283  
     10152      10153      10164      10163      10273      10274      10285      10284  
     10165      10166      10177      10176      10286      10287      10298      10297  
     10166      10167      10178      10177      10287      10288      10299      10298  
     10167      10168      10179      10178      10288      10289      10300      10299  
     10168      10169      10180      10179      10289      10290      10301      10300  
     10169      10170      10181      10180      10290      10291      10302      10301  
     10170      10171      10182      10181      10291      10292      10303      10302  
     10171      10172      10183      10182      10292      10293      10304      10303  
     10172      10173      10184      10183      10293      10294      10305      10304  
     10173      10174      10185      10184      10294      10295      10306      10305  
     10174      10175      10186      10185      10295      10296      10307      10306  
     10176      10177      10188      10187      10297      10298      10309      10308  
     10177      10178      10189      10188      10298      10299      10310      10309  
     10178      10179      10190      10189      10299      10300      10311      10310  
     10179      10180      10191      10190      10300      10301      10312      10311  
     10180      10181      10192      10191      10301      10302      10313      10312  
     10181      10182      10193      10192      10302      10303      10314      10313  
     10182      10183      10194      10193      10303      10304      10315      10314  
     10183      10184      10195      10194      10304      10305      10316      10315  
     10184      10185      10196      10195      10305      10306      10317      10316  
     10185      10186      10197      10196      10306      10307      10318      10317  
     10187      10188      10199      10198      10308      10309      10320      10319  
     10188      10189      10200      10199      10309      10310      10321      10320  
     10189      10190      10201      10200      10310      10311      10322      10321  
     10190      10191      10202      10201      10311      10312      10323      10322  
     10191      10192      10203      10202      10312      10313      10324      10323  
     10192      10193      10204      10203      10313      10314      10325      10324  
     10193      10194      10205      10204      10314      10315      10326      10325  
     10194      10195      10206      10205      10315      10316      10327      10326  
     10195      10196      10207      10206      10316      10317      10328      10327  
     10196      10197      10208      10207      10317      10318      10329      10328  
     10198      10199      10210      10209      10319      10320      10331      10330  
     10199      10200      10211      10210      10320      10321      10332      10331  
     10200      10201      10212      10211      10321      10322      10333      10332  
     10201      10202      10213      10212      10322      10323      10334      10333  
     10202      10203      10214      10213      10323      10324      10335      10334  
     10203      10204      10215      10214      10324      10325      10336      10335  
     10204      10205      10216      10215      10325      10326      10337      10336  
     10205      10206      10217      10216      10326      10327      10338      10337  
     10206      10207      10218      10217      10327      10328      10339      10338  
     10207      10208      10219      10218      10328      10329      10340      10339  
     10209      10210      10221      10220      10330      10331      10342      10341  
     10210      10211      10222      10221      10331      10332      10343      10342  
     10211      10212      10223      10222      10332      10333      10344      10343  
     10212      10213      10224      10223      10333      10334      10345      10344  
     10213      10214      10225      10224      10334      10335      10346      10345  
     10214      10215      10226      10225      10335      10336      10347      10346  
     10215      10216      10227      10226      10336      10337      10348      10347  
     10216      10217      10228      10227      10337      10338      10349      10348  
     10217      10218      10229      10228      10338      10339      10350      10349  
     10218      10219      10230      10229      10339      10340      10351      10350  
     10220      10221      10232      10231      10341      10342      10353      10352  
     10221      10222      10233      10232      10342      10343      10354      10353  
     10222      10223      10234      10233      10343      10344      10355      10354  
     10223      10224      10235      10234      10344      10345      10356      10355  
     10224      10225      10236      10235      10345      10346      10357      10356  
     10225      10226      10237      10236      10346      10347      10358      10357  
     10226      10227      10238      10237      10347      10348      10359      10358  
     10227      10228      10239      10238      10348      10349      10360      10359  
     10228      10229      10240      10239      10349      10350      10361      10360  
     10229      10230      10241      10240      10350      10351      10362      10361  
     10231      10232      10243      10242      10352      10353      10364      10363  
     10232      10233      10244      10243      10353      10354      10365      10364  
     10233      10234      10245      10244      10354      10355      10366      10365  
     10234      10235      10246      10245      10355      10356      10367      10366  
     10235      10236      10247      10246      10356      10357      10368      10367  
     10236      10237      10248      10247      10357      10358      10369      10368  
     10237      10238      10249      10248      10358      10359      10370      10369  
     10238      10239      10250      10249      10359      10360      10371      10370  
     10239      10240      10251      10250      10360      10361      10372      10371  
     10240      10241      10252      10251      10361      10362      10373      10372  
     10242      10243      10254      10253      10363      10364      10375      10374  
     10243      10244      10255      10254      10364      10365      10376      10375  
     10244      10245      10256      10255      10365      10366      10377      10376  
     10245      10246      10257      10256      10366      10367      10378      10377  
     10246      10247      10258      10257      10367      10368      10379      10378  
     10247      10248      10259      10258      10368      10369      10380      10379  
     10248      10249      10260      10259      10369      10370      10381      10380  
     10249      10250      10261      10260      10370      10371      10382      10381  
     10250      10251      10262      10261      10371      10372      10383      10382  
     10251      10252      10263      10262      10372      10373      10384      10383  
     10253      10254      10265      10264      10374      10375      10386      10385  
     10254      10255      10266      10265      10375      10376      10387      10386  
     10255      10256      10267      10266      10376      10377      10388      10387  
     10256      10257      10268      10267      10377      10378      10389      10388  
     10257      10258      10269      10268      10378      10379      10390      10389  
     10258      10259      10270      10269      10379      10380      10391      10390  
     10259      10260      10271      10270      10380      10381      10392      10391  
     10260      10261      10272      10271      10381      10382      10393      10392  
     10261      10262      10273      10272      10382      10383      10394      10393  
     10262      10263      10274      10273      10383      10384      10395      10394  
     10264      10265      10276      10275      10385      10386      10397      10396  
     10265      10266      10277      10276      10386      10387      10398      10397  
     10266      10267      10278      10277      10387      10388      10399      10398  
     10267      10268      10279      10278      10388      10389      10400      10399  
     10268      10269      10280      10279      10389      10390      10401      10400  
     10269      10270      10281      10280      10390      10391      10402      10401  
     10270      10271      10282      10281      10391      10392      10403      10402  
     10271      10272      10283      10282      10392      10393      10404      10403  
     10272      10273      10284      10283      10393      10394      10405      10404  
     10273      10274      10285      10284      10394      10395      10406      10405  
     10286      10287      10298      10297      10407      10408      10419      10418  
     10287      10288      10299      10298      10408      10409      10420      10419  
     10288      10289      10300      10299      10409      10410      10421      10420  
     10289      10290      10301      10300      10410      10411      10422      10421  
     10290      10291      10302      10301      10411      10412      10423      10422  
     10291      10292      10303      10302      10412      10413      10424      10423  
     10292      10293      10304      10303      10413      10414      10425      10424  
     10293      10294      10305      10304      10414      10415      10426      10425  
     10294      10295      10306      10305      10415      10416      10427      10426  
     10295      10296      10307      10306      10416      10417      10428      10427  
     10297      10298      10309      10308      10418      10419      10430      10429  
     10298      10299      10310      10309      10419      10420      10431      10430  
     10299      10300      10311      10310      10420      10421      10432      10431  
     10300      10301      10312      10311      10421      10422      10433      10432  
     10301      10302      10313      10312      10422      10423      10434      10433  
     10302      10303      10314      10313      10423      10424      10435      10434  
     10303      10304      10315      10314      10424      10425      10436      10435  
     10304      10305      10316      10315      10425      10426      10437      10436  
     10305      10306      10317      10316      10426      10427      10438      10437  
     10306      10307      10318      10317      10427      10428      10439      10438  
     10308      10309      10320      10319      10429      10430      10441      10440  
     10309      10310      10321      10320      10430      10431      10442      10441  
     10310      10311      10322      10321      10431      10432      10443      10442  
     10311      10312      10323      10322      10432      10433      10444      10443  
     10312      10313      10324      10323      10433      10434      10445      10444  
     10313      10314      10325      10324      10434      10435      10446      10445  
     10314      10315      10326      10325      10435      10436      10447      10446  
     10315      10316      10327      10326      10436      10437      10448      10447  
     10316      10317      10328      10327      10437      10438      10449      10448  
     10317      10318      10329      10328      10438      10439      10450      10449  
     10319      10320      10331      10330      10440      10441      10452      10451  
     10320      10321      10332      10331      10441      10442      10453      10452  
     10321      10322      10333      10332      10442      10443      10454      10453  
     10322      10323      10334      10333      10443      10444      10455      10454  
     10323      10324      10335      10334      10444      10445      10456      10455  
     10324      10325      10336      10335      10445      10446      10457      10456  
     10325      10326      10337      10336      10446      10447      10458      10457  
     10326      10327      10338      10337      10447      10448      10459      10458  
     10327      10328      10339      10338      10448      10449      10460      10459  
     10328      10329      10340      10339      10449      10450      10461      10460  
     10330      10331      10342      10341      10451      10452      10463      10462  
     10331      10332      10343      10342      10452      10453      10464      10463  
     10332      10333      10344      10343      10453      10454      10465      10464  
     10333      10334      10345      10344      10454      10455      10466      10465  
     10334      10335      10346      10345      10455      10456      10467      10466  
     10335      10336      10347      10346      10456      10457      10468      10467  
     10336      10337      10348      10347      10457      10458      10469      10468  
     10337      10338      10349      10348      10458      10459      10470      10469  
     10338      10339      10350      10349      10459      10460      10471      10470  
     10339      10340      10351      10350      10460      10461      10472      10471  
     10341      10342      10353      10352      10462      10463      10474      10473  
     10342      10343      10354      10353      10463      10464      10475      10474  
     10343      10344      10355      10354      10464      10465      10476      10475  
     10344      10345      10356      10355      10465      10466      10477      10476  
     10345      10346      10357      10356      10466      10467      10478      10477  
     10346      10347      10358      10357      10467      10468      10479      10478  
     10347      10348      10359      10358      10468      10469      10480      10479  
     10348      10349      10360      10359      10469      10470      10481      10480  
     10349      10350      10361      10360      10470      10471      10482      10481  
     10350      10351      10362      10361      10471      10472      10483      10482  
     10352      10353      10364      10363      10473      10474      10485      10484  
     10353      10354      10365      10364      10474      10475      10486      10485  
     10354      10355      10366      10365      10475      10476      10487      10486  
     10355      10356      10367      10366      10476      10477      10488      10487  
     10356      10357      10368      10367      10477      10478      10489      10488  
     10357      10358      10369      10368      10478      10479      10490      10489  
     10358      10359      10370      10369      10479      10480      10491      10490  
     10359      10360      10371      10370      10480      10481      10492      10491  
     10360      10361      10372      10371      10481      10482      10493      10492  
     10361      10362      10373      10372      10482      10483      10494      10493  
     10363      10364      10375      10374      10484      10485      10496      10495  
     10364      10365      10376      10375      10485      10486      10497      10496  
     10365      10366      10377      10376      10486      10487      10498      10497  
     10366      10367      10378      10377      10487      10488      10499      10498  
     10367      10368      10379      10378      10488      10489      10500      10499  
     10368      10369      10380      10379      10489      10490      10501      10500  
     10369      10370      10381      10380      10490      10491      10502      10501  
     10370      10371      10382      10381      10491      10492      10503      10502  
     10371      10372      10383      10382      10492      10493      10504      10503  
     10372      10373      10384      10383      10493      10494      10505      10504  
     10374      10375      10386      10385      10495      10496      10507      10506  
     10375      10376      10387      10386      10496      10497      10508      10507  
     10376      10377      10388      10387      10497      10498      10509      10508  
     10377      10378      10389      10388      10498      10499      10510      10509  
     10378      10379      10390      10389      10499      10500      10511      10510  
     10379      10380      10391      10390      10500      10501      10512      10511  
     10380      10381      10392      10391      10501      10502      10513      10512  
     10381      10382      10393      10392      10502      10503      10514      10513  
     10382      10383      10394      10393      10503      10504      10515      10514  
     10383      10384      10395      10394      10504      10505      10516      10515  
     10385      10386      10397      10396      10506      10507      10518      10517  
     10386      10387      10398      10397      10507      10508      10519      10518  
     10387      10388      10399      10398      10508      10509      10520      10519  
     10388      10389      10400      10399      10509      10510      10521      10520  
     10389      10390      10401      10400      10510      10511      10522      10521  
     10390      10391      10402      10401      10511      10512      10523      10522  
     10391      10392      10403      10402      10512      10513      10524      10523  
     10392      10393      10404      10403      10513      10514      10525      10524  
     10393      10394      10405      10404      10514      10515      10526      10525  
     10394      10395      10406      10405      10515      10516      10527      10526  
     10407      10408      10419      10418      10528      10529      10540      10539  
     10408      10409      10420      10419      10529      10530      10541      10540  
     10409      10410      10421      10420      10530      10531      10542      10541  
     10410      10411      10422      10421      10531      10532      10543      10542  
     10411      10412      10423      10422      10532      10533      10544      10543  
     10412      10413      10424      10423      10533      10534      10545      10544  
     10413      10414      10425      10424      10534      10535      10546      10545  
     10414      10415      10426      10425      10535      10536      10547      10546  
     10415      10416      10427      10426      10536      10537      10548      10547  
     10416      10417      10428      10427      10537      10538      10549      10548  
     10418      10419      10430      10429      10539      10540      10551      10550  
     10419      10420      10431      10430      10540      10541      10552      10551  
     10420      10421      10432      10431      10541      10542      10553      10552  
     10421      10422      10433      10432      10542      10543      10554      10553  
     10422      10423      10434      10433      10543      10544      10555      10554  
     10423      10424      10435      10434      10544      10545      10556      10555  
     10424      10425      10436      10435      10545      10546      10557      10556  
     10425      10426      10437      10436      10546      10547      10558      10557  
     10426      10427      10438      10437      10547      10548      10559      10558  
     10427      10428      10439      10438      10548      10549      10560      10559  
     10429      10430      10441      10440      10550      10551      10562      10561  
     10430      10431      10442      10441      10551      10552      10563      10562  
     10431      10432      10443      10442      10552      10553      10564      10563  
     10432      10433      10444      10443      10553      10554      10565      10564  
     10433      10434      10445      10444      10554      10555      10566      10565  
     10434      10435      10446      10445      10555      10556      10567      10566  
     10435      10436      10447      10446      10556      10557      10568      10567  
     10436      10437      10448      10447      10557      10558      10569      10568  
     10437      10438      10449      10448      10558      10559      10570      10569  
     10438      10439      10450      10449      10559      10560      10571      10570  
     10440      10441      10452      10451      10561      10562      10573      10572  
     10441      10442      10453      10452      10562      10563      10574      10573  
     10442      10443      10454      10453      10563      10564      10575      10574  
     10443      10444      10455      10454      10564      10565      10576      10575  
     10444      10445      10456      10455      10565      10566      10577      10576  
     10445      10446      10457      10456      10566      10567      10578      10577  
     10446      10447      10458      10457      10567      10568      10579      10578  
     10447      10448      10459      10458      10568      10569      10580      10579  
     10448      10449      10460      10459      10569      10570      10581      10580  
     10449      10450      10461      10460      10570      10571      10582      10581  
     10451      10452      10463      10462      10572      10573      10584      10583  
     10452      10453      10464      10463      10573      10574      10585      10584  
     10453      10454      10465      10464      10574      10575      10586      10585  
     10454      10455      10466      10465      10575      10576      10587      10586  
     10455      10456      10467      10466      10576      10577      10588      10587  
     10456      10457      10468      10467      10577      10578      10589      10588  
     10457      10458      10469      10468      10578      10579      10590      10589  
     10458      10459      10470      10469      10579      10580      10591      10590  
     10459      10460      10471      10470      10580      10581      10592      10591  
     10460      10461      10472      10471      10581      10582      10593      10592  
     10462      10463      10474      10473      10583      10584      10595      10594  
     10463      10464      10475      10474      10584      10585      10596      10595  
     10464      10465      10476      10475      10585      10586      10597      10596  
     10465      10466      10477      10476      10586      10587      10598      10597  
     10466      10467      10478      10477      10587      10588      10599      10598  
     10467      10468      10479      10478      10588      10589      10600      10599  
     10468      10469      10480      10479      10589      10590      10601      10600  
     10469      10470      10481      10480      10590      10591      10602      10601  
     10470      10471      10482      10481      10591      10592      10603      10602  
     10471      10472      10483      10482      10592      10593      10604      10603  
     10473      10474      10485      10484      10594      10595      10606      10605  
     10474      10475      10486      10485      10595      10596      10607      10606  
     10475      10476      10487      10486      10596      10597      10608      10607  
     10476      10477      10488      10487      10597      10598      10609      10608  
     10477      10478      10489      10488      10598      10599      10610      10609  
     10478      10479      10490      10489      10599      10600      10611      10610  
     10479      10480      10491      10490      10600      10601      10612      10611  
     10480      10481      10492      10491      10601      10602      10613      10612  
     10481      10482      10493      10492      10602      10603      10614      10613  
     10482      10483      10494      10493      10603      10604      10615      10614  
     10484      10485      10496      10495      10605      10606      10617      10616  
     10485      10486      10497      10496      10606      10607      10618      10617  
     10486      10487      10498      10497      10607      10608      10619      10618  
     10487      10488      10499      10498      10608      10609      10620      10619  
     10488      10489      10500      10499      10609      10610      10621      10620  
     10489      10490      10501      10500      10610      10611      10622      10621  
     10490      10491      10502      10501      10611      10612      10623      10622  
     10491      10492      10503      10502      10612      10613      10624      10623  
     10492      10493      10504      10503      10613      10614      10625      10624  
     10493      10494      10505      10504      10614      10615      10626      10625  
     10495      10496      10507      10506      10616      10617      10628      10627  
     10496      10497      10508      10507      10617      10618      10629      10628  
     10497      10498      10509      10508      10618      10619      10630      10629  
     10498      10499      10510      10509      10619      10620      10631      10630  
     10499      10500      10511      10510      10620      10621      10632      10631  
     10500      10501      10512      10511      10621      10622      10633      10632  
     10501      10502      10513      10512      10622      10623      10634      10633  
     10502      10503      10514      10513      10623      10624      10635      10634  
     10503      10504      10515      10514      10624      10625      10636      10635  
     10504      10505      10516      10515      10625      10626      10637      10636  
     10506      10507      10518      10517      10627      10628      10639      10638  
     10507      10508      10519      10518      10628      10629      10640      10639  
     10508      10509      10520      10519      10629      10630      10641      10640  
     10509      10510      10521      10520      10630      10631      10642      10641  
     10510      10511      10522      10521      10631      10632      10643      10642  
     10511      10512      10523      10522      10632      10633      10644      10643  
     10512      10513      10524      10523      10633      10634      10645      10644  
     10513      10514      10525      10524      10634      10635      10646      10645  
     10514      10515      10526      10525      10635      10636      10647      10646  
     10515      10516      10527      10526      10636      10637      10648      10647  
     10528      10529      10540      10539      10649      10650      10661      10660  
     10529      10530      10541      10540      10650      10651      10662      10661  
     10530      10531      10542      10541      10651      10652      10663      10662  
     10531      10532      10543      10542      10652      10653      10664      10663  
     10532      10533      10544      10543      10653      10654      10665      10664  
     10533      10534      10545      10544      10654      10655      10666      10665  
     10534      10535      10546      10545      10655      10656      10667      10666  
     10535      10536      10547      10546      10656      10657      10668      10667  
     10536      10537      10548      10547      10657      10658      10669      10668  
     10537      10538      10549      10548      10658      10659      10670      10669  
     10539      10540      10551      10550      10660      10661      10672      10671  
     10540      10541      10552      10551      10661      10662      10673      10672  
     10541      10542      10553      10552      10662      10663      10674      10673  
     10542      10543      10554      10553      10663      10664      10675      10674  
     10543      10544      10555      10554      10664      10665      10676      10675  
     10544      10545      10556      10555      10665      10666      10677      10676  
     10545      10546      10557      10556      10666      10667      10678      10677  
     10546      10547      10558      10557      10667      10668      10679      10678  
     10547      10548      10559      10558      10668      10669      10680      10679  
     10548      10549      10560      10559      10669      10670      10681      10680  
     10550      10551      10562      10561      10671      10672      10683      10682  
     10551      10552      10563      10562      10672      10673      10684      10683  
     10552      10553      10564      10563      10673      10674      10685      10684  
     10553      10554      10565      10564      10674      10675      10686      10685  
     10554      10555      10566      10565      10675      10676      10687      10686  
     10555      10556      10567      10566      10676      10677      10688      10687  
     10556      10557      10568      10567      10677      10678      10689      10688  
     10557      10558      10569      10568      10678      10679      10690      10689  
     10558      10559      10570      10569      10679      10680      10691      10690  
     10559      10560      10571      10570      10680      10681      10692      10691  
     10561      10562      10573      10572      10682      10683      10694      10693  
     10562      10563      10574      10573      10683      10684      10695      10694  
     10563      10564      10575      10574      10684      10685      10696      10695  
     10564      10565      10576      10575      10685      10686      10697      10696  
     10565      10566      10577      10576      10686      10687      10698      10697  
     10566      10567      10578      10577      10687      10688      10699      10698  
     10567      10568      10579      10578      10688      10689      10700      10699  
     10568      10569      10580      10579      10689      10690      10701      10700  
     10569      10570      10581      10580      10690      10691      10702      10701  
     10570      10571      10582      10581      10691      10692      10703      10702  
     10572      10573      10584      10583      10693      10694      10705      10704  
     10573      10574      10585      10584      10694      10695      10706      10705  
     10574      10575      10586      10585      10695      10696      10707      10706  
     10575      10576      10587      10586      10696      10697      10708      10707  
     10576      10577      10588      10587      10697      10698      10709      10708  
     10577      10578      10589      10588      10698      10699      10710      10709  
     10578      10579      10590      10589      10699      10700      10711      10710  
     10579      10580      10591      10590      10700      10701      10712      10711  
     10580      10581      10592      10591      10701      10702      10713      10712  
     10581      10582      10593      10592      10702      10703      10714      10713  
     10583      10584      10595      10594      10704      10705      10716      10715  
     10584      10585      10596      10595      10705      10706      10717      10716  
     10585      10586      10597      10596      10706      10707      10718      10717  
     10586      10587      10598      10597      10707      10708      10719      10718  
     10587      10588      10599      10598      10708      10709      10720      10719  
     10588      10589      10600      10599      10709      10710      10721      10720  
     10589      10590      10601      10600      10710      10711      10722      10721  
     10590      10591      10602      10601      10711      10712      10723      10722  
     10591      10592      10603      10602      10712      10713      10724      10723  
     10592      10593      10604      10603      10713      10714      10725      10724  
     10594      10595      10606      10605      10715      10716      10727      10726  
     10595      10596      10607      10606      10716      10717      10728      10727  
     10596      10597      10608      10607      10717      10718      10729      10728  
     10597      10598      10609      10608      10718      10719      10730      10729  
     10598      10599      10610      10609      10719      10720      10731      10730  
     10599      10600      10611      10610      10720      10721      10732      10731  
     10600      10601      10612      10611      10721      10722      10733      10732  
     10601      10602      10613      10612      10722      10723      10734      10733  
     10602      10603      10614      10613      10723      10724      10735      10734  
     10603      10604      10615      10614      10724      10725      10736      10735  
     10605      10606      10617      10616      10726      10727      10738      10737  
     10606      10607      10618      10617      10727      10728      10739      10738  
     10607      10608      10619      10618      10728      10729      10740      10739  
     10608      10609      10620      10619      10729      10730      10741      10740  
     10609      10610      10621      10620      10730      10731      10742      10741  
     10610      10611      10622      10621      10731      10732      10743      10742  
     10611      10612      10623      10622      10732      10733      10744      10743  
     10612      10613      10624      10623      10733      10734      10745      10744  
     10613      10614      10625      10624      10734      10735      10746      10745  
     10614      10615      10626      10625      10735      10736      10747      10746  
     10616      10617      10628      10627      10737      10738      10749      10748  
     10617      10618      10629      10628      10738      10739      10750      10749  
     10618      10619      10630      10629      10739      10740      10751      10750  
     10619      10620      10631      10630      10740      10741      10752      10751  
     10620      10621      10632      10631      10741      10742      10753      10752  
     10621      10622      10633      10632      10742      10743      10754      10753  
     10622      10623      10634      10633      10743      10744      10755      10754  
     10623      10624      10635      10634      10744      10745      10756      10755  
     10624      10625      10636      10635      10745      10746      10757      10756  
     10625      10626      10637      10636      10746      10747      10758      10757  
     10627      10628      10639      10638      10748      10749      10760      10759  
     10628      10629      10640      10639      10749      10750      10761      10760  
     10629      10630      10641      10640      10750      10751      10762      10761  
     10630      10631      10642      10641      10751      10752      10763      10762  
     10631      10632      10643      10642      10752      10753      10764      10763  
     10632      10633      10644      10643      10753      10754      10765      10764  
     10633      10634      10645      10644      10754      10755      10766      10765  
     10634      10635      10646      10645      10755      10756      10767      10766  
     10635      10636      10647      10646      10756      10757      10768      10767  
     10636      10637      10648      10647      10757      10758      10769      10768  
     10649      10650      10661      10660      10770      10771      10782      10781  
     10650      10651      10662      10661      10771      10772      10783      10782  
     10651      10652      10663      10662      10772      10773      10784      10783  
     10652      10653      10664      10663      10773      10774      10785      10784  
     10653      10654      10665      10664      10774      10775      10786      10785  
     10654      10655      10666      10665      10775      10776      10787      10786  
     10655      10656      10667      10666      10776      10777      10788      10787  
     10656      10657      10668      10667      10777      10778      10789      10788  
     10657      10658      10669      10668      10778      10779      10790      10789  
     10658      10659      10670      10669      10779      10780      10791      10790  
     10660      10661      10672      10671      10781      10782      10793      10792  
     10661      10662      10673      10672      10782      10783      10794      10793  
     10662      10663      10674      10673      10783      10784      10795      10794  
     10663      10664      10675      10674      10784      10785      10796      10795  
     10664      10665      10676      10675      10785      10786      10797      10796  
     10665      10666      10677      10676      10786      10787      10798      10797  
     10666      10667      10678      10677      10787      10788      10799      10798  
     10667      10668      10679      10678      10788      10789      10800      10799  
     10668      10669      10680      10679      10789      10790      10801      10800  
     10669      10670      10681      10680      10790      10791      10802      10801  
     10671      10672      10683      10682      10792      10793      10804      10803  
     10672      10673      10684      10683      10793      10794      10805      10804  
     10673      10674      10685      10684      10794      10795      10806      10805  
     10674      10675      10686      10685      10795      10796      10807      10806  
     10675      10676      10687      10686      10796      10797      10808      10807  
     10676      10677      10688      10687      10797      10798      10809      10808  
     10677      10678      10689      10688      10798      10799      10810      10809  
     10678      10679      10690      10689      10799      10800      10811      10810  
     10679      10680      10691      10690      10800      10801      10812      10811  
     10680      10681      10692      10691      10801      10802      10813      10812  
     10682      10683      10694      10693      10803      10804      10815      10814  
     10683      10684      10695      10694      10804      10805      10816      10815  
     10684      10685      10696      10695      10805      10806      10817      10816  
     10685      10686      10697      10696      10806      10807      10818      10817  
     10686      10687      10698      10697      10807      10808      10819      10818  
     10687      10688      10699      10698      10808      10809      10820      10819  
     10688      10689      10700      10699      10809      10810      10821      10820  
     10689      10690      10701      10700      10810      10811      10822      10821  
     10690      10691      10702      10701      10811      10812      10823      10822  
     10691      10692      10703      10702      10812      10813      10824      10823  
     10693      10694      10705      10704      10814      10815      10826      10825  
     10694      10695      10706      10705      10815      10816      10827      10826  
     10695      10696      10707      10706      10816      10817      10828      10827  
     10696      10697      10708      10707      10817      10818      10829      10828  
     10697      10698      10709      10708      10818      10819      10830      10829  
     10698      10699      10710      10709      10819      10820      10831      10830  
     10699      10700      10711      10710      10820      10821      10832      10831  
     10700      10701      10712      10711      10821      10822      10833      10832  
     10701      10702      10713      10712      10822      10823      10834      10833  
     10702      10703      10714      10713      10823      10824      10835      10834  
     10704      10705      10716      10715      10825      10826      10837      10836  
     10705      10706      10717      10716      10826      10827      10838      10837  
     10706      10707      10718      10717      10827      10828      10839      10838  
     10707      10708      10719      10718      10828      10829      10840      10839  
     10708      10709      10720      10719      10829      10830      10841      10840  
     10709      10710      10721      10720      10830      10831      10842      10841  
     10710      10711      10722      10721      10831      10832      10843      10842  
     10711      10712      10723      10722      10832      10833      10844      10843  
     10712      10713      10724      10723      10833      10834      10845      10844  
     10713      10714      10725      10724      10834      10835      10846      10845  
     10715      10716      10727      10726      10836      10837      10848      10847  
     10716      10717      10728      10727      10837      10838      10849      10848  
     10717      10718      10729      10728      10838      10839      10850      10849  
     10718      10719      10730      10729      10839      10840      10851      10850  
     10719      10720      10731      10730      10840      10841      10852      10851  
     10720      10721      10732      10731      10841      10842      10853      10852  
     10721      10722      10733      10732      10842      10843      10854      10853  
     10722      10723      10734      10733      10843      10844      10855      10854  
     10723      10724      10735      10734      10844      10845      10856      10855  
     10724      10725      10736      10735      10845      10846      10857      10856  
     10726      10727      10738      10737      10847      10848      10859      10858  
     10727      10728      10739      10738      10848      10849      10860      10859  
     10728      10729      10740      10739      10849      10850      10861      10860  
     10729      10730      10741      10740      10850      10851      10862      10861  
     10730      10731      10742      10741      10851      10852      10863      10862  
     10731      10732      10743      10742      10852      10853      10864      10863  
     10732      10733      10744      10743      10853      10854      10865      10864  
     10733      10734      10745      10744      10854      10855      10866      10865  
     10734      10735      10746      10745      10855      10856      10867      10866  
     10735      10736      10747      10746      10856      10857      10868      10867  
     10737      10738      10749      10748      10858      10859      10870      10869  
     10738      10739      10750      10749      10859      10860      10871      10870  
     10739      10740      10751      10750      10860      10861      10872      10871  
     10740      10741      10752      10751      10861      10862      10873      10872  
     10741      10742      10753      10752      10862      10863      10874      10873  
     10742      10743      10754      10753      10863      10864      10875      10874  
     10743      10744      10755      10754      10864      10865      10876      10875  
     10744      10745      10756      10755      10865      10866      10877      10876  
     10745      10746      10757      10756      10866      10867      10878      10877  
     10746      10747      10758      10757      10867      10868      10879      10878  
     10748      10749      10760      10759      10869      10870      10881      10880  
     10749      10750      10761      10760      10870      10871      10882      10881  
     10750      10751      10762      10761      10871      10872      10883      10882  
     10751      10752      10763      10762      10872      10873      10884      10883  
     10752      10753      10764      10763      10873      10874      10885      10884  
     10753      10754      10765      10764      10874      10875      10886      10885  
     10754      10755      10766      10765      10875      10876      10887      10886  
     10755      10756      10767      10766      10876      10877      10888      10887  
     10756      10757      10768      10767      10877      10878      10889      10888  
     10757      10758      10769      10768      10878      10879      10890      10889  
     10770      10771      10782      10781      10891      10892      10903      10902  
     10771      10772      10783      10782      10892      10893      10904      10903  
     10772      10773      10784      10783      10893      10894      10905      10904  
     10773      10774      10785      10784      10894      10895      10906      10905  
     10774      10775      10786      10785      10895      10896      10907      10906  
     10775      10776      10787      10786      10896      10897      10908      10907  
     10776      10777      10788      10787      10897      10898      10909      10908  
     10777      10778      10789      10788      10898      10899      10910      10909  
     10778      10779      10790      10789      10899      10900      10911      10910  
     10779      10780      10791      10790      10900      10901      10912      10911  
     10781      10782      10793      10792      10902      10903      10914      10913  
     10782      10783      10794      10793      10903      10904      10915      10914  
     10783      10784      10795      10794      10904      10905      10916      10915  
     10784      10785      10796      10795      10905      10906      10917      10916  
     10785      10786      10797      10796      10906      10907      10918      10917  
     10786      10787      10798      10797      10907      10908      10919      10918  
     10787      10788      10799      10798      10908      10909      10920      10919  
     10788      10789      10800      10799      10909      10910      10921      10920  
     10789      10790      10801      10800      10910      10911      10922      10921  
     10790      10791      10802      10801      10911      10912      10923      10922  
     10792      10793      10804      10803      10913      10914      10925      10924  
     10793      10794      10805      10804      10914      10915      10926      10925  
     10794      10795      10806      10805      10915      10916      10927      10926  
     10795      10796      10807      10806      10916      10917      10928      10927  
     10796      10797      10808      10807      10917      10918      10929      10928  
     10797      10798      10809      10808      10918      10919      10930      10929  
     10798      10799      10810      10809      10919      10920      10931      10930  
     10799      10800      10811      10810      10920      10921      10932      10931  
     10800      10801      10812      10811      10921      10922      10933      10932  
     10801      10802      10813      10812      10922      10923      10934      10933  
     10803      10804      10815      10814      10924      10925      10936      10935  
     10804      10805      10816      10815      10925      10926      10937      10936  
     10805      10806      10817      10816      10926      10927      10938      10937  
     10806      10807      10818      10817      10927      10928      10939      10938  
     10807      10808      10819      10818      10928      10929      10940      10939  
     10808      10809      10820      10819      10929      10930      10941      10940  
     10809      10810      10821      10820      10930      10931      10942      10941  
     10810      10811      10822      10821      10931      10932      10943      10942  
     10811      10812      10823      10822      10932      10933      10944      10943  
     10812      10813      10824      10823      10933      10934      10945      10944  
     10814      10815      10826      10825      10935      10936      10947      10946  
     10815      10816      10827      10826      10936      10937      10948      10947  
     10816      10817      10828      10827      10937      10938      10949      10948  
     10817      10818      10829      10828      10938      10939      10950      10949  
     10818      10819      10830      10829      10939      10940      10951      10950  
     10819      10820      10831      10830      10940      10941      10952      10951  
     10820      10821      10832      10831      10941      10942      10953      10952  
     10821      10822      10833      10832      10942      10943      10954      10953  
     10822      10823      10834      10833      10943      10944      10955      10954  
     10823      10824      10835      10834      10944      10945      10956      10955  
     10825      10826      10837      10836      10946      10947      10958      10957  
     10826      10827      10838      10837      10947      10948      10959      10958  
     10827      10828      10839      10838      10948      10949      10960      10959  
     10828      10829      10840      10839      10949      10950      10961      10960  
     10829      10830      10841      10840      10950      10951      10962      10961  
     10830      10831      10842      10841      10951      10952      10963      10962  
     10831      10832      10843      10842      10952      10953      10964      10963  
     10832      10833      10844      10843      10953      10954      10965      10964  
     10833      10834      10845      10844      10954      10955      10966      10965  
     10834      10835      10846      10845      10955      10956      10967      10966  
     10836      10837      10848      10847      10957      10958      10969      10968  
     10837      10838      10849      10848      10958      10959      10970      10969  
     10838      10839      10850      10849      10959      10960      10971      10970  
     10839      10840      10851      10850      10960      10961      10972      10971  
     10840      10841      10852      10851      10961      10962      10973      10972  
     10841      10842      10853      10852      10962      10963      10974      10973  
     10842      10843      10854      10853      10963      10964      10975      10974  
     10843      10844      10855      10854      10964      10965      10976      10975  
     10844      10845      10856      10855      10965      10966      10977      10976  
     10845      10846      10857      10856      10966      10967      10978      10977  
     10847      10848      10859      10858      10968      10969      10980      10979  
     10848      10849      10860      10859      10969      10970      10981      10980  
     10849      10850      10861      10860      10970      10971      10982      10981  
     10850      10851      10862      10861      10971      10972      10983      10982  
     10851      10852      10863      10862      10972      10973      10984      10983  
     10852      10853      10864      10863      10973      10974      10985      10984  
     10853      10854      10865      10864      10974      10975      10986      10985  
     10854      10855      10866      10865      10975      10976      10987      10986  
     10855      10856      10867      10866      10976      10977      10988      10987  
     10856      10857      10868      10867      10977      10978      10989      10988  
     10858      10859      10870      10869      10979      10980      10991      10990  
     10859      10860      10871      10870      10980      10981      10992      10991  
     10860      10861      10872      10871      10981      10982      10993      10992  
     10861      10862      10873      10872      10982      10983      10994      10993  
     10862      10863      10874      10873      10983      10984      10995      10994  
     10863      10864      10875      10874      10984      10985      10996      10995  
     10864      10865      10876      10875      10985      10986      10997      10996  
     10865      10866      10877      10876      10986      10987      10998      10997  
     10866      10867      10878      10877      10987      10988      10999      10998  
     10867      10868      10879      10878      10988      10989      11000      10999  
     10869      10870      10881      10880      10990      10991      11002      11001  
     10870      10871      10882      10881      10991      10992      11003      11002  
     10871      10872      10883      10882      10992      10993      11004      11003  
     10872      10873      10884      10883      10993      10994      11005      11004  
     10873      10874      10885      10884      10994      10995      11006      11005  
     10874      10875      10886      10885      10995      10996      11007      11006  
     10875      10876      10887      10886      10996      10997      11008      11007  
     10876      10877      10888      10887      10997      10998      11009      11008  
     10877      10878      10889      10888      10998      10999      11010      11009  
     10878      10879      10890      10889      10999      11000      11011      11010  
     10891      10892      10903      10902      11012      11013      11024      11023  
     10892      10893      10904      10903      11013      11014      11025      11024  
     10893      10894      10905      10904      11014      11015      11026      11025  
     10894      10895      10906      10905      11015      11016      11027      11026  
     10895      10896      10907      10906      11016      11017      11028      11027  
     10896      10897      10908      10907      11017      11018      11029      11028  
     10897      10898      10909      10908      11018      11019      11030      11029  
     10898      10899      10910      10909      11019      11020      11031      11030  
     10899      10900      10911      10910      11020      11021      11032      11031  
     10900      10901      10912      10911      11021      11022      11033      11032  
     10902      10903      10914      10913      11023      11024      11035      11034  
     10903      10904      10915      10914      11024      11025      11036      11035  
     10904      10905      10916      10915      11025      11026      11037      11036  
     10905      10906      10917      10916      11026      11027      11038      11037  
     10906      10907      10918      10917      11027      11028      11039      11038  
     10907      10908      10919      10918      11028      11029      11040      11039  
     10908      10909      10920      10919      11029      11030      11041      11040  
     10909      10910      10921      10920      11030      11031      11042      11041  
     10910      10911      10922      10921      11031      11032      11043      11042  
     10911      10912      10923      10922      11032      11033      11044      11043  
     10913      10914      10925      10924      11034      11035      11046      11045  
     10914      10915      10926      10925      11035      11036      11047      11046  
     10915      10916      10927      10926      11036      11037      11048      11047  
     10916      10917      10928      10927      11037      11038      11049      11048  
     10917      10918      10929      10928      11038      11039      11050      11049  
     10918      10919      10930      10929      11039      11040      11051      11050  
     10919      10920      10931      10930      11040      11041      11052      11051  
     10920      10921      10932      10931      11041      11042      11053      11052  
     10921      10922      10933      10932      11042      11043      11054      11053  
     10922      10923      10934      10933      11043      11044      11055      11054  
     10924      10925      10936      10935      11045      11046      11057      11056  
     10925      10926      10937      10936      11046      11047      11058      11057  
     10926      10927      10938      10937      11047      11048      11059      11058  
     10927      10928      10939      10938      11048      11049      11060      11059  
     10928      10929      10940      10939      11049      11050      11061      11060  
     10929      10930      10941      10940      11050      11051      11062      11061  
     10930      10931      10942      10941      11051      11052      11063      11062  
     10931      10932      10943      10942      11052      11053      11064      11063  
     10932      10933      10944      10943      11053      11054      11065      11064  
     10933      10934      10945      10944      11054      11055      11066      11065  
     10935      10936      10947      10946      11056      11057      11068      11067  
     10936      10937      10948      10947      11057      11058      11069      11068  
     10937      10938      10949      10948      11058      11059      11070      11069  
     10938      10939      10950      10949      11059      11060      11071      11070  
     10939      10940      10951      10950      11060      11061      11072      11071  
     10940      10941      10952      10951      11061      11062      11073      11072  
     10941      10942      10953      10952      11062      11063      11074      11073  
     10942      10943      10954      10953      11063      11064      11075      11074  
     10943      10944      10955      10954      11064      11065      11076      11075  
     10944      10945      10956      10955      11065      11066      11077      11076  
     10946      10947      10958      10957      11067      11068      11079      11078  
     10947      10948      10959      10958      11068      11069      11080      11079  
     10948      10949      10960      10959      11069      11070      11081      11080  
     10949      10950      10961      10960      11070      11071      11082      11081  
     10950      10951      10962      10961      11071      11072      11083      11082  
     10951      10952      10963      10962      11072      11073      11084      11083  
     10952      10953      10964      10963      11073      11074      11085      11084  
     10953      10954      10965      10964      11074      11075      11086      11085  
     10954      10955      10966      10965      11075      11076      11087      11086  
     10955      10956      10967      10966      11076      11077      11088      11087  
     10957      10958      10969      10968      11078      11079      11090      11089  
     10958      10959      10970      10969      11079      11080      11091      11090  
     10959      10960      10971      10970      11080      11081      11092      11091  
     10960      10961      10972      10971      11081      11082      11093      11092  
     10961      10962      10973      10972      11082      11083      11094      11093  
     10962      10963      10974      10973      11083      11084      11095      11094  
     10963      10964      10975      10974      11084      11085      11096      11095  
     10964      10965      10976      10975      11085      11086      11097      11096  
     10965      10966      10977      10976      11086      11087      11098      11097  
     10966      10967      10978      10977      11087      11088      11099      11098  
     10968      10969      10980      10979      11089      11090      11101      11100  
     10969      10970      10981      10980      11090      11091      11102      11101  
     10970      10971      10982      10981      11091      11092      11103      11102  
     10971      10972      10983      10982      11092      11093      11104      11103  
     10972      10973      10984      10983      11093      11094      11105      11104  
     10973      10974      10985      10984      11094      11095      11106      11105  
     10974      10975      10986      10985      11095      11096      11107      11106  
     10975      10976      10987      10986      11096      11097      11108      11107  
     10976      10977      10988      10987      11097      11098      11109      11108  
     10977      10978      10989      10988      11098      11099      11110      11109  
     10979      10980      10991      10990      11100      11101      11112      11111  
     10980      10981      10992      10991      11101      11102      11113      11112  
     10981      10982      10993      10992      11102      11103      11114      11113  
     10982      10983      10994      10993      11103      11104      11115      11114  
     10983      10984      10995      10994      11104      11105      11116      11115  
     10984      10985      10996      10995      11105      11106      11117      11116  
     10985      10986      10997      10996      11106      11107      11118      11117  
     10986      10987      10998      10997      11107      11108      11119      11118  
     10987      10988      10999      10998      11108      11109      11120      11119  
     10988      10989      11000      10999      11109      11110      11121      11120  
     10990      10991      11002      11001      11111      11112      11123      11122  
     10991      10992      11003      11002      11112      11113      11124      11123  
     10992      10993      11004      11003      11113      11114      11125      11124  
     10993      10994      11005      11004      11114      11115      11126      11125  
     10994      10995      11006      11005      11115      11116      11127      11126  
     10995      10996      11007      11006      11116      11117      11128      11127  
     10996      10997      11008      11007      11117      11118      11129      11128  
     10997      10998      11009      11008      11118      11119      11130      11129  
     10998      10999      11010      11009      11119      11120      11131      11130  
     10999      11000      11011      11010      11120      11121      11132      11131  
     11012      11013      11024      11023      11133      11134      11145      11144  
     11013      11014      11025      11024      11134      11135      11146      11145  
     11014      11015      11026      11025      11135      11136      11147      11146  
     11015      11016      11027      11026      11136      11137      11148      11147  
     11016      11017      11028      11027      11137      11138      11149      11148  
     11017      11018      11029      11028      11138      11139      11150      11149  
     11018      11019      11030      11029      11139      11140      11151      11150  
     11019      11020      11031      11030      11140      11141      11152      11151  
     11020      11021      11032      11031      11141      11142      11153      11152  
     11021      11022      11033      11032      11142      11143      11154      11153  
     11023      11024      11035      11034      11144      11145      11156      11155  
     11024      11025      11036      11035      11145      11146      11157      11156  
     11025      11026      11037      11036      11146      11147      11158      11157  
     11026      11027      11038      11037      11147      11148      11159      11158  
     11027      11028      11039      11038      11148      11149      11160      11159  
     11028      11029      11040      11039      11149      11150      11161      11160  
     11029      11030      11041      11040      11150      11151      11162      11161  
     11030      11031      11042      11041      11151      11152      11163      11162  
     11031      11032      11043      11042      11152      11153      11164      11163  
     11032      11033      11044      11043      11153      11154      11165      11164  
     11034      11035      11046      11045      11155      11156      11167      11166  
     11035      11036      11047      11046      11156      11157      11168      11167  
     11036      11037      11048      11047      11157      11158      11169      11168  
     11037      11038      11049      11048      11158      11159      11170      11169  
     11038      11039      11050      11049      11159      11160      11171      11170  
     11039      11040      11051      11050      11160      11161      11172      11171  
     11040      11041      11052      11051      11161      11162      11173      11172  
     11041      11042      11053      11052      11162      11163      11174      11173  
     11042      11043      11054      11053      11163      11164      11175      11174  
     11043      11044      11055      11054      11164      11165      11176      11175  
     11045      11046      11057      11056      11166      11167      11178      11177  
     11046      11047      11058      11057      11167      11168      11179      11178  
     11047      11048      11059      11058      11168      11169      11180      11179  
     11048      11049      11060      11059      11169      11170      11181      11180  
     11049      11050      11061      11060      11170      11171      11182      11181  
     11050      11051      11062      11061      11171      11172      11183      11182  
     11051      11052      11063      11062      11172      11173      11184      11183  
     11052      11053      11064      11063      11173      11174      11185      11184  
     11053      11054      11065      11064      11174      11175      11186      11185  
     11054      11055      11066      11065      11175      11176      11187      11186  
     11056      11057      11068      11067      11177      11178      11189      11188  
     11057      11058      11069      11068      11178      11179      11190      11189  
     11058      11059      11070      11069      11179      11180      11191      11190  
     11059      11060      11071      11070      11180      11181      11192      11191  
     11060      11061      11072      11071      11181      11182      11193      11192  
     11061      11062      11073      11072      11182      11183      11194      11193  
     11062      11063      11074      11073      11183      11184      11195      11194  
     11063      11064      11075      11074      11184      11185      11196      11195  
     11064      11065      11076      11075      11185      11186      11197      11196  
     11065      11066      11077      11076      11186      11187      11198      11197  
     11067      11068      11079      11078      11188      11189      11200      11199  
     11068      11069      11080      11079      11189      11190      11201      11200  
     11069      11070      11081      11080      11190      11191      11202      11201  
     11070      11071      11082      11081      11191      11192      11203      11202  
     11071      11072      11083      11082      11192      11193      11204      11203  
     11072      11073      11084      11083      11193      11194      11205      11204  
     11073      11074      11085      11084      11194      11195      11206      11205  
     11074      11075      11086      11085      11195      11196      11207      11206  
     11075      11076      11087      11086      11196      11197      11208      11207  
     11076      11077      11088      11087      11197      11198      11209      11208  
     11078      11079      11090      11089      11199      11200      11211      11210  
     11079      11080      11091      11090      11200      11201      11212      11211  
     11080      11081      11092      11091      11201      11202      11213      11212  
     11081      11082      11093      11092      11202      11203      11214      11213  
     11082      11083      11094      11093      11203      11204      11215      11214  
     11083      11084      11095      11094      11204      11205      11216      11215  
     11084      11085      11096      11095      11205      11206      11217      11216  
     11085      11086      11097      11096      11206      11207      11218      11217  
     11086      11087      11098      11097      11207      11208      11219      11218  
     11087      11088      11099      11098      11208      11209      11220      11219  
     11089      11090      11101      11100      11210      11211      11222      11221  
     11090      11091      11102      11101      11211      11212      11223      11222  
     11091      11092      11103      11102      11212      11213      11224      11223  
     11092      11093      11104      11103      11213      11214      11225      11224  
     11093      11094      11105      11104      11214      11215      11226      11225  
     11094      11095      11106      11105      11215      11216      11227      11226  
     11095      11096      11107      11106      11216      11217      11228      11227  
     11096      11097      11108      11107      11217      11218      11229      11228  
     11097      11098      11109      11108      11218      11219      11230      11229  
     11098      11099      11110      11109      11219      11220      11231      11230  
     11100      11101      11112      11111      11221      11222      11233      11232  
     11101      11102      11113      11112      11222      11223      11234      11233  
     11102      11103      11114      11113      11223      11224      11235      11234  
     11103      11104      11115      11114      11224      11225      11236      11235  
     11104      11105      11116      11115      11225      11226      11237      11236  
     11105      11106      11117      11116      11226      11227      11238      11237  
     11106      11107      11118      11117      11227      11228      11239      11238  
     11107      11108      11119      11118      11228      11229      11240      11239  
     11108      11109      11120      11119      11229      11230      11241      11240  
     11109      11110      11121      11120      11230      11231      11242      11241  
     11111      11112      11123      11122      11232      11233      11244      11243  
     11112      11113      11124      11123      11233      11234      11245      11244  
     11113      11114      11125      11124      11234      11235      11246      11245  
     11114      11115      11126      11125      11235      11236      11247      11246  
     11115      11116      11127      11126      11236      11237      11248      11247  
     11116      11117      11128      11127      11237      11238      11249      11248  
     11117      11118      11129      11128      11238      11239      11250      11249  
     11118      11119      11130      11129      11239      11240      11251      11250  
     11119      11120      11131      11130      11240      11241      11252      11251  
     11120      11121      11132      11131      11241      11242      11253      11252  
     11133      11134      11145      11144      11254      11255      11266      11265  
     11134      11135      11146      11145      11255      11256      11267      11266  
     11135      11136      11147      11146      11256      11257      11268      11267  
     11136      11137      11148      11147      11257      11258      11269      11268  
     11137      11138      11149      11148      11258      11259      11270      11269  
     11138      11139      11150      11149      11259      11260      11271      11270  
     11139      11140      11151      11150      11260      11261      11272      11271  
     11140      11141      11152      11151      11261      11262      11273      11272  
     11141      11142      11153      11152      11262      11263      11274      11273  
     11142      11143      11154      11153      11263      11264      11275      11274  
     11144      11145      11156      11155      11265      11266      11277      11276  
     11145      11146      11157      11156      11266      11267      11278      11277  
     11146      11147      11158      11157      11267      11268      11279      11278  
     11147      11148      11159      11158      11268      11269      11280      11279  
     11148      11149      11160      11159      11269      11270      11281      11280  
     11149      11150      11161      11160      11270      11271      11282      11281  
     11150      11151      11162      11161      11271      11272      11283      11282  
     11151      11152      11163      11162      11272      11273      11284      11283  
     11152      11153      11164      11163      11273      11274      11285      11284  
     11153      11154      11165      11164      11274      11275      11286      11285  
     11155      11156      11167      11166      11276      11277      11288      11287  
     11156      11157      11168      11167      11277      11278      11289      11288  
     11157      11158      11169      11168      11278      11279      11290      11289  
     11158      11159      11170      11169      11279      11280      11291      11290  
     11159      11160      11171      11170      11280      11281      11292      11291  
     11160      11161      11172      11171      11281      11282      11293      11292  
     11161      11162      11173      11172      11282      11283      11294      11293  
     11162      11163      11174      11173      11283      11284      11295      11294  
     11163      11164      11175      11174      11284      11285      11296      11295  
     11164      11165      11176      11175      11285      11286      11297      11296  
     11166      11167      11178      11177      11287      11288      11299      11298  
     11167      11168      11179      11178      11288      11289      11300      11299  
     11168      11169      11180      11179      11289      11290      11301      11300  
     11169      11170      11181      11180      11290      11291      11302      11301  
     11170      11171      11182      11181      11291      11292      11303      11302  
     11171      11172      11183      11182      11292      11293      11304      11303  
     11172      11173      11184      11183      11293      11294      11305      11304  
     11173      11174      11185      11184      11294      11295      11306      11305  
     11174      11175      11186      11185      11295      11296      11307      11306  
     11175      11176      11187      11186      11296      11297      11308      11307  
     11177      11178      11189      11188      11298      11299      11310      11309  
     11178      11179      11190      11189      11299      11300      11311      11310  
     11179      11180      11191      11190      11300      11301      11312      11311  
     11180      11181      11192      11191      11301      11302      11313      11312  
     11181      11182      11193      11192      11302      11303      11314      11313  
     11182      11183      11194      11193      11303      11304      11315      11314  
     11183      11184      11195      11194      11304      11305      11316      11315  
     11184      11185      11196      11195      11305      11306      11317      11316  
     11185      11186      11197      11196      11306      11307      11318      11317  
     11186      11187      11198      11197      11307      11308      11319      11318  
     11188      11189      11200      11199      11309      11310      11321      11320  
     11189      11190      11201      11200      11310      11311      11322      11321  
     11190      11191      11202      11201      11311      11312      11323      11322  
     11191      11192      11203      11202      11312      11313      11324      11323  
     11192      11193      11204      11203      11313      11314      11325      11324  
     11193      11194      11205      11204      11314      11315      11326      11325  
     11194      11195      11206      11205      11315      11316      11327      11326  
     11195      11196      11207      11206      11316      11317      11328      11327  
     11196      11197      11208      11207      11317      11318      11329      11328  
     11197      11198      11209      11208      11318      11319      11330      11329  
     11199      11200      11211      11210      11320      11321      11332      11331  
     11200      11201      11212      11211      11321      11322      11333      11332  
     11201      11202      11213      11212      11322      11323      11334      11333  
     11202      11203      11214      11213      11323      11324      11335      11334  
     11203      11204      11215      11214      11324      11325      11336      11335  
     11204      11205      11216      11215      11325      11326      11337      11336  
     11205      11206      11217      11216      11326      11327      11338      11337  
     11206      11207      11218      11217      11327      11328      11339      11338  
     11207      11208      11219      11218      11328      11329      11340      11339  
     11208      11209      11220      11219      11329      11330      11341      11340  
     11210      11211      11222      11221      11331      11332      11343      11342  
     11211      11212      11223      11222      11332      11333      11344      11343  
     11212      11213      11224      11223      11333      11334      11345      11344  
     11213      11214      11225      11224      11334      11335      11346      11345  
     11214      11215      11226      11225      11335      11336      11347      11346  
     11215      11216      11227      11226      11336      11337      11348      11347  
     11216      11217      11228      11227      11337      11338      11349      11348  
     11217      11218      11229      11228      11338      11339      11350      11349  
     11218      11219      11230      11229      11339      11340      11351      11350  
     11219      11220      11231      11230      11340      11341      11352      11351  
     11221      11222      11233      11232      11342      11343      11354      11353  
     11222      11223      11234      11233      11343      11344      11355      11354  
     11223      11224      11235      11234      11344      11345      11356      11355  
     11224      11225      11236      11235      11345      11346      11357      11356  
     11225      11226      11237      11236      11346      11347      11358      11357  
     11226      11227      11238      11237      11347      11348      11359      11358  
     11227      11228      11239      11238      11348      11349      11360      11359  
     11228      11229      11240      11239      11349      11350      11361      11360  
     11229      11230      11241      11240      11350      11351      11362      11361  
     11230      11231      11242      11241      11351      11352      11363      11362  
     11232      11233      11244      11243      11353      11354      11365      11364  
     11233      11234      11245      11244      11354      11355      11366      11365  
     11234      11235      11246      11245      11355      11356      11367      11366  
     11235      11236      11247      11246      11356      11357      11368      11367  
     11236      11237      11248      11247      11357      11358      11369      11368  
     11237      11238      11249      11248      11358      11359      11370      11369  
     11238      11239      11250      11249      11359      11360      11371      11370  
     11239      11240      11251      11250      11360      11361      11372      11371  
     11240      11241      11252      11251      11361      11362      11373      11372  
     11241      11242      11253      11252      11362      11363      11374      11373  
     11254      11255      11266      11265      11375      11376      11387      11386  
     11255      11256      11267      11266      11376      11377      11388      11387  
     11256      11257      11268      11267      11377      11378      11389      11388  
     11257      11258      11269      11268      11378      11379      11390      11389  
     11258      11259      11270      11269      11379      11380      11391      11390  
     11259      11260      11271      11270      11380      11381      11392      11391  
     11260      11261      11272      11271      11381      11382      11393      11392  
     11261      11262      11273      11272      11382      11383      11394      11393  
     11262      11263      11274      11273      11383      11384      11395      11394  
     11263      11264      11275      11274      11384      11385      11396      11395  
     11265      11266      11277      11276      11386      11387      11398      11397  
     11266      11267      11278      11277      11387      11388      11399      11398  
     11267      11268      11279      11278      11388      11389      11400      11399  
     11268      11269      11280      11279      11389      11390      11401      11400  
     11269      11270      11281      11280      11390      11391      11402      11401  
     11270      11271      11282      11281      11391      11392      11403      11402  
     11271      11272      11283      11282      11392      11393      11404      11403  
     11272      11273      11284      11283      11393      11394      11405      11404  
     11273      11274      11285      11284      11394      11395      11406      11405  
     11274      11275      11286      11285      11395      11396      11407      11406  
     11276      11277      11288      11287      11397      11398      11409      11408  
     11277      11278      11289      11288      11398      11399      11410      11409  
     11278      11279      11290      11289      11399      11400      11411      11410  
     11279      11280      11291      11290      11400      11401      11412      11411  
     11280      11281      11292      11291      11401      11402      11413      11412  
     11281      11282      11293      11292      11402      11403      11414      11413  
     11282      11283      11294      11293      11403      11404      11415      11414  
     11283      11284      11295      11294      11404      11405      11416      11415  
     11284      11285      11296      11295      11405      11406      11417      11416  
     11285      11286      11297      11296      11406      11407      11418      11417  
     11287      11288      11299      11298      11408      11409      11420      11419  
     11288      11289      11300      11299      11409      11410      11421      11420  
     11289      11290      11301      11300      11410      11411      11422      11421  
     11290      11291      11302      11301      11411      11412      11423      11422  
     11291      11292      11303      11302      11412      11413      11424      11423  
     11292      11293      11304      11303      11413      11414      11425      11424  
     11293      11294      11305      11304      11414      11415      11426      11425  
     11294      11295      11306      11305      11415      11416      11427      11426  
     11295      11296      11307      11306      11416      11417      11428      11427  
     11296      11297      11308      11307      11417      11418      11429      11428  
     11298      11299      11310      11309      11419      11420      11431      11430  
     11299      11300      11311      11310      11420      11421      11432      11431  
     11300      11301      11312      11311      11421      11422      11433      11432  
     11301      11302      11313      11312      11422      11423      11434      11433  
     11302      11303      11314      11313      11423      11424      11435      11434  
     11303      11304      11315      11314      11424      11425      11436      11435  
     11304      11305      11316      11315      11425      11426      11437      11436  
     11305      11306      11317      11316      11426      11427      11438      11437  
     11306      11307      11318      11317      11427      11428      11439      11438  
     11307      11308      11319      11318      11428      11429      11440      11439  
     11309      11310      11321      11320      11430      11431      11442      11441  
     11310      11311      11322      11321      11431      11432      11443      11442  
     11311      11312      11323      11322      11432      11433      11444      11443  
     11312      11313      11324      11323      11433      11434      11445      11444  
     11313      11314      11325      11324      11434      11435      11446      11445  
     11314      11315      11326      11325      11435      11436      11447      11446  
     11315      11316      11327      11326      11436      11437      11448      11447  
     11316      11317      11328      11327      11437      11438      11449      11448  
     11317      11318      11329      11328      11438      11439      11450      11449  
     11318      11319      11330      11329      11439      11440      11451      11450  
     11320      11321      11332      11331      11441      11442      11453      11452  
     11321      11322      11333      11332      11442      11443      11454      11453  
     11322      11323      11334      11333      11443      11444      11455      11454  
     11323      11324      11335      11334      11444      11445      11456      11455  
     11324      11325      11336      11335      11445      11446      11457      11456  
     11325      11326      11337      11336      11446      11447      11458      11457  
     11326      11327      11338      11337      11447      11448      11459      11458  
     11327      11328      11339      11338      11448      11449      11460      11459  
     11328      11329      11340      11339      11449      11450      11461      11460  
     11329      11330      11341      11340      11450      11451      11462      11461  
     11331      11332      11343      11342      11452      11453      11464      11463  
     11332      11333      11344      11343      11453      11454      11465      11464  
     11333      11334      11345      11344      11454      11455      11466      11465  
     11334      11335      11346      11345      11455      11456      11467      11466  
     11335      11336      11347      11346      11456      11457      11468      11467  
     11336      11337      11348      11347      11457      11458      11469      11468  
     11337      11338      11349      11348      11458      11459      11470      11469  
     11338      11339      11350      11349      11459      11460      11471      11470  
     11339      11340      11351      11350      11460      11461      11472      11471  
     11340      11341      11352      11351      11461      11462      11473      11472  
     11342      11343      11354      11353      11463      11464      11475      11474  
     11343      11344      11355      11354      11464      11465      11476      11475  
     11344      11345      11356      11355      11465      11466      11477      11476  
     11345      11346      11357      11356      11466      11467      11478      11477  
     11346      11347      11358      11357      11467      11468      11479      11478  
     11347      11348      11359      11358      11468      11469      11480      11479  
     11348      11349      11360      11359      11469      11470      11481      11480  
     11349      11350      11361      11360      11470      11471      11482      11481  
     11350      11351      11362      11361      11471      11472      11483      11482  
     11351      11352      11363      11362      11472      11473      11484      11483  
     11353      11354      11365      11364      11474      11475      11486      11485  
     11354      11355      11366      11365      11475      11476      11487      11486  
     11355      11356      11367      11366      11476      11477      11488      11487  
     11356      11357      11368      11367      11477      11478      11489      11488  
     11357      11358      11369      11368      11478      11479      11490      11489  
     11358      11359      11370      11369      11479      11480      11491      11490  
     11359      11360      11371      11370      11480      11481      11492      11491  
     11360      11361      11372      11371      11481      11482      11493      11492  
     11361      11362      11373      11372      11482      11483      11494      11493  
     11362      11363      11374      11373      11483      11484      11495      11494  
     11375      11376      11387      11386      11496      11497      11508      11507  
     11376      11377      11388      11387      11497      11498      11509      11508  
     11377      11378      11389      11388      11498      11499      11510      11509  
     11378      11379      11390      11389      11499      11500      11511      11510  
     11379      11380      11391      11390      11500      11501      11512      11511  
     11380      11381      11392      11391      11501      11502      11513      11512  
     11381      11382      11393      11392      11502      11503      11514      11513  
     11382      11383      11394      11393      11503      11504      11515      11514  
     11383      11384      11395      11394      11504      11505      11516      11515  
     11384      11385      11396      11395      11505      11506      11517      11516  
     11386      11387      11398      11397      11507      11508      11519      11518  
     11387      11388      11399      11398      11508      11509      11520      11519  
     11388      11389      11400      11399      11509      11510      11521      11520  
     11389      11390      11401      11400      11510      11511      11522      11521  
     11390      11391      11402      11401      11511      11512      11523      11522  
     11391      11392      11403      11402      11512      11513      11524      11523  
     11392      11393      11404      11403      11513      11514      11525      11524  
     11393      11394      11405      11404      11514      11515      11526      11525  
     11394      11395      11406      11405      11515      11516      11527      11526  
     11395      11396      11407      11406      11516      11517      11528      11527  
     11397      11398      11409      11408      11518      11519      11530      11529  
     11398      11399      11410      11409      11519      11520      11531      11530  
     11399      11400      11411      11410      11520      11521      11532      11531  
     11400      11401      11412      11411      11521      11522      11533      11532  
     11401      11402      11413      11412      11522      11523      11534      11533  
     11402      11403      11414      11413      11523      11524      11535      11534  
     11403      11404      11415      11414      11524      11525      11536      11535  
     11404      11405      11416      11415      11525      11526      11537      11536  
     11405      11406      11417      11416      11526      11527      11538      11537  
     11406      11407      11418      11417      11527      11528      11539      11538  
     11408      11409      11420      11419      11529      11530      11541      11540  
     11409      11410      11421      11420      11530      11531      11542      11541  
     11410      11411      11422      11421      11531      11532      11543      11542  
     11411      11412      11423      11422      11532      11533      11544      11543  
     11412      11413      11424      11423      11533      11534      11545      11544  
     11413      11414      11425      11424      11534      11535      11546      11545  
     11414      11415      11426      11425      11535      11536      11547      11546  
     11415      11416      11427      11426      11536      11537      11548      11547  
     11416      11417      11428      11427      11537      11538      11549      11548  
     11417      11418      11429      11428      11538      11539      11550      11549  
     11419      11420      11431      11430      11540      11541      11552      11551  
     11420      11421      11432      11431      11541      11542      11553      11552  
     11421      11422      11433      11432      11542      11543      11554      11553  
     11422      11423      11434      11433      11543      11544      11555      11554  
     11423      11424      11435      11434      11544      11545      11556      11555  
     11424      11425      11436      11435      11545      11546      11557      11556  
     11425      11426      11437      11436      11546      11547      11558      11557  
     11426      11427      11438      11437      11547      11548      11559      11558  
     11427      11428      11439      11438      11548      11549      11560      11559  
     11428      11429      11440      11439      11549      11550      11561      11560  
     11430      11431      11442      11441      11551      11552      11563      11562  
     11431      11432      11443      11442      11552      11553      11564      11563  
     11432      11433      11444      11443      11553      11554      11565      11564  
     11433      11434      11445      11444      11554      11555      11566      11565  
     11434      11435      11446      11445      11555      11556      11567      11566  
     11435      11436      11447      11446      11556      11557      11568      11567  
     11436      11437      11448      11447      11557      11558      11569      11568  
     11437      11438      11449      11448      11558      11559      11570      11569  
     11438      11439      11450      11449      11559      11560      11571      11570  
     11439      11440      11451      11450      11560      11561      11572      11571  
     11441      11442      11453      11452      11562      11563      11574      11573  
     11442      11443      11454      11453      11563      11564      11575      11574  
     11443      11444      11455      11454      11564      11565      11576      11575  
     11444      11445      11456      11455      11565      11566      11577      11576  
     11445      11446      11457      11456      11566      11567      11578      11577  
     11446      11447      11458      11457      11567      11568      11579      11578  
     11447      11448      11459      11458      11568      11569      11580      11579  
     11448      11449      11460      11459      11569      11570      11581      11580  
     11449      11450      11461      11460      11570      11571      11582      11581  
     11450      11451      11462      11461      11571      11572      11583      11582  
     11452      11453      11464      11463      11573      11574      11585      11584  
     11453      11454      11465      11464      11574      11575      11586      11585  
     11454      11455      11466      11465      11575      11576      11587      11586  
     11455      11456      11467      11466      11576      11577      11588      11587  
     11456      11457      11468      11467      11577      11578      11589      11588  
     11457      11458      11469      11468      11578      11579      11590      11589  
     11458      11459      11470      11469      11579      11580      11591      11590  
     11459      11460      11471      11470      11580      11581      11592      11591  
     11460      11461      11472      11471      11581      11582      11593      11592  
     11461      11462      11473      11472      11582      11583      11594      11593  
     11463      11464      11475      11474      11584      11585      11596      11595  
     11464      11465      11476      11475      11585      11586      11597      11596  
     11465      11466      11477      11476      11586      11587      11598      11597  
     11466      11467      11478      11477      11587      11588      11599      11598  
     11467      11468      11479      11478      11588      11589      11600      11599  
     11468      11469      11480      11479      11589      11590      11601      11600  
     11469      11470      11481      11480      11590      11591      11602      11601  
     11470      11471      11482      11481      11591      11592      11603      11602  
     11471      11472      11483      11482      11592      11593      11604      11603  
     11472      11473      11484      11483      11593      11594      11605      11604  
     11474      11475      11486      11485      11595      11596      11607      11606  
     11475      11476      11487      11486      11596      11597      11608      11607  
     11476      11477      11488      11487      11597      11598      11609      11608  
     11477      11478      11489      11488      11598      11599      11610      11609  
     11478      11479      11490      11489      11599      11600      11611      11610  
     11479      11480      11491      11490      11600      11601      11612      11611  
     11480      11481      11492      11491      11601      11602      11613      11612  
     11481      11482      11493      11492      11602      11603      11614      11613  
     11482      11483      11494      11493      11603      11604      11615      11614  
     11483      11484      11495      11494      11604      11605      11616      11615  
     11496      11497      11508      11507      11617      11618      11629      11628  
     11497      11498      11509      11508      11618      11619      11630      11629  
     11498      11499      11510      11509      11619      11620      11631      11630  
     11499      11500      11511      11510      11620      11621      11632      11631  
     11500      11501      11512      11511      11621      11622      11633      11632  
     11501      11502      11513      11512      11622      11623      11634      11633  
     11502      11503      11514      11513      11623      11624      11635      11634  
     11503      11504      11515      11514      11624      11625      11636      11635  
     11504      11505      11516      11515      11625      11626      11637      11636  
     11505      11506      11517      11516      11626      11627      11638      11637  
     11507      11508      11519      11518      11628      11629      11640      11639  
     11508      11509      11520      11519      11629      11630      11641      11640  
     11509      11510      11521      11520      11630      11631      11642      11641  
     11510      11511      11522      11521      11631      11632      11643      11642  
     11511      11512      11523      11522      11632      11633      11644      11643  
     11512      11513      11524      11523      11633      11634      11645      11644  
     11513      11514      11525      11524      11634      11635      11646      11645  
     11514      11515      11526      11525      11635      11636      11647      11646  
     11515      11516      11527      11526      11636      11637      11648      11647  
     11516      11517      11528      11527      11637      11638      11649      11648  
     11518      11519      11530      11529      11639      11640      11651      11650  
     11519      11520      11531      11530      11640      11641      11652      11651  
     11520      11521      11532      11531      11641      11642      11653      11652  
     11521      11522      11533      11532      11642      11643      11654      11653  
     11522      11523      11534      11533      11643      11644      11655      11654  
     11523      11524      11535      11534      11644      11645      11656      11655  
     11524      11525      11536      11535      11645      11646      11657      11656  
     11525      11526      11537      11536      11646      11647      11658      11657  
     11526      11527      11538      11537      11647      11648      11659      11658  
     11527      11528      11539      11538      11648      11649      11660      11659  
     11529      11530      11541      11540      11650      11651      11662      11661  
     11530      11531      11542      11541      11651      11652      11663      11662  
     11531      11532      11543      11542      11652      11653      11664      11663  
     11532      11533      11544      11543      11653      11654      11665      11664  
     11533      11534      11545      11544      11654      11655      11666      11665  
     11534      11535      11546      11545      11655      11656      11667      11666  
     11535      11536      11547      11546      11656      11657      11668      11667  
     11536      11537      11548      11547      11657      11658      11669      11668  
     11537      11538      11549      11548      11658      11659      11670      11669  
     11538      11539      11550      11549      11659      11660      11671      11670  
     11540      11541      11552      11551      11661      11662      11673      11672  
     11541      11542      11553      11552      11662      11663      11674      11673  
     11542      11543      11554      11553      11663      11664      11675      11674  
     11543      11544      11555      11554      11664      11665      11676      11675  
     11544      11545      11556      11555      11665      11666      11677      11676  
     11545      11546      11557      11556      11666      11667      11678      11677  
     11546      11547      11558      11557      11667      11668      11679      11678  
     11547      11548      11559      11558      11668      11669      11680      11679  
     11548      11549      11560      11559      11669      11670      11681      11680  
     11549      11550      11561      11560      11670      11671      11682      11681  
     11551      11552      11563      11562      11672      11673      11684      11683  
     11552      11553      11564      11563      11673      11674      11685      11684  
     11553      11554      11565      11564      11674      11675      11686      11685  
     11554      11555      11566      11565      11675      11676      11687      11686  
     11555      11556      11567      11566      11676      11677      11688      11687  
     11556      11557      11568      11567      11677      11678      11689      11688  
     11557      11558      11569      11568      11678      11679      11690      11689  
     11558      11559      11570      11569      11679      11680      11691      11690  
     11559      11560      11571      11570      11680      11681      11692      11691  
     11560      11561      11572      11571      11681      11682      11693      11692  
     11562      11563      11574      11573      11683      11684      11695      11694  
     11563      11564      11575      11574      11684      11685      11696      11695  
     11564      11565      11576      11575      11685      11686      11697      11696  
     11565      11566      11577      11576      11686      11687      11698      11697  
     11566      11567      11578      11577      11687      11688      11699      11698  
     11567      11568      11579      11578      11688      11689      11700      11699  
     11568      11569      11580      11579      11689      11690      11701      11700  
     11569      11570      11581      11580      11690      11691      11702      11701  
     11570      11571      11582      11581      11691      11692      11703      11702  
     11571      11572      11583      11582      11692      11693      11704      11703  
     11573      11574      11585      11584      11694      11695      11706      11705  
     11574      11575      11586      11585      11695      11696      11707      11706  
     11575      11576      11587      11586      11696      11697      11708      11707  
     11576      11577      11588      11587      11697      11698      11709      11708  
     11577      11578      11589      11588      11698      11699      11710      11709  
     11578      11579      11590      11589      11699      11700      11711      11710  
     11579      11580      11591      11590      11700      11701      11712      11711  
     11580      11581      11592      11591      11701      11702      11713      11712  
     11581      11582      11593      11592      11702      11703      11714      11713  
     11582      11583      11594      11593      11703      11704      11715      11714  
     11584      11585      11596      11595      11705      11706      11717      11716  
     11585      11586      11597      11596      11706      11707      11718      11717  
     11586      11587      11598      11597      11707      11708      11719      11718  
     11587      11588      11599      11598      11708      11709      11720      11719  
     11588      11589      11600      11599      11709      11710      11721      11720  
     11589      11590      11601      11600      11710      11711      11722      11721  
     11590      11591      11602      11601      11711      11712      11723      11722  
     11591      11592      11603      11602      11712      11713      11724      11723  
     11592      11593      11604      11603      11713      11714      11725      11724  
     11593      11594      11605      11604      11714      11715      11726      11725  
     11595      11596      11607      11606      11716      11717      11728      11727  
     11596      11597      11608      11607      11717      11718      11729      11728  
     11597      11598      11609      11608      11718      11719      11730      11729  
     11598      11599      11610      11609      11719      11720      11731      11730  
     11599      11600      11611      11610      11720      11721      11732      11731  
     11600      11601      11612      11611      11721      11722      11733      11732  
     11601      11602      11613      11612      11722      11723      11734      11733  
     11602      11603      11614      11613      11723      11724      11735      11734  
     11603      11604      11615      11614      11724      11725      11736      11735  
     11604      11605      11616      11615      11725      11726      11737      11736  
     11617      11618      11629      11628      11738      11739      11750      11749  
     11618      11619      11630      11629      11739      11740      11751      11750  
     11619      11620      11631      11630      11740      11741      11752      11751  
     11620      11621      11632      11631      11741      11742      11753      11752  
     11621      11622      11633      11632      11742      11743      11754      11753  
     11622      11623      11634      11633      11743      11744      11755      11754  
     11623      11624      11635      11634      11744      11745      11756      11755  
     11624      11625      11636      11635      11745      11746      11757      11756  
     11625      11626      11637      11636      11746      11747      11758      11757  
     11626      11627      11638      11637      11747      11748      11759      11758  
     11628      11629      11640      11639      11749      11750      11761      11760  
     11629      11630      11641      11640      11750      11751      11762      11761  
     11630      11631      11642      11641      11751      11752      11763      11762  
     11631      11632      11643      11642      11752      11753      11764      11763  
     11632      11633      11644      11643      11753      11754      11765      11764  
     11633      11634      11645      11644      11754      11755      11766      11765  
     11634      11635      11646      11645      11755      11756      11767      11766  
     11635      11636      11647      11646      11756      11757      11768      11767  
     11636      11637      11648      11647      11757      11758      11769      11768  
     11637      11638      11649      11648      11758      11759      11770      11769  
     11639      11640      11651      11650      11760      11761      11772      11771  
     11640      11641      11652      11651      11761      11762      11773      11772  
     11641      11642      11653      11652      11762      11763      11774      11773  
     11642      11643      11654      11653      11763      11764      11775      11774  
     11643      11644      11655      11654      11764      11765      11776      11775  
     11644      11645      11656      11655      11765      11766      11777      11776  
     11645      11646      11657      11656      11766      11767      11778      11777  
     11646      11647      11658      11657      11767      11768      11779      11778  
     11647      11648      11659      11658      11768      11769      11780      11779  
     11648      11649      11660      11659      11769      11770      11781      11780  
     11650      11651      11662      11661      11771      11772      11783      11782  
     11651      11652      11663      11662      11772      11773      11784      11783  
     11652      11653      11664      11663      11773      11774      11785      11784  
     11653      11654      11665      11664      11774      11775      11786      11785  
     11654      11655      11666      11665      11775      11776      11787      11786  
     11655      11656      11667      11666      11776      11777      11788      11787  
     11656      11657      11668      11667      11777      11778      11789      11788  
     11657      11658      11669      11668      11778      11779      11790      11789  
     11658      11659      11670      11669      11779      11780      11791      11790  
     11659      11660      11671      11670      11780      11781      11792      11791  
     11661      11662      11673      11672      11782      11783      11794      11793  
     11662      11663      11674      11673      11783      11784      11795      11794  
     11663      11664      11675      11674      11784      11785      11796      11795  
     11664      11665      11676      11675      11785      11786      11797      11796  
     11665      11666      11677      11676      11786      11787      11798      11797  
     11666      11667      11678      11677      11787      11788      11799      11798  
     11667      11668      11679      11678      11788      11789      11800      11799  
     11668      11669      11680      11679      11789      11790      11801      11800  
     11669      11670      11681      11680      11790      11791      11802      11801  
     11670      11671      11682      11681      11791      11792      11803      11802  
     11672      11673      11684      11683      11793      11794      11805      11804  
     11673      11674      11685      11684      11794      11795      11806      11805  
     11674      11675      11686      11685      11795      11796      11807      11806  
     11675      11676      11687      11686      11796      11797      11808      11807  
     11676      11677      11688      11687      11797      11798      11809      11808  
     11677      11678      11689      11688      11798      11799      11810      11809  
     11678      11679      11690      11689      11799      11800      11811      11810  
     11679      11680      11691      11690      11800      11801      11812      11811  
     11680      11681      11692      11691      11801      11802      11813      11812  
     11681      11682      11693      11692      11802      11803      11814      11813  
     11683      11684      11695      11694      11804      11805      11816      11815  
     11684      11685      11696      11695      11805      11806      11817      11816  
     11685      11686      11697      11696      11806      11807      11818      11817  
     11686      11687      11698      11697      11807      11808      11819      11818  
     11687      11688      11699      11698      11808      11809      11820      11819  
     11688      11689      11700      11699      11809      11810      11821      11820  
     11689      11690      11701      11700      11810      11811      11822      11821  
     11690      11691      11702      11701      11811      11812      11823      11822  
     11691      11692      11703      11702      11812      11813      11824      11823  
     11692      11693      11704      11703      11813      11814      11825      11824  
     11694      11695      11706      11705      11815      11816      11827      11826  
     11695      11696      11707      11706      11816      11817      11828      11827  
     11696      11697      11708      11707      11817      11818      11829      11828  
     11697      11698      11709      11708      11818      11819      11830      11829  
     11698      11699      11710      11709      11819      11820      11831      11830  
     11699      11700      11711      11710      11820      11821      11832      11831  
     11700      11701      11712      11711      11821      11822      11833      11832  
     11701      11702      11713      11712      11822      11823      11834      11833  
     11702      11703      11714      11713      11823      11824      11835      11834  
     11703      11704      11715      11714      11824      11825      11836      11835  
     11705      11706      11717      11716      11826      11827      11838      11837  
     11706      11707      11718      11717      11827      11828      11839      11838  
     11707      11708      11719      11718      11828      11829      11840      11839  
     11708      11709      11720      11719      11829      11830      11841      11840  
     11709      11710      11721      11720      11830      11831      11842      11841  
     11710      11711      11722      11721      11831      11832      11843      11842  
     11711      11712      11723      11722      11832      11833      11844      11843  
     11712      11713      11724      11723      11833      11834      11845      11844  
     11713      11714      11725      11724      11834      11835      11846      11845  
     11714      11715      11726      11725      11835      11836      11847      11846  
     11716      11717      11728      11727      11837      11838      11849      11848  
     11717      11718      11729      11728      11838      11839      11850      11849  
     11718      11719      11730      11729      11839      11840      11851      11850  
     11719      11720      11731      11730      11840      11841      11852      11851  
     11720      11721      11732      11731      11841      11842      11853      11852  
     11721      11722      11733      11732      11842      11843      11854      11853  
     11722      11723      11734      11733      11843      11844      11855      11854  
     11723      11724      11735      11734      11844      11845      11856      11855  
     11724      11725      11736      11735      11845      11846      11857      11856  
     11725      11726      11737      11736      11846      11847      11858      11857  
     11738      11739      11750      11749      11859      11860      11871      11870  
     11739      11740      11751      11750      11860      11861      11872      11871  
     11740      11741      11752      11751      11861      11862      11873      11872  
     11741      11742      11753      11752      11862      11863      11874      11873  
     11742      11743      11754      11753      11863      11864      11875      11874  
     11743      11744      11755      11754      11864      11865      11876      11875  
     11744      11745      11756      11755      11865      11866      11877      11876  
     11745      11746      11757      11756      11866      11867      11878      11877  
     11746      11747      11758      11757      11867      11868      11879      11878  
     11747      11748      11759      11758      11868      11869      11880      11879  
     11749      11750      11761      11760      11870      11871      11882      11881  
     11750      11751      11762      11761      11871      11872      11883      11882  
     11751      11752      11763      11762      11872      11873      11884      11883  
     11752      11753      11764      11763      11873      11874      11885      11884  
     11753      11754      11765      11764      11874      11875      11886      11885  
     11754      11755      11766      11765      11875      11876      11887      11886  
     11755      11756      11767      11766      11876      11877      11888      11887  
     11756      11757      11768      11767      11877      11878      11889      11888  
     11757      11758      11769      11768      11878      11879      11890      11889  
     11758      11759      11770      11769      11879      11880      11891      11890  
     11760      11761      11772      11771      11881      11882      11893      11892  
     11761      11762      11773      11772      11882      11883      11894      11893  
     11762      11763      11774      11773      11883      11884      11895      11894  
     11763      11764      11775      11774      11884      11885      11896      11895  
     11764      11765      11776      11775      11885      11886      11897      11896  
     11765      11766      11777      11776      11886      11887      11898      11897  
     11766      11767      11778      11777      11887      11888      11899      11898  
     11767      11768      11779      11778      11888      11889      11900      11899  
     11768      11769      11780      11779      11889      11890      11901      11900  
     11769      11770      11781      11780      11890      11891      11902      11901  
     11771      11772      11783      11782      11892      11893      11904      11903  
     11772      11773      11784      11783      11893      11894      11905      11904  
     11773      11774      11785      11784      11894      11895      11906      11905  
     11774      11775      11786      11785      11895      11896      11907      11906  
     11775      11776      11787      11786      11896      11897      11908      11907  
     11776      11777      11788      11787      11897      11898      11909      11908  
     11777      11778      11789      11788      11898      11899      11910      11909  
     11778      11779      11790      11789      11899      11900      11911      11910  
     11779      11780      11791      11790      11900      11901      11912      11911  
     11780      11781      11792      11791      11901      11902      11913      11912  
     11782      11783      11794      11793      11903      11904      11915      11914  
     11783      11784      11795      11794      11904      11905      11916      11915  
     11784      11785      11796      11795      11905      11906      11917      11916  
     11785      11786      11797      11796      11906      11907      11918      11917  
     11786      11787      11798      11797      11907      11908      11919      11918  
     11787      11788      11799      11798      11908      11909      11920      11919  
     11788      11789      11800      11799      11909      11910      11921      11920  
     11789      11790      11801      11800      11910      11911      11922      11921  
     11790      11791      11802      11801      11911      11912      11923      11922  
     11791      11792      11803      11802      11912      11913      11924      11923  
     11793      11794      11805      11804      11914      11915      11926      11925  
     11794      11795      11806      11805      11915      11916      11927      11926  
     11795      11796      11807      11806      11916      11917      11928      11927  
     11796      11797      11808      11807      11917      11918      11929      11928  
     11797      11798      11809      11808      11918      11919      11930      11929  
     11798      11799      11810      11809      11919      11920      11931      11930  
     11799      11800      11811      11810      11920      11921      11932      11931  
     11800      11801      11812      11811      11921      11922      11933      11932  
     11801      11802      11813      11812      11922      11923      11934      11933  
     11802      11803      11814      11813      11923      11924      11935      11934  
     11804      11805      11816      11815      11925      11926      11937      11936  
     11805      11806      11817      11816      11926      11927      11938      11937  
     11806      11807      11818      11817      11927      11928      11939      11938  
     11807      11808      11819      11818      11928      11929      11940      11939  
     11808      11809      11820      11819      11929      11930      11941      11940  
     11809      11810      11821      11820      11930      11931      11942      11941  
     11810      11811      11822      11821      11931      11932      11943      11942  
     11811      11812      11823      11822      11932      11933      11944      11943  
     11812      11813      11824      11823      11933      11934      11945      11944  
     11813      11814      11825      11824      11934      11935      11946      11945  
     11815      11816      11827      11826      11936      11937      11948      11947  
     11816      11817      11828      11827      11937      11938      11949      11948  
     11817      11818      11829      11828      11938      11939      11950      11949  
     11818      11819      11830      11829      11939      11940      11951      11950  
     11819      11820      11831      11830      11940      11941      11952      11951  
     11820      11821      11832      11831      11941      11942      11953      11952  
     11821      11822      11833      11832      11942      11943      11954      11953  
     11822      11823      11834      11833      11943      11944      11955      11954  
     11823      11824      11835      11834      11944      11945      11956      11955  
     11824      11825      11836      11835      11945      11946      11957      11956  
     11826      11827      11838      11837      11947      11948      11959      11958  
     11827      11828      11839      11838      11948      11949      11960      11959  
     11828      11829      11840      11839      11949      11950      11961      11960  
     11829      11830      11841      11840      11950      11951      11962      11961  
     11830      11831      11842      11841      11951      11952      11963      11962  
     11831      11832      11843      11842      11952      11953      11964      11963  
     11832      11833      11844      11843      11953      11954      11965      11964  
     11833      11834      11845      11844      11954      11955      11966      11965  
     11834      11835      11846      11845      11955      11956      11967      11966  
     11835      11836      11847      11846      11956      11957      11968      11967  
     11837      11838      11849      11848      11958      11959      11970      11969  
     11838      11839      11850      11849      11959      11960      11971      11970  
     11839      11840      11851      11850      11960      11961      11972      11971  
     11840      11841      11852      11851      11961      11962      11973      11972  
     11841      11842      11853      11852      11962      11963      11974      11973  
     11842      11843      11854      11853      11963      11964      11975      11974  
     11843      11844      11855      11854      11964      11965      11976      11975  
     11844      11845      11856      11855      11965      11966      11977      11976  
     11845      11846      11857      11856      11966      11967      11978      11977  
     11846      11847      11858      11857      11967      11968      11979      11978  
     11859      11860      11871      11870      11980      11981      11992      11991  
     11860      11861      11872      11871      11981      11982      11993      11992  
     11861      11862      11873      11872      11982      11983      11994      11993  
     11862      11863      11874      11873      11983      11984      11995      11994  
     11863      11864      11875      11874      11984      11985      11996      11995  
     11864      11865      11876      11875      11985      11986      11997      11996  
     11865      11866      11877      11876      11986      11987      11998      11997  
     11866      11867      11878      11877      11987      11988      11999      11998  
     11867      11868      11879      11878      11988      11989      12000      11999  
     11868      11869      11880      11879      11989      11990      12001      12000  
     11870      11871      11882      11881      11991      11992      12003      12002  
     11871      11872      11883      11882      11992      11993      12004      12003  
     11872      11873      11884      11883      11993      11994      12005      12004  
     11873      11874      11885      11884      11994      11995      12006      12005  
     11874      11875      11886      11885      11995      11996      12007      12006  
     11875      11876      11887      11886      11996      11997      12008      12007  
     11876      11877      11888      11887      11997      11998      12009      12008  
     11877      11878      11889      11888      11998      11999      12010      12009  
     11878      11879      11890      11889      11999      12000      12011      12010  
     11879      11880      11891      11890      12000      12001      12012      12011  
     11881      11882      11893      11892      12002      12003      12014      12013  
     11882      11883      11894      11893      12003      12004      12015      12014  
     11883      11884      11895      11894      12004      12005      12016      12015  
     11884      11885      11896      11895      12005      12006      12017      12016  
     11885      11886      11897      11896      12006      12007      12018      12017  
     11886      11887      11898      11897      12007      12008      12019      12018  
     11887      11888      11899      11898      12008      12009      12020      12019  
     11888      11889      11900      11899      12009      12010      12021      12020  
     11889      11890      11901      11900      12010      12011      12022      12021  
     11890      11891      11902      11901      12011      12012      12023      12022  
     11892      11893      11904      11903      12013      12014      12025      12024  
     11893      11894      11905      11904      12014      12015      12026      12025  
     11894      11895      11906      11905      12015      12016      12027      12026  
     11895      11896      11907      11906      12016      12017      12028      12027  
     11896      11897      11908      11907      12017      12018      12029      12028  
     11897      11898      11909      11908      12018      12019      12030      12029  
     11898      11899      11910      11909      12019      12020      12031      12030  
     11899      11900      11911      11910      12020      12021      12032      12031  
     11900      11901      11912      11911      12021      12022      12033      12032  
     11901      11902      11913      11912      12022      12023      12034      12033  
     11903      11904      11915      11914      12024      12025      12036      12035  
     11904      11905      11916      11915      12025      12026      12037      12036  
     11905      11906      11917      11916      12026      12027      12038      12037  
     11906      11907      11918      11917      12027      12028      12039      12038  
     11907      11908      11919      11918      12028      12029      12040      12039  
     11908      11909      11920      11919      12029      12030      12041      12040  
     11909      11910      11921      11920      12030      12031      12042      12041  
     11910      11911      11922      11921      12031      12032      12043      12042  
     11911      11912      11923      11922      12032      12033      12044      12043  
     11912      11913      11924      11923      12033      12034      12045      12044  
     11914      11915      11926      11925      12035      12036      12047      12046  
     11915      11916      11927      11926      12036      12037      12048      12047  
     11916      11917      11928      11927      12037      12038      12049      12048  
     11917      11918      11929      11928      12038      12039      12050      12049  
     11918      11919      11930      11929      12039      12040      12051      12050  
     11919      11920      11931      11930      12040      12041      12052      12051  
     11920      11921      11932      11931      12041      12042      12053      12052  
     11921      11922      11933      11932      12042      12043      12054      12053  
     11922      11923      11934      11933      12043      12044      12055      12054  
     11923      11924      11935      11934      12044      12045      12056      12055  
     11925      11926      11937      11936      12046      12047      12058      12057  
     11926      11927      11938      11937      12047      12048      12059      12058  
     11927      11928      11939      11938      12048      12049      12060      12059  
     11928      11929      11940      11939      12049      12050      12061      12060  
     11929      11930      11941      11940      12050      12051      12062      12061  
     11930      11931      11942      11941      12051      12052      12063      12062  
     11931      11932      11943      11942      12052      12053      12064      12063  
     11932      11933      11944      11943      12053      12054      12065      12064  
     11933      11934      11945      11944      12054      12055      12066      12065  
     11934      11935      11946      11945      12055      12056      12067      12066  
     11936      11937      11948      11947      12057      12058      12069      12068  
     11937      11938      11949      11948      12058      12059      12070      12069  
     11938      11939      11950      11949      12059      12060      12071      12070  
     11939      11940      11951      11950      12060      12061      12072      12071  
     11940      11941      11952      11951      12061      12062      12073      12072  
     11941      11942      11953      11952      12062      12063      12074      12073  
     11942      11943      11954      11953      12063      12064      12075      12074  
     11943      11944      11955      11954      12064      12065      12076      12075  
     11944      11945      11956      11955      12065      12066      12077      12076  
     11945      11946      11957      11956      12066      12067      12078      12077  
     11947      11948      11959      11958      12068      12069      12080      12079  
     11948      11949      11960      11959      12069      12070      12081      12080  
     11949      11950      11961      11960      12070      12071      12082      12081  
     11950      11951      11962      11961      12071      12072      12083      12082  
     11951      11952      11963      11962      12072      12073      12084      12083  
     11952      11953      11964      11963      12073      12074      12085      12084  
     11953      11954      11965      11964      12074      12075      12086      12085  
     11954      11955      11966      11965      12075      12076      12087      12086  
     11955      11956      11967      11966      12076      12077      12088      12087  
     11956      11957      11968      11967      12077      12078      12089      12088  
     11958      11959      11970      11969      12079      12080      12091      12090  
     11959      11960      11971      11970      12080      12081      12092      12091  
     11960      11961      11972      11971      12081      12082      12093      12092  
     11961      11962      11973      11972      12082      12083      12094      12093  
     11962      11963      11974      11973      12083      12084      12095      12094  
     11963      11964      11975      11974      12084      12085      12096      12095  
     11964      11965      11976      11975      12085      12086      12097      12096  
     11965      11966      11977      11976      12086      12087      12098      12097  
     11966      11967      11978      11977      12087      12088      12099      12098  
     11967      11968      11979      11978      12088      12089      12100      12099  
     11980      11981      11992      11991      12101      12102      12113      12112  
     11981      11982      11993      11992      12102      12103      12114      12113  
     11982      11983      11994      11993      12103      12104      12115      12114  
     11983      11984      11995      11994      12104      12105      12116      12115  
     11984      11985      11996      11995      12105      12106      12117      12116  
     11985      11986      11997      11996      12106      12107      12118      12117  
     11986      11987      11998      11997      12107      12108      12119      12118  
     11987      11988      11999      11998      12108      12109      12120      12119  
     11988      11989      12000      11999      12109      12110      12121      12120  
     11989      11990      12001      12000      12110      12111      12122      12121  
     11991      11992      12003      12002      12112      12113      12124      12123  
     11992      11993      12004      12003      12113      12114      12125      12124  
     11993      11994      12005      12004      12114      12115      12126      12125  
     11994      11995      12006      12005      12115      12116      12127      12126  
     11995      11996      12007      12006      12116      12117      12128      12127  
     11996      11997      12008      12007      12117      12118      12129      12128  
     11997      11998      12009      12008      12118      12119      12130      12129  
     11998      11999      12010      12009      12119      12120      12131      12130  
     11999      12000      12011      12010      12120      12121      12132      12131  
     12000      12001      12012      12011      12121      12122      12133      12132  
     12002      12003      12014      12013      12123      12124      12135      12134  
     12003      12004      12015      12014      12124      12125      12136      12135  
     12004      12005      12016      12015      12125      12126      12137      12136  
     12005      12006      12017      12016      12126      12127      12138      12137  
     12006      12007      12018      12017      12127      12128      12139      12138  
     12007      12008      12019      12018      12128      12129      12140      12139  
     12008      12009      12020      12019      12129      12130      12141      12140  
     12009      12010      12021      12020      12130      12131      12142      12141  
     12010      12011      12022      12021      12131      12132      12143      12142  
     12011      12012      12023      12022      12132      12133      12144      12143  
     12013      12014      12025      12024      12134      12135      12146      12145  
     12014      12015      12026      12025      12135      12136      12147      12146  
     12015      12016      12027      12026      12136      12137      12148      12147  
     12016      12017      12028      12027      12137      12138      12149      12148  
     12017      12018      12029      12028      12138      12139      12150      12149  
     12018      12019      12030      12029      12139      12140      12151      12150  
     12019      12020      12031      12030      12140      12141      12152      12151  
     12020      12021      12032      12031      12141      12142      12153      12152  
     12021      12022      12033      12032      12142      12143      12154      12153  
     12022      12023      12034      12033      12143      12144      12155      12154  
     12024      12025      12036      12035      12145      12146      12157      12156  
     12025      12026      12037      12036      12146      12147      12158      12157  
     12026      12027      12038      12037      12147      12148      12159      12158  
     12027      12028      12039      12038      12148      12149      12160      12159  
     12028      12029      12040      12039      12149      12150      12161      12160  
     12029      12030      12041      12040      12150      12151      12162      12161  
     12030      12031      12042      12041      12151      12152      12163      12162  
     12031      12032      12043      12042      12152      12153      12164      12163  
     12032      12033      12044      12043      12153      12154      12165      12164  
     12033      12034      12045      12044      12154      12155      12166      12165  
     12035      12036      12047      12046      12156      12157      12168      12167  
     12036      12037      12048      12047      12157      12158      12169      12168  
     12037      12038      12049      12048      12158      12159      12170      12169  
     12038      12039      12050      12049      12159      12160      12171      12170  
     12039      12040      12051      12050      12160      12161      12172      12171  
     12040      12041      12052      12051      12161      12162      12173      12172  
     12041      12042      12053      12052      12162      12163      12174      12173  
     12042      12043      12054      12053      12163      12164      12175      12174  
     12043      12044      12055      12054      12164      12165      12176      12175  
     12044      12045      12056      12055      12165      12166      12177      12176  
     12046      12047      12058      12057      12167      12168      12179      12178  
     12047      12048      12059      12058      12168      12169      12180      12179  
     12048      12049      12060      12059      12169      12170      12181      12180  
     12049      12050      12061      12060      12170      12171      12182      12181  
     12050      12051      12062      12061      12171      12172      12183      12182  
     12051      12052      12063      12062      12172      12173      12184      12183  
     12052      12053      12064      12063      12173      12174      12185      12184  
     12053      12054      12065      12064      12174      12175      12186      12185  
     12054      12055      12066      12065      12175      12176      12187      12186  
     12055      12056      12067      12066      12176      12177      12188      12187  
     12057      12058      12069      12068      12178      12179      12190      12189  
     12058      12059      12070      12069      12179      12180      12191      12190  
     12059      12060      12071      12070      12180      12181      12192      12191  
     12060      12061      12072      12071      12181      12182      12193      12192  
     12061      12062      12073      12072      12182      12183      12194      12193  
     12062      12063      12074      12073      12183      12184      12195      12194  
     12063      12064      12075      12074      12184      12185      12196      12195  
     12064      12065      12076      12075      12185      12186      12197      12196  
     12065      12066      12077      12076      12186      12187      12198      12197  
     12066      12067      12078      12077      12187      12188      12199      12198  
     12068      12069      12080      12079      12189      12190      12201      12200  
     12069      12070      12081      12080      12190      12191      12202      12201  
     12070      12071      12082      12081      12191      12192      12203      12202  
     12071      12072      12083      12082      12192      12193      12204      12203  
     12072      12073      12084      12083      12193      12194      12205      12204  
     12073      12074      12085      12084      12194      12195      12206      12205  
     12074      12075      12086      12085      12195      12196      12207      12206  
     12075      12076      12087      12086      12196      12197      12208      12207  
     12076      12077      12088      12087      12197      12198      12209      12208  
     12077      12078      12089      12088      12198      12199      12210      12209  
     12079      12080      12091      12090      12200      12201      12212      12211  
     12080      12081      12092      12091      12201      12202      12213      12212  
     12081      12082      12093      12092      12202      12203      12214      12213  
     12082      12083      12094      12093      12203      12204      12215      12214  
     12083      12084      12095      12094      12204      12205      12216      12215  
     12084      12085      12096      12095      12205      12206      12217      12216  
     12085      12086      12097      12096      12206      12207      12218      12217  
     12086      12087      12098      12097      12207      12208      12219      12218  
     12087      12088      12099      12098      12208      12209      12220      12219  
     12088      12089      12100      12099      12209      12210      12221      12220  
